0 2786
0 7551
0 13262
0 14403
0 17782
0 19591
1 3589
1 8578
1 11790
1 21507
1 21696
2 811
2 4292
2 5124
2 7388
2 10374
2 13177
2 22884
2 23425
2 23969
2 24339
3 332
3 583
3 1286
3 5669
3 16338
4 6916
4 14513
4 15400
4 18729
4 20785
5 7669
5 10590
5 14897
5 16712
5 17465
5 17467
6 1775
6 2867
6 5927
6 7303
6 15240
6 20298
6 20665
7 147
7 304
7 2541
7 3164
7 4605
7 6891
7 9860
7 10245
7 10319
7 12217
7 14137
7 15315
7 17179
7 18755
7 19020
8 506
8 5542
8 7130
8 21393
8 23380
9 1810
9 7340
9 16920
9 23668
9 23935
9 24230
10 5370
10 8510
10 15926
10 16986
10 21134
11 2822
11 5177
11 8299
11 10593
11 13054
12 1172
12 1186
12 1545
12 6573
12 12411
12 16558
12 18012
12 22568
12 23144
13 2260
13 3359
13 15018
13 19935
13 20306
14 2543
14 4315
14 18543
14 20985
14 22193
15 6460
15 8085
15 8975
15 9051
15 10006
15 13684
15 14401
15 15027
15 19052
15 19834
15 21086
15 22019
16 1511
16 2629
16 3086
16 5952
16 7456
16 12516
16 13782
16 16893
16 21257
17 5652
17 7618
17 14733
17 18299
17 18771
18 1714
18 3250
18 4660
18 8025
18 8744
18 11644
18 13024
18 14049
18 15061
18 17686
19 3891
19 4515
19 5348
19 9047
19 11361
19 12052
19 14841
19 15601
19 16417
19 16477
19 16750
19 19914
19 20077
19 22058
19 22107
20 2686
20 12101
20 12870
20 14752
20 15758
20 16028
20 16816
20 20188
21 3583
21 5901
21 6518
21 11560
21 14422
21 16292
21 17749
21 18353
21 18883
21 19206
21 19268
21 19794
21 22678
22 5145
22 7260
22 9437
22 11974
22 11975
22 12598
23 2260
23 13962
23 16496
23 18130
24 5445
24 6630
24 10600
24 14320
24 18530
25 6034
25 15195
25 16191
25 18790
25 20465
26 11295
26 14032
26 15196
26 16191
26 21465
27 742
27 3509
27 14167
27 14207
27 20707
27 21097
28 5973
28 10750
28 16852
28 18359
28 20190
29 1224
29 3929
29 11014
29 18933
29 19318
30 3049
30 4402
30 8716
30 10056
30 12776
30 13199
30 15322
30 20595
30 21237
30 21990
30 22199
30 22281
31 1196
31 2068
31 3183
31 10749
31 14842
32 4809
32 7934
32 11602
32 14988
32 15452
32 16280
32 22317
32 22512
33 1124
33 1199
33 3879
33 4889
33 8139
33 10643
33 12461
33 14808
33 15561
33 16600
33 22000
33 22577
33 22757
34 127
34 2342
34 9426
34 9502
34 13580
35 11768
35 11961
35 12907
35 16748
35 18886
35 19601
35 23035
35 23098
36 187
36 5281
36 8572
36 8792
36 10308
36 20970
36 23390
37 3948
37 8753
37 12819
37 15445
37 21834
38 4562
38 5177
38 8299
39 1189
39 6848
39 14332
39 14512
39 17572
39 18736
40 1017
40 1842
40 23865
40 23900
40 24321
41 1802
41 3378
41 9379
41 11229
41 21795
42 2351
42 7180
42 10678
42 15115
42 20771
43 5191
43 5317
43 21029
43 21822
43 23413
44 3184
44 4972
44 12454
44 17382
44 20492
45 183
45 5380
45 6424
45 7599
45 10195
45 18190
45 18687
46 532
46 10032
46 12557
46 24277
46 24470
47 2202
47 4265
47 5225
47 11655
47 12512
47 14553
47 18219
47 22543
48 2706
48 2771
48 8658
48 9371
48 9836
49 4115
49 10423
49 11561
49 19649
49 22788
50 7086
50 8601
50 9403
50 9772
50 10153
50 11120
50 11948
50 13723
50 14019
50 17646
50 19100
50 21735
51 9316
51 10958
51 17764
51 18215
51 19097
52 539
52 3439
52 6316
52 8534
52 10103
52 10104
52 10572
52 13245
52 15872
52 16459
52 17814
52 21470
53 2306
53 5501
53 10256
53 17883
53 22231
54 3907
54 9740
54 10796
54 14585
54 15613
55 11491
55 14323
55 14325
55 14326
55 16667
56 696
56 3807
56 3886
56 4200
56 5070
56 7271
56 9506
56 10356
56 13936
56 14971
56 19521
56 22558
56 23550
57 1068
57 4927
57 12159
57 14349
57 21728
58 6793
58 14643
58 15354
58 16973
58 18297
59 8408
59 11326
59 14380
59 15393
59 15410
60 1258
60 1983
60 4647
60 11236
60 13767
60 16295
60 17181
60 18697
60 19671
60 20047
60 20865
60 23647
61 264
61 715
61 2881
61 9835
61 16916
61 16917
61 19729
61 20760
62 5335
62 5615
62 23252
62 24294
62 24463
63 2385
63 2397
63 7135
63 12007
63 18614
63 23778
63 23946
64 4532
64 6791
64 6906
64 8438
64 14921
64 16722
65 1295
65 3546
65 7651
65 10046
65 23878
66 289
66 961
66 17305
66 18782
66 19923
67 2449
67 5090
67 8560
67 10526
67 11484
67 14316
67 15626
67 19366
68 1386
68 8734
68 12107
68 12732
68 14280
68 15901
68 16529
68 17924
68 19733
68 20196
68 20433
68 20976
69 1079
69 3326
69 8148
69 8962
69 14461
69 14876
69 16845
70 1761
70 10602
70 13016
70 22200
70 22226
71 10558
71 11514
71 13314
71 21137
71 21402
72 1120
72 7892
72 8079
72 8363
72 9782
72 15612
72 18881
72 20180
72 20647
73 2643
73 3163
73 6401
73 11842
73 18122
73 23735
73 24338
73 24425
74 1992
74 1993
74 2358
74 2709
74 4185
74 4592
74 4593
74 4594
74 5383
74 15278
74 20856
74 21667
74 23338
75 203
75 2217
75 3156
75 3322
75 8372
75 10033
75 10537
75 10876
75 11631
75 11972
75 12142
75 12489
75 15761
75 16596
75 16627
75 16809
75 17020
75 18621
75 18638
75 19196
75 19622
75 20517
75 20779
75 21690
75 21766
75 22425
76 3614
76 3616
76 18150
76 21238
76 22481
77 4936
77 23784
77 24223
77 24285
77 24436
78 3844
78 8228
78 12382
78 23733
78 23784
78 24068
78 24135
79 2994
79 5660
79 6375
79 10597
79 10840
79 12514
79 13958
79 14299
79 14919
79 18625
79 19223
79 19392
80 3512
80 3837
80 4596
80 13500
80 17893
80 19788
80 22851
81 387
81 3119
81 7840
81 9796
81 19378
82 3012
82 7324
82 9491
82 9623
82 20186
83 7104
83 7417
83 9093
83 10301
83 17074
83 20592
83 22220
83 23379
84 2015
84 3407
84 4822
84 5376
84 5377
84 7660
84 8777
84 9263
84 9965
84 11121
84 12191
84 12956
84 13272
84 14774
84 17930
84 18874
84 19610
84 20248
84 21095
85 2602
85 15868
85 18193
85 19191
85 20341
86 5476
86 10274
86 12506
86 18629
86 20635
86 20997
86 23568
87 2525
87 3967
87 6201
87 6351
87 6580
87 7118
87 7858
87 10056
87 10466
87 10666
87 17573
87 20408
87 21155
87 22588
88 2626
88 2695
88 10838
88 18314
88 19748
88 23174
89 6263
89 10741
89 16293
89 16315
89 16999
89 21197
90 2519
90 5177
90 7632
90 16788
91 1645
91 1851
91 19570
91 21142
91 22472
92 8071
92 20456
92 20813
92 22151
92 23389
93 3881
93 8782
93 12062
93 14131
93 20361
94 3397
94 11513
94 14933
94 21009
94 22913
95 11048
95 12472
95 16109
95 16178
95 17046
95 17940
96 5202
96 6954
96 9664
96 10550
96 11033
96 11678
96 14468
96 16636
96 17490
96 23193
96 23748
97 695
97 1225
97 3604
97 4617
97 5112
97 16875
97 19651
97 20250
97 22748
98 3239
98 5230
98 6930
98 12897
98 18900
99 7784
99 10391
99 17649
99 17956
99 18323
100 2147
100 6073
100 6196
100 7892
100 7977
100 9971
100 14173
100 16598
100 16942
100 21556
100 21614
101 4793
101 7151
101 13896
101 14541
101 21725
102 2004
102 2256
102 2418
102 5587
102 14066
103 8554
103 19318
103 22025
104 2748
104 23813
104 23912
104 23947
104 24020
105 6870
105 8238
105 9515
105 24078
105 24325
106 7224
106 10571
106 12488
106 12591
106 16465
107 2087
107 21180
107 21191
107 21339
107 21384
108 3543
108 5199
108 15419
108 17989
108 20650
109 442
109 3996
109 16403
109 17631
109 19355
110 443
110 561
110 611
110 1130
110 1410
110 2914
110 3252
110 4371
110 5599
110 7408
110 7643
110 10403
110 12656
110 12670
110 12813
110 14558
110 20917
110 21451
110 21786
110 22153
111 140
111 426
111 736
111 1080
111 4123
111 5644
111 5960
111 6353
111 7100
111 8956
111 9077
111 9551
111 11209
111 16183
111 16395
111 16929
111 17829
111 19066
111 20012
111 20070
111 20417
111 21058
111 21178
111 21419
111 21898
112 1765
112 6472
112 8857
112 14482
113 596
113 2066
113 2650
113 6721
113 11124
113 14416
113 16357
113 19540
114 2762
114 5089
114 8405
114 18379
114 19367
115 3143
115 6996
115 12971
115 20137
115 20882
116 3191
116 7269
116 7459
116 17141
116 18151
116 18739
116 20161
117 4836
117 13561
117 18254
117 18901
117 19552
117 22174
118 3303
118 11051
118 11363
118 13271
118 15218
118 16124
118 16345
118 17123
118 17886
118 19909
118 22323
119 1548
119 4402
119 23369
120 2550
120 3383
120 10417
120 16076
120 16300
121 5553
121 12120
121 13210
121 14940
121 15648
122 2743
122 3594
122 5999
122 13718
122 15265
122 16414
123 147
123 15315
123 19020
124 881
124 19318
124 22025
125 337
125 352
125 2096
125 3061
125 3246
125 17323
125 23460
126 9411
126 10979
126 12728
126 15430
126 16681
126 21403
126 22768
126 23133
127 1139
127 2284
127 2342
127 9502
127 13580
127 14768
127 15003
127 17779
127 19485
128 698
128 6779
128 7615
128 8656
128 9408
128 13498
128 15688
128 18506
128 20690
128 22179
129 1070
129 2996
129 4813
129 7720
129 7801
129 9313
129 11082
129 11672
129 12785
129 14702
129 21303
129 23168
130 3097
130 6777
130 8218
130 13605
130 17421
130 18714
130 22212
131 2784
131 15786
131 16410
131 18066
131 23600
132 5360
132 8295
132 8530
132 10992
132 14632
132 21200
132 21201
133 1952
133 2720
133 5108
133 8221
133 22164
134 2542
134 17669
134 24183
134 24184
134 24437
135 7806
135 8511
135 11436
135 11789
135 22697
136 2062
136 5940
136 9394
136 9548
136 14751
137 1561
137 5820
137 15877
138 419
138 991
138 3053
138 3505
138 5135
138 5188
138 5713
138 7089
138 8711
138 10556
138 10959
138 11730
138 15206
138 15812
138 15883
138 16461
138 17171
138 17756
138 17787
138 21538
138 22641
138 22662
139 1104
139 11038
139 13094
139 15929
139 17058
139 17939
139 23435
140 9551
140 20417
141 224
141 2106
141 3938
141 5085
141 6150
141 6866
141 7393
141 7482
141 10874
141 11448
141 13363
141 17558
141 20895
141 22633
142 7237
142 10075
142 10196
142 17992
143 6719
143 8204
143 10571
143 22025
143 22287
144 4402
144 14877
144 20377
144 23369
145 742
145 825
145 3509
145 5478
146 1248
146 1630
146 3508
146 9034
146 9546
146 15475
146 19400
147 200
147 213
147 396
147 1243
147 2290
147 2541
147 3164
147 3261
147 3870
147 4180
147 4390
147 5082
147 5635
147 6846
147 7131
147 7511
147 7540
147 9018
147 10098
147 10245
147 10571
147 11327
147 11543
147 11583
147 13734
147 15389
147 16277
147 17298
147 17947
147 21078
147 22185
147 22618
147 22696
148 8638
148 9353
148 10434
148 15403
148 18783
149 1492
149 2714
149 4412
149 5103
149 7690
149 7977
149 9813
149 12183
149 14749
149 19704
149 20915
149 21570
149 24491
150 1276
150 2021
150 2817
150 5721
150 5722
150 7227
150 9202
150 9409
150 10617
150 12878
150 13442
150 13516
150 14109
150 14237
150 14353
150 16282
150 16384
150 17014
150 17104
150 18580
150 19401
150 19759
150 20197
150 20430
150 20748
150 22427
150 22455
150 23300
150 23422
151 2021
151 2817
151 12878
152 9291
152 11794
152 12181
152 15850
152 18084
152 19807
152 21936
152 22823
153 5943
153 10244
153 13555
153 14212
153 15532
153 22990
153 23014
153 23015
153 23016
154 1021
154 6429
154 7595
154 15773
154 19192
154 19329
155 4856
155 13724
155 13725
155 13726
155 16439
156 9410
156 9437
156 12598
156 15638
157 3117
157 8743
157 9703
157 19584
158 6735
158 7542
158 11756
158 23742
158 24069
159 606
159 10200
159 12051
159 16639
159 16720
160 2124
160 3281
160 3448
160 6522
160 7623
160 9861
160 10491
160 22465
161 4633
161 7947
161 9941
161 14612
161 15334
161 18772
161 19438
161 20261
161 21907
162 1162
162 1950
162 2250
162 4514
162 5581
162 14692
162 15108
162 16671
162 20796
163 1486
163 2103
163 8301
163 10679
163 10791
163 11362
163 21842
163 21843
163 23640
164 13663
164 14177
164 19198
164 20220
164 23596
165 1577
165 2813
165 2814
165 10413
165 18277
166 5820
166 7811
166 17411
167 928
167 4393
167 5889
167 13427
167 20744
168 2340
168 6476
168 7867
168 11841
168 14053
168 16554
168 20498
168 23843
169 456
169 1394
169 11743
169 12657
169 14071
169 20319
169 20612
169 23569
170 583
170 4935
170 10943
170 22064
171 7260
171 8775
171 12265
171 23018
172 15378
172 16193
172 16324
172 20824
172 21654
172 21927
172 22913
172 23121
173 1109
173 5691
173 6013
173 9144
173 10375
173 12315
173 24160
174 1409
174 2341
174 7743
174 8930
174 24284
175 1812
175 9009
175 10640
175 12567
175 23994
176 1812
176 6716
176 9009
176 23064
176 23994
177 712
177 11308
177 12425
177 12427
177 16216
177 24256
178 764
178 2033
178 3069
178 9050
178 23918
178 24251
179 1206
179 2292
179 3496
179 11405
179 18453
179 20653
179 23125
180 10306
180 11463
180 12556
180 16121
180 18926
181 1332
181 2723
181 7038
181 10290
181 11503
181 11505
182 5328
182 13870
182 16535
182 23200
183 3237
183 6424
183 18687
184 659
184 3157
184 15084
184 21658
184 21664
185 3466
185 4102
185 4541
185 5598
185 7338
185 7502
185 8128
185 12983
185 14377
185 17595
185 19204
185 22281
185 23526
186 740
186 1192
186 8751
186 9306
186 9783
186 11871
186 13156
186 18368
186 20153
186 20309
187 10308
187 20970
187 21093
187 22595
187 23390
188 405
188 4453
188 4455
188 12705
188 20775
189 1055
189 4375
189 6985
189 10431
189 13501
189 14384
189 14716
189 15035
189 15689
189 19509
189 19740
189 19838
189 20657
189 21960
190 2840
190 18058
190 18846
190 19973
190 20566
191 212
191 1133
191 3028
191 6636
191 22139
191 23783
192 9780
192 18333
192 23400
192 23887
192 24087
193 335
193 2115
193 11093
193 16354
193 19319
194 3445
194 4792
194 7929
194 13520
194 18815
195 4127
195 9800
195 17285
195 18405
195 19198
196 1406
196 12079
196 15145
196 19381
196 21437
196 22290
197 15107
197 17552
197 20123
197 20652
197 22189
198 5551
198 10524
198 15073
198 21010
198 24232
199 266
199 1042
199 2681
199 2682
199 2747
199 2920
199 3606
199 3692
199 3923
199 4707
199 5314
199 5525
199 5682
199 6105
199 7218
199 7537
199 7638
199 7641
199 9184
199 9496
199 10109
199 12613
199 13202
199 13804
199 13805
199 14260
199 14731
199 14856
199 15309
199 16225
199 18067
199 18553
199 18877
199 20551
199 20994
199 21071
199 21099
199 21243
199 22408
199 23001
199 23171
199 23685
199 23802
199 23955
199 24150
199 24166
199 24279
199 24307
199 24309
199 24332
200 6719
201 6147
201 16879
201 18600
201 19179
201 21991
202 6943
202 10351
202 18593
202 19553
202 23248
203 5563
203 19646
203 20122
204 7311
204 11861
204 14363
204 15991
205 4595
205 8418
205 8781
205 11208
205 18967
205 23329
206 5415
206 7571
206 8695
206 19445
206 20467
207 1295
207 3546
207 7651
207 10046
207 24310
208 985
208 5103
208 5633
208 6360
208 7977
208 9813
208 10583
208 11799
208 11833
208 12183
208 12739
208 13379
208 14026
208 21556
208 23581
209 2254
209 7637
209 18324
209 19561
209 20120
210 5450
210 11214
210 12620
210 12774
210 15293
211 2915
211 8313
211 8549
211 9201
211 9724
211 9978
211 10544
211 10547
211 14926
211 17200
211 23571
212 1133
212 1515
212 3028
213 10245
213 12217
213 15315
214 968
214 8251
214 12043
214 19070
214 20523
214 23765
215 5553
215 15126
215 15648
216 2563
216 4192
216 4806
216 4807
216 11855
216 14248
216 16642
216 23222
217 2315
217 6115
217 9058
217 11345
217 15127
218 2352
218 4419
218 6759
218 7499
218 7500
218 7699
218 9460
218 13350
218 13351
218 19803
218 20238
219 3397
219 8413
219 11513
219 14933
219 22913
220 2517
220 5523
220 7326
220 7367
220 15607
221 11347
221 11559
221 13205
221 14544
221 18303
221 21871
221 22343
222 3234
222 7799
222 8646
222 10667
222 11956
222 18442
222 18670
222 22844
222 23344
223 3307
223 8930
223 10162
223 24291
224 5027
224 6984
224 9472
224 10874
224 11448
224 17558
224 20749
224 20895
224 23439
225 8565
225 8749
225 10398
225 22781
225 23221
226 2002
226 6293
226 14643
226 15924
226 20095
227 441
227 1660
227 1838
227 5935
227 8693
227 9962
227 14916
227 15384
227 16567
227 17065
228 3382
228 4789
228 8116
228 17147
228 21505
229 928
229 9115
229 18561
230 6438
230 7042
230 9727
230 10408
230 11712
230 15182
230 20179
231 687
231 1026
231 2726
231 6879
231 6937
231 8043
231 9145
231 10769
231 14589
231 15990
231 20738
231 21151
232 5800
232 7334
232 8001
232 13534
232 13916
232 14313
232 19673
233 2486
233 6514
233 8720
233 10861
233 13908
234 1511
234 6292
234 17500
234 20457
234 21257
234 21660
235 8930
235 15580
235 23734
235 24083
236 10630
236 14866
236 14867
236 14868
236 14869
236 15843
236 15844
237 1272
237 1321
237 3916
237 11024
237 19878
238 12145
238 13701
238 13816
238 16970
238 18413
239 5655
239 7358
239 13067
239 14005
239 15272
239 15966
239 17033
239 21242
240 3562
240 5955
240 9604
240 10323
240 11300
240 14801
240 15298
240 16209
240 16847
240 18511
240 20486
240 20686
240 21038
240 23056
241 7219
241 9085
241 23886
241 24189
241 24219
242 277
242 1324
242 3507
242 5259
242 12194
242 13633
242 15963
242 17325
242 17399
242 17817
242 18844
242 18866
242 19858
242 20329
242 22147
242 23437
242 23444
243 244
243 4456
243 4457
243 13278
243 18607
243 18822
244 4456
244 4457
244 12048
244 13278
244 18822
245 8026
245 9100
245 10604
245 12620
246 683
246 2400
246 9211
246 9266
246 9620
247 3385
247 5644
247 7432
247 20417
248 2114
248 2551
248 8055
248 8604
248 13416
248 18717
249 3308
249 8411
249 14789
249 16504
249 20837
249 23449
249 23496
250 4746
250 9316
250 10958
251 1988
251 2834
251 3935
251 8606
251 13523
251 17054
252 2009
252 2951
252 10571
252 10593
252 23431
253 1056
253 3452
253 4829
253 12243
253 21309
253 23556
254 1796
254 4459
254 12803
254 20897
254 23274
254 23529
254 24326
254 24407
255 1840
255 3030
255 15653
255 19078
255 21523
256 4329
256 7935
256 9976
256 11060
256 22660
257 11950
257 16184
257 16706
257 17679
257 17716
257 19124
257 23464
258 8098
258 11057
258 12290
258 12837
258 16603
258 23867
258 24225
259 14475
259 21009
259 21614
259 23121
260 281
260 10681
260 12825
260 14063
260 14645
260 17344
261 7239
261 10459
261 15179
261 16758
261 20752
261 21221
261 22946
261 23827
262 6417
262 8941
262 9553
262 15402
262 16244
262 17507
262 18575
262 18724
262 20272
262 20929
262 21806
262 22163
263 4875
263 5246
263 11676
263 11875
263 15020
264 2881
264 6016
264 19729
265 1666
265 10612
265 16597
265 22424
265 22883
266 24279
267 7201
267 7312
267 14824
267 17140
267 17692
267 17973
267 18805
267 19062
267 22293
268 8280
268 8746
268 9849
268 11031
268 13952
269 1927
269 3272
269 5172
269 5789
269 5796
269 6166
269 7972
269 8189
269 9326
269 11189
269 13381
269 14117
269 17857
269 19051
270 2042
270 2565
270 2643
270 4343
270 4774
270 5240
270 8050
270 8098
270 9983
270 12800
270 12837
271 1240
271 6626
271 10424
271 15314
271 15333
271 15489
271 22054
271 22387
271 23533
272 1014
272 1564
272 1835
272 6498
272 14057
272 20675
273 2717
273 2749
273 5889
273 7559
273 17640
274 3013
274 8220
274 11415
274 13671
274 15674
274 22611
275 8087
275 9558
275 12860
275 13225
275 19937
276 2314
276 3831
276 5020
276 7355
276 10277
276 15680
276 20894
277 15963
277 19858
277 23437
278 719
278 780
278 1850
278 4994
278 13009
278 14931
278 15716
278 21774
278 22385
278 22713
278 22838
279 8826
279 11699
279 16394
279 17616
279 18710
280 809
280 6118
280 6119
280 7002
280 11554
281 10681
281 12825
281 14063
281 14645
282 597
282 8270
282 19296
282 20303
282 21342
282 21987
283 833
283 9672
283 12994
283 14530
283 18954
284 6368
284 7742
284 11774
284 15103
284 18148
284 23461
285 8656
285 9531
285 22179
286 2981
286 6113
286 7018
286 10823
286 12925
286 18444
286 22921
286 23563
287 11985
287 12587
287 13327
287 19258
287 19669
288 5201
288 6438
288 11129
288 11763
288 18178
289 522
289 885
289 961
289 1049
289 1134
289 1246
289 2010
289 2044
289 3298
289 3660
289 3724
289 3894
289 4335
289 4398
289 4428
289 4572
289 5357
289 5474
289 5824
289 6005
289 6625
289 8089
289 8462
289 8698
289 8763
289 10012
289 11653
289 11915
289 12619
289 12696
289 13406
289 13527
289 13566
289 13945
289 14156
289 14319
289 14350
289 14839
289 15962
289 16187
289 16818
289 17256
289 18037
289 18112
289 18466
289 18576
289 19116
289 19187
289 19928
289 20107
289 20459
289 20555
289 20863
289 21028
289 21329
289 21390
289 21597
289 22399
289 23275
289 23283
290 899
290 2678
291 292
291 1533
291 1864
291 11772
291 20988
292 1533
292 11772
292 20988
293 1131
293 2090
293 3479
293 4215
293 6436
293 8070
293 8135
293 11997
293 19860
293 20550
293 20716
294 9038
294 9866
294 15944
294 19797
294 22796
295 3946
295 8916
295 12420
295 16350
295 23255
296 2901
296 4477
296 5399
296 15996
296 16754
297 5699
297 8930
297 24083
298 2643
298 24212
298 24304
298 24305
298 24425
299 2643
299 5235
299 13627
299 21919
299 24049
300 864
300 24354
301 5503
301 7666
301 13157
301 21114
301 22103
302 339
302 4729
302 6067
302 7789
302 8290
303 6604
303 12097
303 14417
303 19258
303 22510
304 6719
304 10245
304 10571
304 19020
305 355
305 2897
305 6835
305 7148
305 7425
305 12869
305 20315
306 311
306 312
306 328
306 330
306 8909
307 310
307 311
307 316
307 317
307 318
307 330
307 1602
307 5565
307 14388
308 312
308 315
308 4323
308 5513
308 17196
308 19920
308 22229
309 313
309 4317
309 4320
309 4321
309 9637
310 327
310 733
310 8909
311 316
311 317
311 318
311 319
311 320
311 326
311 328
311 329
311 330
311 1602
311 3710
311 23707
312 327
312 733
313 745
313 4680
313 6094
313 6344
313 8829
313 11964
313 13073
313 17196
313 23395
314 327
314 8909
315 327
315 733
315 8909
315 22229
316 328
316 330
317 328
317 330
317 1602
318 328
319 733
319 9251
320 733
320 3710
320 9251
320 23707
321 2645
321 6378
321 23729
321 24032
321 24328
322 473
322 3875
322 4699
322 14311
322 16506
323 6840
323 8790
323 9909
323 13408
323 18958
324 7298
324 8659
324 9565
324 14911
324 16915
324 23280
325 557
325 8374
325 14046
325 14216
325 16013
325 23566
326 330
327 733
327 745
327 5513
327 8909
327 14388
327 19530
327 22229
327 23451
328 330
328 1602
328 3710
328 5565
328 23707
330 5565
331 889
331 1317
331 6227
331 9879
331 16325
331 20622
332 1286
332 5669
332 8670
332 13088
332 21473
333 1489
333 6009
333 6785
333 7120
333 7411
333 8847
333 12139
333 12140
333 13552
333 14782
333 16760
333 17791
333 20269
333 22811
334 5059
334 10893
334 12797
335 2115
335 5211
335 6599
335 7076
335 11093
335 12383
336 2164
336 2737
336 8178
336 10498
336 11584
336 16000
336 16742
336 17022
337 352
337 1180
337 3055
337 3195
337 8169
337 8561
337 9232
337 9575
337 11232
337 11825
337 13124
337 17369
337 17542
337 19323
337 20167
337 21088
337 21366
337 22230
337 22247
337 23832
338 7233
338 8099
338 10875
338 19430
338 19721
339 4729
339 8290
339 15457
339 15458
339 21498
340 7690
340 18898
340 22254
341 3887
341 7578
341 7996
341 10674
341 10883
341 11649
341 15555
341 19427
342 854
342 4504
342 7734
342 17698
342 20868
342 23404
343 1344
343 5527
343 10359
343 19240
343 19744
344 649
344 1332
344 4140
344 7038
344 8570
345 2067
345 8393
345 8953
345 13466
345 17091
346 506
346 5820
346 6698
347 14482
347 19515
347 19912
348 1205
348 7296
348 10493
348 14393
348 22631
349 1855
349 3312
349 6297
349 8725
350 703
350 1697
350 5918
350 13532
350 14178
351 541
351 1190
351 2022
351 2953
351 3609
351 8315
351 10127
351 10334
351 13280
351 14825
351 17765
351 18682
351 18846
351 19309
351 19973
351 20630
351 21160
351 21475
352 2601
352 3195
352 3246
352 4519
352 7126
352 8169
352 9575
352 11232
352 12492
352 12626
352 17323
352 17369
352 20789
353 6169
353 11542
353 23846
353 23913
353 24062
354 3403
354 6193
354 17287
354 20209
354 21415
355 6835
355 7148
355 7425
355 12869
355 20315
356 943
356 8528
356 11101
356 14973
356 21234
356 22353
356 23138
357 1197
357 3529
357 5903
357 6947
357 7437
357 8119
357 10474
357 11741
357 13221
357 14194
357 14838
357 15875
357 16125
357 17293
357 17601
357 19948
357 23405
358 882
358 7111
358 8680
358 15497
358 20334
359 1663
359 2491
359 7897
359 9044
359 12435
359 15830
359 19644
359 21398
360 1769
360 4349
360 4776
360 9059
360 9441
360 11090
360 14486
360 15318
360 15516
361 731
361 16317
361 21171
361 21234
361 22775
362 1870
362 7063
362 10969
362 11420
362 12565
362 18635
362 21440
363 1870
363 4965
363 6827
363 21181
364 1939
364 5219
364 8486
364 14738
364 17824
365 615
365 2301
365 2381
365 10709
365 18686
366 589
366 2121
366 4474
366 8592
366 9581
366 10292
366 10645
366 11063
366 13394
366 16666
366 17041
366 19157
366 19324
366 20017
366 22198
366 23343
367 2293
367 10084
367 10829
367 14901
367 17681
367 21014
367 22214
368 1207
368 1706
368 2297
368 2390
368 3525
368 6714
368 6874
368 7553
368 8924
368 9010
368 10382
368 10775
368 12099
368 14723
368 15821
368 16785
368 16872
368 17294
368 18081
368 18659
368 19365
368 19432
368 21301
369 9359
369 9605
369 19037
369 21003
369 22429
369 23478
370 3889
370 8543
370 13391
370 20188
371 12620
371 15991
371 17687
371 22156
372 1919
372 9451
372 10184
372 10552
372 13069
372 16741
372 17750
372 19971
372 22702
372 23000
373 1247
373 1673
373 8060
373 11558
373 18116
374 4985
374 7982
374 9923
374 13697
374 18494
374 22911
375 1483
375 1534
375 2779
375 5021
375 7940
375 10411
375 10551
375 15204
375 16866
375 17494
375 21587
375 23653
376 2494
376 2904
376 14506
376 15485
376 19166
377 654
377 1683
377 5664
377 10952
377 11449
377 12071
377 18213
377 20446
378 1680
378 1821
378 2300
378 12158
378 15235
378 17929
379 1084
379 1217
379 1551
379 2977
379 3311
379 5547
379 7970
379 9090
379 9569
379 10284
379 16519
379 17419
379 19602
379 21673
379 22006
380 918
380 1159
380 6485
380 7013
380 8177
380 8901
380 9100
380 9810
380 15146
381 3143
381 9831
381 10595
381 11411
381 14281
381 20137
381 20882
381 22584
382 3882
382 8826
382 9364
382 10237
382 13564
383 4306
383 19418
383 19834
383 21811
384 6092
384 7040
384 15337
384 17724
384 23290
385 5916
385 10614
385 11677
385 12786
385 19009
386 2457
386 4769
386 4879
386 9053
386 10898
386 17361
386 18564
386 21438
387 919
387 7840
387 9333
387 12631
387 12680
387 19378
388 550
388 6669
388 14317
388 21459
388 23688
389 15033
389 19084
389 20925
389 22868
389 23028
390 4024
390 5579
390 6222
390 7674
390 7944
390 14554
390 17432
390 19789
391 4069
391 12246
391 14336
391 16647
391 22175
392 3502
392 7839
392 15230
392 20009
392 21121
393 2851
393 10733
393 11366
393 12021
393 14429
393 16450
393 17780
393 19000
393 19777
393 20577
393 21409
394 1967
394 2813
394 5428
394 5702
394 16302
395 4402
395 10935
395 15113
395 22739
395 23369
396 11583
396 15315
396 19824
396 22696
397 1113
397 4165
397 5752
397 6538
397 7162
397 11460
397 12422
397 22116
398 2117
398 4515
398 5348
398 7878
398 12311
398 14038
398 17434
398 23086
399 6571
399 10901
399 13910
399 19079
399 19942
400 7981
400 18061
400 21381
400 23138
401 482
401 1249
401 1294
401 16405
401 16625
401 21821
401 22914
402 861
402 886
402 1060
402 1214
402 3231
402 3284
402 5191
402 7040
402 7189
402 9116
402 9282
402 9427
402 9725
402 10181
402 10799
402 10986
402 11240
402 11730
402 12102
402 12864
402 12909
402 13341
402 13493
402 13942
402 14240
402 15206
402 15595
402 16078
402 16088
402 16158
402 17239
402 17441
402 19002
402 19846
402 19847
402 20273
402 20901
402 23413
403 4616
403 9171
403 9180
403 12174
403 20830
403 24303
404 5430
404 5452
404 7733
404 7993
404 9166
404 9376
404 18751
404 22454
405 4454
405 4455
405 16837
405 20358
406 7000
406 10347
406 13181
406 14806
406 22849
407 7091
407 12667
407 15198
407 19317
407 23560
408 6360
408 6551
408 11610
408 21614
408 22445
409 10761
409 16801
409 17545
409 19252
409 22415
410 5380
410 11528
410 19248
411 2641
411 3682
411 6631
411 6960
411 7560
411 7776
411 9056
411 9457
411 17150
412 1753
412 3991
412 17646
413 5191
413 5395
413 6467
413 10528
413 20304
413 21029
414 6335
414 12478
414 12480
414 13911
414 15020
415 1838
415 3159
415 3699
415 13794
416 1417
416 1609
416 1623
416 4399
416 8082
416 9175
416 10538
416 10909
416 20989
416 22620
417 10921
417 13685
417 15437
417 16876
417 20261
418 2870
418 4826
418 4830
418 15649
418 16612
418 17526
418 17990
418 18045
418 19212
418 23386
419 3522
419 8726
419 17171
419 19576
420 534
420 9914
420 13293
420 14128
420 15273
420 17477
420 17807
420 17852
420 19343
420 21984
420 22715
421 2593
421 2793
421 10539
421 12864
421 13623
421 14239
421 15017
421 18628
422 5257
422 5589
422 8880
422 9563
422 9588
422 24351
422 24466
423 9060
423 11104
423 24208
423 24263
423 24357
424 6883
424 12966
424 19706
425 881
425 1692
425 2040
425 3314
425 6075
425 6431
425 7169
425 10856
425 11557
425 12257
425 15259
425 15336
425 15829
425 16517
425 17199
425 18517
425 19318
425 19474
425 19760
425 21709
425 22104
425 22420
425 22471
425 22556
426 6353
426 19066
426 21178
427 3679
427 6519
427 8491
427 9736
427 12312
427 16587
427 18713
427 19388
428 3304
428 3721
428 5516
428 6552
428 21677
428 21739
429 8019
429 8615
429 13227
429 19997
429 21199
430 1943
430 3502
430 11197
431 5709
431 11491
431 11492
431 15304
431 16667
431 16668
432 874
432 2245
432 2613
432 3400
432 3737
432 4036
432 4509
432 5613
432 6059
432 6907
432 7094
432 8203
432 10247
432 10320
432 10637
432 10676
432 11241
432 13049
432 13463
432 15455
432 15997
432 16090
432 16631
432 17328
432 18513
432 20286
432 20449
432 21131
432 21318
432 22859
432 23488
433 2954
433 2957
433 3148
433 4057
433 4058
433 4059
433 4060
433 4061
433 6689
433 8236
433 13313
433 18953
433 21789
433 22720
434 2582
434 7140
434 9385
434 21060
434 21551
435 1312
435 4958
435 12635
435 21158
435 21357
436 703
436 5918
436 13532
436 14178
437 1516
437 7091
437 7492
437 9163
437 12695
437 16438
437 19013
437 19317
437 20015
438 9491
438 12199
438 13434
438 18889
438 19348
439 2220
439 9888
439 15496
439 15867
439 22664
440 1726
440 1976
440 2053
440 2596
440 2942
440 3104
440 5708
440 6871
440 7544
440 14106
440 17295
440 17831
440 18438
440 19542
440 22534
440 23116
440 23637
440 23970
440 23989
440 24283
440 24403
440 24485
441 1838
441 9962
441 14916
442 3504
442 5035
442 6369
442 13371
442 13536
442 14864
442 17631
442 20765
442 21139
442 23745
443 21786
443 22153
443 22767
444 445
444 450
444 1279
444 1280
444 2276
444 18428
445 449
445 1279
445 1280
445 2276
445 18428
446 447
446 449
446 451
446 1278
446 2276
446 22180
447 449
447 1278
448 449
448 451
448 1277
448 1278
448 22180
449 451
449 2276
449 22180
450 1279
450 1280
450 18428
451 1278
451 2276
451 22180
452 1598
452 2379
452 4275
452 8679
452 12785
452 19403
452 19961
452 21454
453 1283
453 3305
453 10470
453 12214
453 13182
453 13490
453 13988
453 21467
453 21845
453 22168
454 4783
454 13870
454 17163
454 19315
455 2370
455 3625
455 5998
455 9694
455 10037
455 18685
455 23051
455 23531
456 6826
456 8261
456 11743
456 13114
456 14071
456 14088
456 15029
456 17024
456 22444
456 23569
457 1972
457 2363
457 2999
457 24200
458 1783
458 2976
458 9629
458 9692
458 14039
458 17978
458 19828
458 22962
459 3514
459 5223
459 6450
459 8927
459 14295
459 16052
460 972
460 2910
460 4790
460 5347
460 9678
460 12035
460 12056
460 18222
460 19575
461 1944
461 12289
461 23420
462 10445
462 13460
462 16620
462 19982
462 20461
462 21593
463 763
463 3320
463 4860
463 5193
463 6007
463 6286
463 7984
463 8396
463 8400
463 8521
463 10884
463 15909
463 15910
463 21844
463 24011
463 24157
464 2550
464 3383
464 10417
464 16300
465 466
465 467
465 472
465 474
465 475
465 476
466 468
466 469
466 471
466 474
466 476
466 2333
467 468
467 470
467 471
467 22896
468 470
468 471
469 470
469 474
469 2333
469 22896
469 23090
470 471
470 475
470 476
470 2812
471 476
472 476
473 3147
473 3875
473 4512
473 4699
473 7778
473 8477
473 9380
473 9444
473 9622
473 13165
473 14311
473 15523
473 16506
473 17882
473 18801
473 19216
473 20351
473 22695
473 23176
474 2333
475 2333
475 22896
476 2333
476 2812
476 22896
477 13710
477 14457
477 20179
477 20193
477 20926
478 1615
478 13322
478 18705
478 21210
478 21832
478 22866
479 2717
479 5406
479 5889
479 9115
480 2017
480 6840
480 7429
480 18958
481 1117
481 6356
481 7281
481 10926
481 13142
481 13727
481 19473
481 20078
481 20181
481 21383
482 3533
482 22914
483 1985
483 7881
483 8296
483 15789
483 18047
483 19353
483 22621
484 4168
484 11444
484 23719
484 23952
484 24044
485 2052
485 5598
485 14229
486 5420
486 12868
486 21556
487 2265
487 3810
487 12692
487 16776
487 18702
488 3877
488 6114
488 8804
488 18180
488 20036
488 24023
488 24158
488 24225
489 2351
489 15115
489 20771
490 2400
490 5216
490 6164
490 10137
490 23654
491 1031
491 4221
491 4374
491 4529
491 4560
491 4640
491 4890
491 5823
491 6157
491 6244
491 7735
491 8259
491 9319
491 10293
491 10294
491 10576
491 11077
491 11634
491 12684
491 12964
491 13365
491 13468
491 14075
491 15714
491 22176
491 22585
491 23387
492 2169
492 3192
492 4416
492 12121
492 13258
492 14065
492 14220
492 14715
492 15738
492 17219
492 21077
492 21308
493 1974
493 4998
493 5651
493 5882
493 7132
493 12372
493 12459
493 12601
493 13018
493 17201
493 21476
494 6360
494 14293
494 16636
495 6881
495 7504
495 11865
495 13655
495 16606
495 17130
495 17828
495 19683
495 20391
496 3947
496 10868
496 13808
496 17788
496 22994
497 3274
497 8009
497 8443
497 11829
497 21021
498 1187
498 4381
498 5198
498 17360
498 23916
499 5328
499 6388
499 18286
499 22116
500 4556
500 8937
500 10410
500 10734
500 14412
500 21174
500 22820
501 1298
501 3539
501 8810
501 9868
501 12582
501 12969
501 19043
501 21107
502 6154
502 7964
502 8413
502 10469
502 19907
502 20461
503 15269
503 16802
503 18335
503 20298
504 2427
504 2630
504 3289
504 11396
504 21181
505 1781
505 10504
505 16791
505 17463
505 17724
506 1252
506 1469
506 1561
506 1955
506 2755
506 2815
506 3122
506 3933
506 4212
506 4221
506 4781
506 5337
506 5498
506 5820
506 6032
506 6480
506 6532
506 6575
506 6698
506 6999
506 7084
506 7130
506 7192
506 7313
506 7811
506 8101
506 9937
506 10280
506 10957
506 11095
506 11925
506 12431
506 12471
506 13248
506 13424
506 13634
506 13743
506 14604
506 14924
506 15101
506 15215
506 15519
506 15539
506 15711
506 15877
506 16698
506 16730
506 16946
506 17390
506 17411
506 17509
506 19101
506 19178
506 19344
506 19589
506 19616
506 20144
506 20170
506 20222
506 20774
506 21046
506 21640
506 22203
506 22361
506 22401
506 22954
506 23039
506 23236
507 1994
507 4814
507 12754
507 13907
507 22175
508 771
508 1799
508 4342
508 4682
508 7705
508 9315
508 9777
508 12484
508 16274
508 17249
508 18369
508 20573
508 21492
509 5795
509 11056
509 12047
509 12393
509 15201
510 8185
510 11096
510 18717
510 21218
510 22469
511 3326
511 21656
511 23465
512 6006
512 11959
512 15828
512 17732
512 22045
513 4902
513 10529
513 11029
513 12746
513 21854
514 2201
514 3828
514 4307
514 12719
514 14787
514 18861
514 20338
514 21070
514 22093
515 948
515 3742
515 5011
515 7973
515 11187
515 13847
515 16650
515 16678
515 17962
515 18492
515 18895
515 22159
515 22258
515 23358
516 1742
516 14900
516 15946
516 22128
517 8266
517 16768
517 17447
517 18632
517 20973
518 1872
518 7496
518 15291
518 15722
518 22222
518 22267
519 5334
519 5402
519 8274
519 9603
519 10814
519 13173
519 15144
520 13685
520 19823
520 20261
520 23146
521 3438
521 4078
521 5041
521 15476
521 21489
521 21802
522 961
522 13221
523 1837
523 5438
523 8573
523 10344
523 13973
523 15170
523 20112
524 3859
524 7524
524 9258
524 14087
524 14557
524 15486
525 616
525 617
525 1465
525 3404
525 19468
525 22802
526 3198
526 5223
526 7554
527 15033
527 19084
528 11524
528 11525
528 11526
528 11527
528 23332
529 2712
529 3651
529 3791
529 8326
529 11212
529 13051
529 14233
529 20439
530 1071
530 3588
530 3780
530 4950
530 8378
530 12838
530 13884
530 17998
530 22904
531 3539
532 741
532 1037
532 4124
532 6643
532 9643
532 24206
532 24470
533 8411
533 14513
533 14789
533 20837
533 23449
534 9914
534 11011
534 13293
534 17477
534 17807
534 17852
534 19343
534 22715
535 7644
535 11968
535 14975
535 15557
535 18153
536 570
536 2540
536 3627
536 11370
536 12405
536 13993
536 22745
537 1372
537 7001
537 7197
537 7906
537 8812
537 16777
537 20535
538 8034
538 11992
538 13446
538 19067
538 20814
538 23512
539 14434
539 22477
540 3110
540 6298
540 9430
540 9892
540 10188
540 12379
540 12583
540 12759
540 15282
540 18136
540 19809
540 20481
541 1190
541 18846
541 19586
541 19973
542 10245
542 10571
542 12591
542 13884
542 22904
543 15950
543 16979
543 18873
543 22034
543 23589
544 13663
544 19476
544 20220
545 7182
545 10233
545 23780
545 23953
545 24460
546 7180
546 10358
547 7322
547 9521
547 9526
547 11572
547 20118
548 1340
548 3095
548 4298
548 5116
548 10005
548 15945
548 19399
548 21675
548 22411
548 22437
548 23190
549 2770
549 3836
549 4935
549 15351
550 6669
550 21459
551 1447
551 2527
551 9196
551 10944
551 16086
552 761
552 8444
552 12331
552 13585
552 13792
552 15413
553 1223
553 3066
553 16542
553 21299
553 21300
554 10100
554 11988
554 12121
555 3964
555 6577
555 12109
555 15275
555 17182
556 935
556 3075
556 6274
556 10397
556 18910
557 8374
557 14216
557 16013
558 1319
558 1400
558 1677
558 2616
558 2947
558 3229
558 4067
558 4762
558 5036
558 5232
558 9154
558 12063
558 13674
558 13964
558 19115
558 19188
558 19335
558 19502
558 20068
558 20257
558 20529
558 21397
559 10059
559 13052
559 17457
559 18750
559 21073
560 4069
561 4371
561 7022
561 7408
561 7643
561 12813
561 13099
561 13941
561 14558
561 16501
561 22153
562 14496
562 21614
562 21635
562 22315
563 5351
563 5352
563 8311
563 9080
563 9337
564 2655
564 4985
564 11636
564 16637
565 2655
565 11636
565 15152
565 18494
566 15152
566 18399
566 18494
567 4284
567 5659
567 10751
567 12682
567 19470
568 8452
568 10817
568 14015
568 16987
568 22401
569 742
569 3083
569 4045
569 12643
570 1431
570 2540
570 3627
570 3676
570 4791
570 10197
570 11265
570 13993
570 14036
570 22745
571 1716
571 2701
571 13933
571 14601
571 19051
572 3443
572 23765
572 23863
572 24154
572 24475
573 6719
573 10245
573 10571
573 18908
574 1873
574 4302
574 6328
574 7099
574 10963
575 4762
575 19115
575 19256
575 21924
576 7730
576 8318
576 12006
576 15554
576 22645
577 12356
577 18286
577 18998
578 1203
578 1527
578 8360
578 10389
578 10495
578 12227
578 16578
579 1468
579 4831
579 6980
579 7052
579 7264
579 7487
579 23543
579 24138
579 24139
580 3232
580 8319
580 17029
580 18857
580 22095
581 1874
581 3295
581 9002
581 13965
581 16591
582 3206
582 4420
582 17481
582 17988
582 18986
583 591
583 692
583 1286
583 1617
583 4692
583 5669
583 6225
583 6590
583 7612
583 9572
583 10196
583 10508
583 13023
583 13088
583 13543
583 14410
583 14491
583 15447
583 16338
583 16482
583 17241
583 19793
583 20290
583 21265
583 21473
583 21746
584 2533
584 3667
584 18544
584 18706
584 20571
584 20747
584 21949
585 2688
585 3306
585 3612
585 5509
585 14517
585 15820
586 666
586 10201
586 16031
586 18563
586 20575
587 3241
587 11444
587 11643
587 23750
587 23952
588 2637
588 6305
588 16662
588 20007
588 22583
589 7008
589 9336
589 18432
589 21169
590 1777
590 2681
590 2682
590 2920
590 5443
590 5525
590 7641
590 9496
590 10109
590 10525
590 12165
590 12613
590 14731
590 20994
590 21212
590 23559
590 24079
590 24210
591 2086
591 3462
591 6590
591 8621
591 10492
591 13194
591 13503
591 14507
591 15070
591 15762
591 17600
591 21861
592 2977
592 13870
592 20714
592 23200
592 23369
593 3876
593 4986
593 5262
593 8124
593 11455
593 22384
594 3476
594 6948
594 10006
594 19552
595 4071
595 4664
595 5336
595 6872
595 9249
595 9847
595 12262
595 12352
595 13162
595 14355
595 16203
595 18843
595 21396
595 22043
595 22816
595 24468
596 2066
596 2650
596 11124
596 14416
596 19540
597 1839
597 5146
597 8270
597 11373
597 12148
597 13232
597 13819
597 20303
597 21987
598 5690
598 9584
598 12208
598 16675
598 18666
599 1721
599 2101
599 5086
599 6168
599 6998
599 9596
599 12150
599 17009
600 3266
600 5937
600 6690
600 9906
600 12235
600 12368
600 13788
600 13797
600 16429
600 16687
600 16962
600 20287
600 21824
600 22359
601 7385
601 11788
601 14653
601 14791
601 22590
602 2440
602 3880
602 10750
602 18359
603 958
603 7399
603 7634
603 15517
603 15998
603 16728
603 20094
603 20226
604 1951
604 3188
604 13264
604 14011
604 17697
605 2607
605 9585
605 13470
605 18114
605 22188
606 3313
606 10200
606 21050
607 2294
607 8019
607 9964
607 13417
607 19512
607 20463
608 891
608 3338
608 15623
608 19102
608 21363
608 22827
609 2665
609 3353
609 5511
609 15840
609 21572
610 1090
610 9039
610 9293
610 9640
610 12076
611 4371
611 5777
611 13941
611 18935
612 1325
612 1750
612 2247
612 12467
612 23892
612 24174
612 24188
612 24417
613 4322
613 8515
613 9637
613 19056
614 5068
614 6421
614 7133
614 18454
614 19735
615 3492
615 7633
615 8235
615 14877
615 17418
615 18055
615 19648
615 23369
616 3404
616 17126
616 19469
617 3404
617 17126
617 19469
618 2209
618 5548
618 7375
618 22419
618 23929
619 9023
619 19626
619 22156
620 5275
620 10418
620 23735
621 1212
621 2982
621 4714
621 17216
621 23645
622 3294
622 5087
622 5560
622 8654
622 10999
623 11845
623 16122
623 16547
623 16937
623 17920
623 19937
623 21997
624 794
624 4935
624 11911
624 19318
624 21746
625 7897
625 11775
625 12872
625 14848
625 20240
626 778
626 10967
626 13502
626 13774
626 16166
626 20533
627 718
627 4543
627 8159
627 9465
627 9948
627 10639
627 10712
627 14729
627 16785
627 17838
627 19260
627 20696
627 22538
628 2835
628 7311
628 9329
628 11346
629 3424
629 5085
629 6468
629 7503
629 8094
629 13946
629 15056
629 16732
629 17253
629 19588
629 23811
630 1484
630 2589
630 5892
630 8187
630 13068
630 13422
630 17067
630 19383
630 19569
630 20836
630 21646
630 21647
631 3948
631 19839
632 4547
632 4549
632 6579
632 9659
632 13571
632 14288
632 15114
632 19471
633 16358
633 22097
633 22914
634 2446
634 3527
634 4999
634 5310
634 9216
634 15180
634 19162
634 22546
635 1190
635 8042
635 11160
635 19586
636 8108
636 13456
636 17395
636 20331
636 21530
636 23276
637 14363
637 19954
638 11530
638 14584
638 15017
639 1916
639 18771
639 21663
640 1265
640 3542
640 7440
640 16391
640 21020
641 6469
641 11108
641 11266
641 12249
641 12324
641 13517
641 16663
641 19269
641 20258
641 20471
641 21132
642 6413
642 7066
642 14415
642 17458
642 21992
643 1678
643 2963
643 5991
643 6620
643 7362
643 7718
643 9475
643 13172
643 13806
643 18762
643 21705
643 21851
643 23731
643 23798
643 24163
643 24416
644 6202
644 10688
644 14885
644 15678
645 5120
645 5907
645 6965
645 14438
645 16207
646 1922
646 4842
646 19353
646 21344
646 22798
647 4286
647 8642
647 23354
647 24032
648 2278
648 4500
648 4896
648 5339
648 6533
648 7211
648 8651
648 9349
648 11112
648 23334
649 1359
649 7038
649 21533
650 2222
650 5593
650 5810
650 7357
650 7664
650 7764
650 8144
650 10064
650 16566
650 19638
651 1772
651 1870
651 3289
651 7063
651 15818
652 1548
652 6719
652 15440
652 17270
652 23067
653 1349
653 9228
653 10843
653 13125
653 13413
653 14500
653 17699
653 18862
653 19766
653 23270
654 1681
654 5664
654 10952
654 12071
654 20446
654 22771
655 1208
655 1702
655 2029
655 2189
655 2513
655 3530
655 8038
655 9714
655 11523
655 12519
655 14307
655 14852
655 15676
655 16932
655 17664
655 17911
655 20503
655 20570
655 23485
656 1356
656 6725
656 7175
656 9250
656 10589
656 13798
656 16607
656 19295
656 19639
656 20542
657 2403
657 7879
657 10740
657 24105
657 24225
658 2403
658 3240
658 24008
658 24186
659 3157
659 8273
659 15084
659 16305
659 18693
659 21664
660 934
660 2411
660 4854
660 5732
660 6666
660 10040
660 17055
661 1229
661 2013
661 2672
661 3564
661 8911
661 10386
661 16318
661 16740
662 8171
662 10158
662 11222
662 12362
662 12978
662 12979
662 12980
662 13120
662 14681
662 14686
663 3764
663 4243
663 6473
663 14565
663 17044
664 1554
664 3399
664 5947
664 18695
665 7709
665 7887
665 8954
665 10970
665 14539
665 20670
666 1873
666 2534
666 16031
666 18563
666 19529
667 1517
667 2634
667 3203
667 3303
667 11363
667 12151
667 12192
667 12355
667 13486
667 16124
667 21665
668 13921
668 19691
668 20717
668 20732
668 22391
669 1209
669 5567
669 8973
669 11368
669 20823
670 3905
670 8395
670 8398
670 19764
671 2424
671 3779
671 11931
671 12176
671 12177
671 16141
671 20524
671 22517
671 23770
671 23803
671 23927
671 24065
672 5417
672 6366
672 8932
672 10573
672 10954
672 23941
673 2795
673 3701
673 5416
673 11115
673 23964
674 4103
674 13601
674 14395
674 15428
674 20632
675 3496
675 20653
676 2643
676 4852
676 6401
676 7647
677 7219
677 19135
677 23819
677 24219
678 4942
678 7756
678 20596
678 22119
678 22368
679 5714
679 11056
679 12047
679 12393
679 15201
680 2649
680 3765
680 13597
680 21672
680 23375
681 6387
681 12534
681 17198
681 22980
681 23180
682 1413
682 1846
682 2123
682 4992
682 5063
682 5340
682 6945
682 10564
682 12508
682 15350
682 20083
682 20617
682 20770
682 21075
682 21809
682 22418
683 4363
683 10348
683 10361
683 12946
683 19150
683 19419
683 19893
683 20740
683 23293
683 23652
683 24133
683 24316
683 24317
683 24457
684 7473
684 9363
684 13334
684 15107
684 20123
684 20652
685 3304
685 4137
685 5516
685 21739
685 22042
686 799
686 11722
686 11860
686 21566
686 23169
687 9145
687 10769
687 19714
687 20738
688 4334
688 7409
688 11648
688 15527
688 17366
689 3325
689 3581
689 3586
689 4020
689 4035
689 4167
689 5549
689 9598
689 12314
689 12653
689 14691
689 15311
689 15379
689 15942
689 21749
690 5420
690 5511
690 6360
690 11610
690 22445
691 1564
691 1684
691 6498
691 8008
692 13023
692 14446
693 15182
693 15627
694 2501
694 15036
694 16878
694 18014
694 18954
695 22748
696 3807
696 3886
696 7271
696 10356
696 22558
697 8647
697 11002
697 23196
697 23266
697 23699
698 7615
698 8656
699 11512
699 12785
699 15068
699 17851
699 19566
699 23189
700 1107
700 1559
700 5003
700 9014
700 16229
700 20494
701 6529
701 12267
701 15223
701 18994
701 20124
702 3808
702 4049
702 8407
702 10332
702 18308
702 19237
702 19595
702 23761
703 1831
703 2805
703 3425
703 3464
703 3897
703 5075
703 5853
703 5918
703 8003
703 9522
703 10000
703 10299
703 10789
703 11742
703 12698
703 13542
703 15382
703 20953
703 21839
703 23285
704 798
704 1353
704 7086
704 7621
704 9032
704 9308
704 10239
704 11192
704 12881
704 13043
704 15571
704 18046
704 19100
704 19354
704 20792
704 21713
705 754
705 1908
705 2831
705 4820
705 4990
705 11261
705 13243
705 14266
705 14773
705 15898
705 17843
705 21145
705 22562
706 1947
706 1948
706 13220
706 19531
706 19532
707 2816
707 7849
707 8481
707 23630
707 24469
708 6269
708 11362
708 11698
708 23779
708 23907
709 3749
709 6300
709 10942
709 14804
709 22352
710 1598
710 2379
711 1409
711 3872
711 6993
711 7772
711 9974
711 24083
712 11839
712 12427
712 12428
713 3478
713 4920
713 8212
713 15651
713 17671
714 10608
714 20469
714 21083
714 21378
714 23528
715 6016
715 15376
716 10608
716 20469
716 21083
716 23528
717 1023
717 10579
717 10580
717 10581
717 19092
718 6383
718 20039
719 1850
719 14931
719 24299
720 8551
720 12732
720 15002
720 17185
720 23258
721 8496
721 10230
721 16094
721 18493
721 20378
722 3335
722 3966
722 5781
722 8180
722 8207
722 13148
722 16406
722 18757
722 18983
722 19407
722 23766
723 3175
723 6560
723 17064
724 2409
724 2426
724 4840
724 10950
724 13231
725 2062
725 5940
725 9548
725 18689
726 8238
726 12665
726 23920
726 24154
727 2773
727 6273
727 8502
727 10883
727 14851
728 2720
728 8103
728 16220
729 10355
729 13820
729 18075
729 21967
730 3849
730 11823
730 13511
730 14790
730 18809
731 828
731 1479
731 1588
731 1700
731 2836
731 3940
731 4756
731 7112
731 10029
731 10115
731 10252
731 11137
731 11254
731 11309
731 12465
731 13829
731 14081
731 14276
731 16120
731 16317
731 18020
731 19176
731 19695
731 20611
731 21171
731 21406
731 21657
731 22492
731 22775
731 22874
731 23033
731 23598
732 2234
732 8468
732 9368
732 10491
732 14247
732 15802
733 745
733 1724
733 8909
733 14388
733 17196
733 23451
733 23707
734 3449
734 6376
734 7070
734 13004
734 22248
735 2488
735 6758
735 8947
735 13207
735 15360
736 3794
736 5644
736 7238
736 19066
737 2227
737 2504
737 3240
737 3243
737 3535
737 4659
737 11542
737 12252
737 22536
737 23786
737 23788
738 1929
738 4126
738 7588
738 18732
738 20753
739 2143
739 6736
739 24142
739 24386
740 964
740 1705
740 3821
740 11871
740 16003
741 10032
741 12557
741 24470
742 1414
742 2515
742 3022
742 3083
742 9977
742 14207
742 18290
742 19289
742 20297
742 21850
743 744
743 12960
743 12961
743 21261
743 23680
744 21261
744 23680
745 8909
745 17196
746 9638
746 11861
746 13669
746 21113
747 1466
747 1552
747 2754
747 7832
747 8117
747 16511
748 796
748 1302
748 1409
748 2054
748 2506
748 3565
748 4047
748 5405
748 6403
748 7743
748 7772
748 11599
748 15321
748 20867
748 22699
748 24284
749 1805
749 14668
749 19518
749 22653
749 22730
750 3162
750 7724
750 14130
750 17036
750 18884
750 22244
750 23365
751 8044
751 10010
751 12648
751 14815
751 20011
751 22190
751 23871
751 24010
751 24047
751 24287
751 24398
752 1256
752 3009
752 9133
752 10655
752 21477
753 3909
753 5093
753 16926
753 19413
753 21804
754 4990
754 14773
754 15898
755 9788
755 13276
755 19507
755 19635
755 23590
756 1105
756 1822
756 3726
756 3927
756 4667
756 6046
756 8631
756 11576
756 15930
756 17028
756 20831
757 1618
757 4146
757 7841
757 12276
757 18718
757 22597
758 1503
758 4436
758 5197
758 13641
758 15566
759 7182
759 10233
759 23953
759 24460
760 3889
760 7367
760 12712
760 21428
761 8444
761 12371
761 13792
762 5059
762 10893
762 12797
762 16213
762 18998
763 6286
763 8400
763 21844
764 1579
764 2263
764 3069
764 8482
764 9050
764 11016
764 12784
764 13033
764 15317
764 17258
764 22453
764 23271
764 23432
764 23673
764 23932
764 24143
764 24162
764 24216
764 24412
764 24442
765 766
765 2348
765 4175
765 7266
765 8499
765 9794
765 9795
765 13116
765 17355
765 17356
765 21783
765 22628
766 2348
766 3098
766 9795
766 21783
767 1916
767 11818
767 13773
767 18283
767 18771
767 21663
768 791
768 10947
768 12944
768 14387
768 17710
769 5922
769 9244
769 17856
769 19114
769 21715
770 5247
770 6279
770 8506
770 14470
770 15121
770 19418
770 19834
770 19926
770 22975
771 1799
771 4342
771 4682
771 10401
771 12484
771 13344
771 17188
771 17249
771 19455
771 20573
771 21492
771 22813
772 1168
772 4856
772 5784
772 13724
772 13725
772 13726
772 16439
773 820
773 8334
773 10430
773 10621
773 15987
773 17050
773 17927
774 7145
774 8014
774 9681
774 19032
774 20902
775 4573
775 5596
775 20028
775 20029
775 20033
776 961
776 2336
776 5526
776 18782
777 3519
777 4631
777 9944
777 12034
778 4128
778 22207
779 2362
779 6183
779 16603
779 21017
779 23867
779 23959
779 24029
779 24044
779 24081
779 24177
779 24225
780 16278
780 17438
780 22385
781 3950
781 7862
781 17473
781 19271
781 22037
782 18880
782 19581
782 20065
782 21365
782 23396
783 4932
783 12545
783 15702
783 17972
783 18828
784 2195
784 3750
784 19134
784 22332
784 22784
785 7136
785 12527
785 14834
785 16262
785 19853
786 5990
786 6841
786 14482
786 19551
786 19912
786 20906
787 1637
787 4570
787 5582
787 10903
787 19489
788 5249
788 9902
788 10154
788 13159
788 15737
788 20280
789 1092
789 2437
789 2646
789 14246
789 16113
789 23615
789 23700
789 23861
790 3539
790 9390
790 9868
790 11977
790 12507
791 17551
791 17710
791 20585
791 21793
792 3455
792 4565
792 4597
792 9827
792 10108
792 13886
792 15890
792 16510
792 19215
793 2249
793 5142
793 24370
794 1028
794 1106
794 2674
794 3176
794 3810
794 3825
794 4629
794 4935
794 5446
794 5665
794 5866
794 7328
794 8960
794 9092
794 9774
794 10207
794 11389
794 11708
794 11911
794 12563
794 12692
794 12706
794 12799
794 12839
794 13856
794 15063
794 15279
794 15446
794 15504
794 16150
794 16776
794 17166
794 17436
794 17726
794 18887
794 19318
794 19676
794 19903
794 20470
794 20697
794 20908
794 21057
794 22039
794 22064
794 22541
794 23328
795 5063
795 7198
795 7406
795 8084
795 8112
795 9429
795 11620
795 12967
795 14561
795 14718
795 15350
795 15752
795 16784
795 18230
795 19055
795 19359
795 20617
796 4047
796 6684
796 8930
796 9211
796 9974
796 10348
796 11599
796 16319
796 17543
796 18963
796 20739
796 20867
796 21968
796 22299
796 23205
796 23949
796 24067
796 24129
796 24297
796 24319
796 24321
796 24362
796 24457
797 1019
797 2365
797 2405
797 3945
797 7388
797 19488
797 24276
798 1753
798 17646
799 5979
799 7549
799 9178
799 11722
800 2026
800 2072
800 5718
800 9238
800 17802
800 22575
801 2960
801 10539
801 22046
801 22474
802 5420
802 6360
802 21556
802 21614
803 6624
803 8320
803 12664
803 23722
803 24382
804 1301
804 6530
804 12989
804 17162
804 21881
805 1873
806 2344
806 3951
806 5029
806 8507
806 11846
806 13420
806 13421
806 13533
806 19360
806 24054
807 7158
807 11020
807 11021
807 11022
807 13572
807 14145
807 15800
807 18003
807 18426
808 11020
808 14145
808 18426
809 6118
809 6772
809 7002
809 11554
810 6530
810 12989
810 16618
810 21881
811 4525
811 7398
811 13771
811 23823
811 24111
811 24339
812 10920
812 16271
812 17784
812 23098
813 1209
813 2676
813 7856
814 9788
814 13276
814 15009
814 19507
814 20054
815 2977
815 7049
815 10555
815 10813
815 10822
815 13870
815 15205
815 23200
816 7884
816 10593
816 22904
817 7324
817 11978
817 21528
817 22753
818 1270
818 13646
818 16592
818 17320
818 17904
818 19910
819 3586
819 15311
819 22999
820 2311
820 4967
820 11047
820 15987
820 16488
820 17050
820 20819
820 20885
820 21433
821 827
821 5381
821 9505
821 22023
821 23591
822 5845
822 10757
822 11585
822 15530
822 19696
822 19826
822 21235
823 3228
823 4789
823 13111
823 21505
824 12532
824 17416
824 19699
824 20349
824 20802
825 1232
825 1886
825 2778
825 5478
825 7004
825 15158
825 15824
825 18419
825 20305
826 1622
826 1981
826 10591
826 11836
826 12392
826 15246
826 21351
827 1098
827 1215
827 1478
827 2004
827 2417
827 3027
827 3168
827 5381
827 5618
827 7097
827 7452
827 7488
827 8104
827 9505
827 10677
827 10888
827 11400
827 11473
827 11710
827 13510
827 14224
827 14481
827 16173
827 16410
827 16469
827 16658
827 17153
827 17822
827 17999
827 18269
827 20619
827 22023
827 22252
828 2836
828 4756
828 12465
828 16120
829 4293
829 7458
829 9626
829 10023
829 12551
829 24413
830 2896
830 5161
830 8030
830 10073
830 10507
830 13885
831 4680
831 19530
831 20848
832 2806
832 4188
832 23987
832 24112
832 24171
833 4737
833 6392
833 7731
833 8962
833 9286
833 9566
833 12406
833 12589
833 12994
833 14530
833 18259
833 18599
833 18730
833 18914
833 22344
833 22955
834 1148
834 1989
834 5543
834 8993
834 9876
834 16286
835 1627
835 5362
835 15424
835 16743
835 17469
836 1688
836 7598
836 16628
836 17000
836 18902
837 3761
837 5501
838 2592
838 8488
838 17282
838 17451
838 17729
838 17983
838 19208
838 19910
838 21882
839 3041
839 8266
839 16768
839 18632
839 20973
840 1907
840 2409
840 3917
840 4966
840 7610
840 9237
840 12807
840 14658
840 15817
840 16703
840 16952
840 17433
841 1448
841 9606
841 14778
841 16632
841 20005
842 3566
842 4940
842 5902
842 15604
842 18282
843 10571
843 14592
844 1397
844 7361
844 11167
844 12429
844 14744
844 20381
844 21435
845 13031
845 15139
845 15772
845 16537
845 21269
846 3955
846 5726
846 11717
846 14265
846 15630
846 17582
846 20827
846 20910
846 21529
847 11764
847 12474
847 15498
847 18275
847 21320
848 2987
848 4556
848 14412
849 2543
849 20985
850 13921
850 20717
851 1784
851 2170
851 2380
851 5056
851 21865
852 6607
852 7047
852 15381
852 16443
852 17114
852 17506
852 19924
852 22744
853 1179
853 4405
853 5392
853 7795
853 12600
853 14028
853 14599
853 17550
853 21801
853 21858
854 1727
854 3394
854 4504
854 6916
854 8498
854 9981
854 13405
854 14826
854 17698
854 20799
854 23404
855 1515
855 9300
855 15615
856 1050
856 14655
856 17534
857 6067
857 9543
857 13157
858 1089
858 2074
858 5860
858 23094
858 23704
859 2405
859 24158
859 24177
860 2447
860 3167
860 3255
860 6334
860 8801
860 9646
860 10229
860 10297
860 10790
860 12655
860 17700
860 17728
860 19795
860 20835
860 22029
861 1503
861 19564
862 3214
862 10368
862 14012
862 14261
862 18885
863 2208
863 2628
863 2963
863 3636
863 4093
863 5263
863 6100
863 7362
863 7718
863 8493
863 8593
863 10212
863 13172
863 16444
863 16445
863 20931
863 21705
863 22498
863 22711
863 23068
863 23798
863 23982
863 24459
864 2766
864 20822
864 24049
864 24338
865 7416
865 7879
865 13214
865 24268
865 24322
866 7768
866 13861
866 23813
867 3547
867 12666
867 13279
867 16427
868 5553
868 11619
868 15126
868 15648
868 17642
869 2742
869 6158
869 7221
869 10785
869 13855
869 14915
869 24280
869 24282
870 16449
870 16605
870 19768
870 23729
870 24180
870 24328
870 24446
871 3349
871 21009
872 1258
872 4402
873 1739
873 9155
873 10208
873 10279
873 23009
874 2613
874 15997
875 9349
875 21283
875 21550
876 2323
876 3429
876 10156
876 14021
876 18618
877 6411
877 7471
877 11242
877 15443
877 16970
878 5162
878 7758
878 11564
878 16977
878 19028
878 20549
878 20599
878 22426
879 5420
879 12868
880 1211
880 1954
880 4517
880 7782
880 10148
880 14567
880 14688
880 17286
881 936
881 1201
881 1263
881 1358
881 1428
881 1692
881 1699
881 2485
881 3602
881 3718
881 6283
881 6822
881 7169
881 7195
881 7912
881 8127
881 8554
881 9156
881 9497
881 10350
881 11687
881 11727
881 12445
881 13540
881 14627
881 14920
881 15151
881 15259
881 15336
881 15553
881 15760
881 15816
881 16299
881 16822
881 17668
881 18401
881 18517
881 19318
881 19412
881 20201
881 21304
881 21709
881 23405
882 1385
882 3211
882 3523
882 3878
882 8569
882 9141
882 9194
882 10009
882 10131
882 11493
882 12848
882 13320
882 13905
882 14624
882 14949
882 16083
882 21412
883 1245
883 1753
883 2707
883 3239
883 3283
883 3993
883 5095
883 5256
883 6065
883 6952
883 7773
883 8110
883 9875
883 12090
883 12317
883 13113
883 13712
883 15907
883 18741
883 18749
883 19538
883 22605
883 22897
883 23692
883 24483
884 4379
884 11648
884 15893
884 19294
885 961
885 18782
885 19923
886 1653
886 6493
886 18631
886 20659
887 3783
887 5169
887 5255
887 12540
887 19406
888 2890
888 6497
888 10770
888 18103
888 19728
889 1317
889 7707
889 9879
889 19981
890 2867
890 7303
890 16802
890 20665
891 19102
891 22827
892 2408
892 7390
892 9374
892 10668
892 23810
892 23877
893 1001
893 1090
893 2298
893 3515
893 4720
893 5556
893 10872
893 11612
893 15367
893 18496
893 21968
893 23044
893 23205
893 23677
893 23900
893 24156
893 24173
894 6066
894 7483
894 11405
894 11824
895 1503
895 18631
895 19564
895 21270
895 22365
896 5518
896 11808
896 13626
896 16639
896 22586
897 5517
897 8285
897 15685
897 16156
897 23121
898 1931
898 1932
898 4834
898 7426
898 8856
898 15487
899 4465
899 22701
899 22757
900 1888
900 2094
900 7160
900 7167
900 19276
900 23958
901 3019
901 3151
901 4119
901 4411
901 5585
901 12207
901 18548
901 22403
901 22852
902 1893
902 10392
902 11808
903 4134
903 4232
903 6416
903 9734
903 18238
904 2436
904 8415
904 12867
904 14734
904 16849
904 17643
904 20204
904 22939
905 1970
905 7450
905 9360
905 12272
905 22548
906 5612
906 7272
906 7648
906 11690
906 15918
907 1044
907 2769
907 3422
907 10689
907 17974
907 19515
908 3956
908 5512
908 8911
908 11819
908 16342
909 1898
909 11063
909 23409
909 24159
910 16802
910 18335
910 20298
911 2772
911 7463
911 10342
911 11553
911 17863
912 4320
912 14263
912 18520
913 3675
913 4317
913 4321
913 4361
913 15790
913 18520
914 2455
914 6708
914 7337
914 13757
914 15584
914 17976
914 18168
914 19513
915 2304
915 7311
915 9691
915 13675
915 15991
916 4738
916 8607
916 15256
916 17240
916 18243
917 1541
917 4956
917 6799
917 11348
917 15257
917 23434
918 1159
918 7013
918 9100
918 9810
918 10205
918 22950
919 3119
919 9796
919 19378
920 1660
920 1838
921 1909
921 5830
921 12802
921 21471
921 22949
922 923
922 924
922 2299
922 5144
922 21115
922 21939
923 924
923 1790
923 21115
923 21938
923 21939
924 1790
924 2353
924 5144
924 21115
924 21939
924 21940
925 4125
925 6414
925 11713
925 14671
925 15351
925 16291
925 16621
925 18882
925 21763
926 6734
926 7770
926 12103
926 14219
926 18000
926 18746
926 19520
927 1747
927 2464
927 4252
927 12609
927 17398
927 21494
928 1520
928 2717
928 4158
928 6815
928 7050
928 13427
928 15655
928 16838
928 17184
928 18561
928 18733
928 19460
928 20744
928 21232
928 23522
929 2557
929 4011
929 7498
929 8436
929 22349
930 3708
930 11583
930 11760
930 11941
931 3865
931 8831
931 11538
931 16216
931 20330
931 23357
931 23805
931 24133
931 24300
931 24318
932 1682
932 9443
932 20477
932 21885
932 23426
933 2644
933 5111
933 6212
933 7277
933 16859
934 2411
934 4854
934 17055
934 21720
935 1973
935 3010
935 5157
935 5241
935 5710
935 9449
935 12743
935 14428
935 16364
935 16717
935 16938
935 17752
935 20174
935 20556
935 22661
936 19318
936 22025
937 2878
937 6659
937 23706
937 23868
937 24330
938 4843
938 6300
938 8260
938 11784
938 12897
938 13372
938 20757
939 961
939 17305
939 22856
940 8833
940 12384
940 16331
940 22653
941 3666
941 4057
941 4061
941 14881
941 18953
941 21208
942 8019
942 10736
942 15287
942 21681
943 3459
943 4121
943 5332
943 16231
943 18061
943 18905
943 19579
943 20801
943 21612
943 21912
943 23138
944 8449
944 10384
944 10765
944 12629
944 21555
945 2851
945 5346
945 14338
945 15270
945 19047
946 3548
946 11790
946 18227
946 21507
947 6848
947 12570
947 15874
947 22310
948 5011
948 12494
948 23358
949 4189
949 5120
949 7670
949 7987
949 11438
950 9673
950 22597
950 23605
951 2725
951 23217
951 24141
951 24407
952 6269
952 11362
952 23779
953 2725
953 23217
953 24141
953 24407
954 4532
954 6447
954 17649
955 1281
955 4761
955 7299
955 7952
955 14407
955 15274
955 22927
956 7322
956 9525
956 11574
956 11632
957 4108
957 7422
957 10337
957 15260
957 16664
957 17263
957 19779
957 20520
958 7634
958 15517
958 15998
958 20226
959 3332
959 5971
959 6726
959 10696
959 13163
959 15046
959 16604
959 17730
959 18452
959 18509
959 19249
959 19421
959 19450
960 8969
960 9895
960 12106
960 14914
960 19327
961 963
961 1032
961 1264
961 1427
961 2192
961 2257
961 2345
961 2531
961 2548
961 2839
961 2967
961 3660
961 3698
961 3724
961 3894
961 5168
961 5526
961 5637
961 5677
961 5683
961 5824
961 6005
961 6047
961 6464
961 6531
961 6625
961 6852
961 8018
961 8462
961 8698
961 8822
961 8899
961 9405
961 10019
961 10050
961 10777
961 11040
961 11050
961 11171
961 11263
961 11801
961 11915
961 11927
961 12084
961 12261
961 12443
961 12808
961 13223
961 13527
961 13548
961 13566
961 13945
961 14105
961 14180
961 14350
961 14771
961 15154
961 15464
961 15735
961 16180
961 16249
961 16336
961 16347
961 16404
961 16515
961 16518
961 16860
961 17088
961 17256
961 17305
961 17498
961 17658
961 18037
961 18108
961 18112
961 18576
961 18782
961 18832
961 18965
961 19391
961 19511
961 19528
961 19550
961 19585
961 19734
961 19880
961 19900
961 19923
961 19954
961 20064
961 20627
961 20750
961 20863
961 21329
961 21390
961 21979
961 22053
961 22399
961 22862
961 22947
961 23104
961 23249
961 23283
961 23554
961 23771
962 2704
962 18611
962 20134
962 22173
962 22658
962 23308
963 5328
963 14513
964 1705
964 3821
964 11391
964 13833
964 16003
964 19656
965 2845
965 4170
965 5530
965 9947
965 13802
965 16029
966 5646
966 12877
966 20353
967 4448
967 7220
967 7850
967 8215
967 8460
967 12518
967 13035
967 14143
967 15016
967 15189
967 17001
967 23403
968 11843
968 11844
968 20523
969 7121
969 7920
969 8281
969 12101
969 12835
969 20613
970 3766
970 14030
970 19597
970 20343
970 23106
971 6530
971 9814
971 12989
971 21881
972 12035
972 12056
973 5068
973 8520
973 12105
973 13326
973 19735
973 20849
973 21138
974 3248
974 5431
974 6173
974 13976
974 18395
975 1842
975 7743
975 24284
975 24365
976 1060
976 18631
976 21029
977 3787
977 5213
977 8557
977 11226
977 20336
978 4134
978 18238
979 1095
979 3969
979 16747
979 19503
979 24400
980 1140
980 6019
980 6642
980 18568
980 23410
981 8797
981 13708
981 20879
981 22079
981 22101
982 1985
982 9680
982 19672
982 21344
982 22798
983 6650
983 12716
983 14110
983 15845
983 20228
984 1324
984 6904
984 22402
984 22701
985 7977
985 21614
986 2168
986 2320
986 2899
986 5492
986 5852
986 5990
986 7067
986 7475
986 8258
986 8851
986 9501
986 11685
986 12059
986 12697
986 14333
986 15132
986 16430
986 17131
986 17210
986 17329
986 17363
986 17673
986 17726
986 19726
986 20665
986 21310
986 21516
986 23392
987 4821
987 5380
987 9562
987 12858
988 21505
988 21614
989 1858
989 4283
989 12892
989 19122
989 22297
990 1487
990 9610
990 16978
991 3522
991 8726
991 17171
992 5130
992 8248
992 21359
992 22631
993 4772
993 6860
993 10628
993 12497
993 13083
993 21978
993 22141
994 6771
994 8191
994 12663
994 14540
994 23042
994 23845
994 23846
994 23879
994 24103
994 24106
995 4129
995 18903
995 20143
995 22119
996 8012
996 9117
996 17111
996 19203
996 19518
996 22908
997 1673
997 3594
997 17631
997 19428
998 999
998 1585
998 3245
998 5026
998 5091
998 12036
998 12778
998 13640
998 14763
998 14764
998 16451
998 23850
998 23942
999 5026
999 5091
999 10095
999 23942
1000 14772
1000 14932
1000 15266
1000 17945
1000 19969
1001 24458
1002 1612
1002 1764
1002 3104
1002 12202
1002 23772
1003 1004
1003 1006
1003 2595
1003 6867
1003 13922
1003 23361
1003 23362
1003 23363
1003 24016
1003 24050
1003 24217
1004 1005
1004 1006
1004 5929
1004 13297
1004 16790
1005 1006
1005 13922
1005 23362
1005 23363
1006 24217
1007 4402
1007 8716
1007 10056
1007 12776
1008 11270
1008 16041
1008 16048
1008 16050
1008 16057
1008 17350
1009 1476
1009 5833
1009 9417
1009 20569
1009 23330
1010 6660
1010 13338
1010 14775
1010 14958
1010 15416
1010 15943
1010 17795
1010 20091
1010 22219
1011 11792
1011 11928
1011 12236
1011 12713
1011 15484
1011 18481
1011 20493
1011 20663
1011 21059
1012 15315
1012 17298
1013 2773
1013 10568
1013 11649
1013 15184
1014 1564
1014 1835
1014 6498
1014 11177
1015 2343
1015 4554
1015 8868
1015 12947
1015 15312
1015 16145
1015 22638
1015 23817
1015 24221
1015 24222
1016 8262
1016 9696
1016 12924
1016 13928
1016 21703
1017 1567
1017 1842
1017 3004
1017 4245
1017 5556
1017 6858
1017 7573
1017 7910
1017 11612
1017 23205
1017 23900
1017 24067
1017 24361
1017 24458
1018 2428
1018 5317
1018 10106
1019 5178
1019 24074
1019 24078
1019 24393
1020 1523
1020 2692
1020 3488
1020 5526
1020 7714
1020 11298
1020 11910
1020 13654
1020 17305
1020 17586
1020 20212
1020 22646
1021 19192
1021 19329
1022 6719
1022 10245
1022 10571
1022 22904
1023 10579
1023 10581
1023 16019
1023 19092
1024 3272
1024 5172
1024 7972
1024 9096
1025 1765
1025 14482
1025 19912
1025 19986
1026 6879
1026 10769
1026 21151
1027 7072
1027 11461
1027 13055
1027 14969
1027 20905
1028 8554
1028 15151
1028 19318
1029 8181
1029 8994
1029 13839
1029 13841
1029 14679
1029 14980
1029 15454
1029 15811
1029 18879
1029 21355
1029 22966
1029 23233
1029 23448
1030 5380
1030 11528
1030 14345
1030 19248
1031 4890
1031 6562
1031 13365
1031 19717
1031 23242
1032 2336
1032 5526
1032 18782
1033 7237
1033 17992
1034 4402
1034 13870
1034 18166
1034 19923
1035 2973
1035 4609
1035 9890
1035 16827
1035 23329
1036 4943
1036 5939
1036 9068
1036 10869
1036 12273
1036 18791
1036 20546
1036 21379
1036 21388
1036 22018
1037 10032
1037 12557
1037 24470
1038 1712
1038 1915
1038 3058
1038 10081
1038 13402
1038 14406
1038 15229
1038 15992
1038 16521
1038 17144
1038 17537
1038 17965
1038 18010
1038 18900
1038 19994
1038 21692
1038 22056
1038 22709
1039 3072
1039 11887
1039 11888
1039 11889
1039 19863
1040 2186
1040 3008
1040 9682
1040 10426
1040 14889
1040 20219
1041 5506
1041 8169
1041 22532
1042 4708
1042 4709
1042 7640
1042 24166
1043 1331
1043 5620
1043 8126
1043 10684
1043 11966
1044 2151
1044 17974
1045 3078
1045 9285
1045 12027
1045 14058
1045 19931
1046 8055
1046 10571
1046 19227
1046 20096
1047 13870
1047 20714
1047 23369
1048 4610
1048 6769
1048 10125
1048 11156
1048 14780
1049 20107
1050 1138
1050 2960
1050 10305
1050 10539
1050 14239
1050 17534
1050 17653
1050 20872
1050 22046
1050 22474
1051 2394
1051 3641
1051 4101
1051 4749
1051 8634
1051 14369
1051 15300
1051 17480
1051 22475
1051 22909
1052 8906
1052 8980
1052 13577
1052 17613
1052 23082
1053 1441
1053 8034
1053 13446
1053 23307
1054 1074
1054 5636
1054 10921
1054 15823
1054 17521
1054 22268
1055 1141
1055 4375
1055 5676
1055 6783
1055 12110
1055 14384
1055 14716
1055 15225
1055 15535
1055 15689
1055 19509
1055 19740
1055 20657
1056 3452
1056 4829
1056 14462
1056 19258
1056 21309
1056 23556
1057 5142
1057 6789
1057 23891
1057 24167
1057 24213
1057 24308
1058 8735
1058 10740
1058 14232
1058 22899
1058 23089
1058 23312
1058 23919
1059 9703
1059 15267
1059 17483
1060 6632
1060 7391
1060 18631
1061 12122
1061 12123
1061 15452
1061 15934
1061 22249
1061 22572
1061 22920
1062 1083
1062 3111
1062 5494
1062 5679
1062 5826
1062 5849
1062 5984
1062 7110
1062 8470
1062 9848
1062 13011
1062 14509
1062 15911
1062 21511
1062 22944
1063 5779
1063 5782
1063 8815
1063 12911
1063 12995
1064 3604
1064 22748
1065 3823
1065 12772
1065 14427
1065 19968
1065 23476
1065 23853
1066 2254
1066 14602
1066 20277
1066 23297
1067 6219
1067 8703
1067 8859
1067 12923
1067 13489
1068 2020
1068 4927
1068 12159
1069 4461
1069 9623
1069 10852
1069 16007
1069 17761
1071 3588
1071 4950
1071 5194
1071 5759
1071 8378
1071 9420
1071 12838
1071 14788
1071 20948
1071 23576
1072 2054
1072 8930
1072 24083
1072 24380
1073 3364
1073 3381
1073 6086
1073 15262
1073 16994
1074 2223
1074 3647
1074 5636
1074 6814
1074 10768
1074 10921
1074 13317
1074 14858
1074 16723
1074 19898
1074 22269
1075 1996
1075 4521
1075 5855
1075 5870
1075 5894
1075 8767
1075 11709
1075 14040
1075 15078
1075 15470
1075 15624
1075 17112
1075 18004
1075 18534
1075 19674
1075 22154
1075 22224
1076 3725
1076 8973
1076 11704
1076 16870
1076 22330
1077 8565
1077 8749
1077 10398
1077 22781
1077 23057
1078 5191
1078 11077
1078 13623
1078 18071
1079 3326
1079 4237
1079 8148
1079 21656
1080 7100
1080 9551
1080 19066
1080 20417
1081 17075
1081 18111
1081 21207
1081 23229
1081 23578
1082 2592
1082 6461
1082 13085
1082 17977
1083 3111
1083 5679
1083 14509
1083 15911
1084 1551
1084 3311
1084 6849
1084 8246
1084 9713
1084 14342
1084 14938
1085 5372
1085 12043
1085 23924
1085 23930
1085 24001
1086 4680
1086 8515
1086 9637
1087 15948
1087 19428
1088 1553
1088 3233
1088 5321
1088 10341
1088 11380
1088 11437
1088 21700
1089 1597
1089 2074
1089 4598
1089 6794
1089 11092
1089 13733
1089 23704
1090 2946
1090 5550
1090 23873
1091 6551
1091 9023
1091 21556
1091 22156
1092 19004
1092 23615
1092 23861
1093 6472
1093 6841
1093 8857
1093 19912
1094 6760
1094 15818
1094 21306
1095 1103
1095 1282
1095 1296
1095 3969
1095 11419
1095 12166
1095 13357
1095 16747
1095 18070
1095 18218
1095 19503
1095 20701
1096 5960
1096 7100
1096 9551
1096 19066
1096 21178
1097 3003
1097 11139
1097 13477
1097 17324
1097 20418
1097 20431
1098 1215
1098 1729
1098 3027
1098 10190
1098 11473
1098 12404
1098 14004
1098 14224
1098 16749
1098 17202
1098 17491
1098 21772
1098 22457
1099 2027
1099 6398
1099 9517
1099 12441
1099 13438
1099 13439
1099 20975
1099 23757
1100 7843
1100 8735
1100 9884
1100 23570
1100 24255
1101 4465
1101 5113
1101 9146
1101 10191
1101 18361
1101 22701
1101 22757
1101 23237
1102 2488
1102 8947
1103 16747
1103 24400
1104 4004
1104 17939
1105 1822
1105 8631
1105 15930
1105 20831
1106 18998
1106 19318
1107 1559
1107 5003
1107 9014
1107 10030
1108 2962
1108 10243
1108 22647
1108 24384
1109 2206
1109 11700
1109 23894
1109 24146
1109 24160
1110 5359
1110 6640
1110 12419
1110 15000
1110 15412
1110 20469
1110 21096
1110 21378
1110 22781
1110 23057
1111 11861
1111 15991
1111 22156
1112 3073
1112 6347
1112 7027
1112 7284
1112 13097
1112 13538
1112 14698
1112 15124
1112 22094
1113 3540
1113 3914
1113 4935
1113 10567
1113 11413
1114 2588
1114 6472
1114 8857
1114 11891
1115 1445
1115 10853
1115 11499
1115 15366
1115 20660
1116 1165
1116 8075
1116 11898
1116 11899
1116 12917
1116 13021
1116 13022
1116 18002
1116 20128
1116 23372
1117 2851
1117 12021
1117 20181
1118 1136
1118 7141
1118 14732
1118 16713
1118 16958
1118 22685
1119 2479
1119 4959
1119 6543
1119 7558
1119 22283
1120 15612
1120 17850
1121 10091
1121 10263
1121 16898
1121 20048
1122 2160
1122 4638
1122 6675
1122 17107
1122 21255
1123 1131
1123 19022
1123 21834
1124 4159
1124 4889
1124 9255
1124 9746
1124 11386
1124 11957
1124 14808
1124 15561
1124 16600
1124 22044
1125 5009
1125 5099
1125 6674
1125 14974
1125 16133
1125 22394
1126 3023
1126 12203
1126 16131
1126 18109
1127 1913
1127 3843
1127 7965
1127 9655
1127 13233
1127 14121
1127 14922
1127 15715
1127 17712
1127 18035
1128 1368
1128 2192
1128 4260
1128 4913
1128 8173
1128 9405
1128 9651
1128 10824
1128 15361
1128 15882
1128 16249
1128 18965
1128 19314
1128 19954
1128 21065
1128 21136
1128 23028
1128 24018
1129 8719
1129 8939
1129 12621
1129 13713
1129 14510
1129 17401
1129 21639
1130 4269
1130 14558
1130 17197
1131 2184
1131 3948
1131 4215
1131 4743
1131 6436
1131 7844
1131 7983
1131 8135
1131 11997
1131 14847
1131 15958
1131 17966
1131 18642
1131 19860
1131 20891
1132 8081
1132 9510
1132 13398
1132 15924
1132 20163
1132 20933
1133 3028
1133 23783
1133 23814
1134 1246
1134 20107
1135 2260
1135 20306
1136 7253
1136 12654
1136 14243
1136 14732
1136 22109
1137 10091
1137 16898
1137 19596
1137 20048
1138 1877
1138 2162
1138 4299
1138 5611
1138 9594
1138 10539
1138 16428
1138 20939
1138 21596
1138 22046
1139 2342
1139 10772
1139 11140
1139 13580
1139 15003
1140 2532
1140 6642
1140 14120
1141 5676
1141 14716
1142 3222
1142 5456
1142 5485
1142 5877
1142 10027
1142 10163
1142 14817
1142 20928
1142 22318
1142 22526
1143 4996
1143 8567
1143 8568
1143 9591
1143 11809
1143 17518
1144 4287
1144 9317
1144 9536
1144 11023
1144 23979
1144 24164
1144 24272
1145 2355
1145 2486
1145 10861
1145 13908
1145 15213
1145 15506
1145 19820
1146 1474
1146 3707
1146 9616
1146 11885
1146 14076
1147 7888
1147 12391
1147 13166
1147 14874
1147 18781
1148 5543
1148 8371
1148 10170
1148 21252
1149 4972
1149 14993
1149 20492
1150 4877
1150 10678
1150 13061
1150 20771
1151 3948
1151 8753
1151 21834
1152 4847
1152 9694
1152 21015
1153 3326
1153 19165
1153 21656
1153 23465
1154 3992
1154 5190
1154 6051
1154 8023
1154 15543
1154 17272
1155 3873
1155 13625
1155 18893
1155 19373
1155 22191
1155 22409
1156 6199
1156 10864
1156 24145
1156 24476
1156 24480
1157 12382
1157 23784
1158 3153
1158 11776
1158 13072
1158 21003
1158 22429
1158 23478
1159 7013
1159 8901
1159 9810
1159 10205
1159 16808
1159 17019
1159 22950
1160 2919
1160 10860
1160 18178
1161 1199
1161 1508
1161 1757
1161 8341
1161 9908
1161 21631
1162 1202
1162 4514
1163 4789
1163 8116
1163 19785
1164 2320
1164 13013
1164 17131
1164 17363
1165 13021
1165 23378
1166 5360
1166 8908
1166 10877
1166 21201
1167 6122
1167 9384
1167 10214
1167 16821
1167 24080
1168 1735
1168 5784
1168 7956
1168 7959
1168 11465
1168 11466
1168 11877
1168 13724
1168 19720
1169 2382
1169 4584
1169 5698
1169 7359
1169 7774
1169 10004
1169 20866
1170 2275
1170 2597
1170 2740
1170 3146
1170 7377
1170 9370
1170 11757
1170 14951
1170 18952
1170 19446
1170 19995
1170 20069
1170 21519
1170 21521
1170 21773
1170 23073
1171 7190
1171 7311
1171 9329
1171 11346
1172 6573
1172 8125
1172 18012
1173 3518
1173 8180
1173 8603
1173 10961
1173 21222
1173 21413
1173 21911
1174 3451
1174 7316
1174 8236
1174 8597
1175 16662
1176 8244
1176 9658
1176 14583
1176 15573
1176 17304
1177 12303
1177 15735
1177 17498
1178 1870
1178 12897
1179 1608
1179 4312
1179 4482
1179 6584
1179 7795
1179 12600
1179 13277
1179 15433
1179 15492
1179 16335
1179 16989
1179 17550
1179 21858
1180 20167
1180 21366
1181 6510
1181 12129
1181 14616
1181 15023
1181 19780
1181 22929
1182 7572
1182 7914
1182 8179
1182 8811
1182 16846
1183 6970
1183 7372
1183 7668
1183 14439
1184 3128
1184 4204
1184 10062
1184 14694
1184 18453
1185 3513
1185 3913
1185 5307
1185 7444
1185 8978
1185 12030
1185 14003
1185 20052
1185 22243
1186 2046
1186 6573
1186 8125
1186 9683
1186 22568
1186 23144
1187 1917
1187 2925
1187 23492
1187 23916
1188 3642
1188 6859
1188 8150
1188 14197
1188 15705
1189 2466
1189 2577
1189 4308
1189 10557
1189 14332
1189 16442
1189 20787
1190 1636
1190 2022
1190 3414
1190 3631
1190 5040
1190 5300
1190 8042
1190 8315
1190 9169
1190 9851
1190 10755
1190 11034
1190 11132
1190 11589
1190 13280
1190 13971
1190 14236
1190 14825
1190 15346
1190 15793
1190 16251
1190 18682
1190 18846
1190 19351
1190 19586
1190 20733
1190 21160
1190 21187
1190 23080
1191 7000
1191 10347
1191 13181
1191 14806
1191 22849
1192 9306
1192 20309
1193 1194
1193 1195
1193 1736
1193 6548
1193 15970
1194 1195
1194 6548
1194 15970
1195 23378
1196 2068
1196 3648
1196 7423
1196 16939
1196 18957
1197 10893
1197 21711
1198 4813
1198 8039
1198 11640
1198 15042
1198 22653
1199 1508
1199 1757
1199 3778
1199 3838
1199 3879
1199 5122
1199 6426
1199 7507
1199 8341
1199 9176
1199 9908
1199 12461
1199 17320
1199 18115
1199 18293
1199 18425
1199 19709
1199 21631
1199 21649
1199 23052
1200 6530
1200 16618
1200 21881
1201 14450
1201 16517
1201 19318
1201 22025
1202 1950
1202 15108
1203 1527
1203 10389
1203 10495
1203 12227
1203 16070
1204 12290
1204 23781
1204 24196
1204 24225
1205 2145
1205 4303
1205 5130
1205 5622
1205 6224
1205 6471
1205 6535
1205 8917
1205 11987
1205 12668
1205 14017
1205 14393
1205 20200
1205 21359
1205 21447
1205 22631
1206 7793
1206 11405
1206 20653
1207 2390
1207 6009
1207 6714
1207 6874
1207 8924
1207 10775
1207 12099
1207 13552
1207 16760
1207 17791
1207 18081
1207 19432
1207 23194
1208 19128
1208 19131
1208 22286
1208 22964
1209 2676
1209 5567
1209 7856
1209 8973
1209 11368
1209 12351
1210 3373
1210 8068
1210 12019
1210 17598
1210 22729
1211 1574
1211 1954
1211 7782
1211 10148
1211 10940
1211 17286
1211 22557
1212 1513
1212 2351
1212 2982
1212 3494
1212 3561
1212 4578
1212 5961
1212 8551
1212 17566
1212 19395
1212 19889
1212 23034
1212 23645
1213 5344
1213 16188
1213 23367
1213 23635
1213 24058
1213 24275
1214 4170
1214 5313
1214 5623
1214 10673
1214 13864
1214 18080
1215 1729
1215 5618
1215 11473
1215 14224
1215 16173
1215 16749
1215 17202
1215 21772
1215 22457
1216 10237
1216 17812
1216 21040
1217 2977
1217 8857
1218 1596
1218 4229
1218 4505
1218 9105
1218 16436
1218 17794
1218 17809
1219 4266
1219 6240
1219 11251
1219 17868
1219 21953
1220 5870
1220 15470
1220 15624
1220 18534
1220 19674
1221 5534
1221 14248
1221 15778
1221 22242
1221 22317
1222 3396
1222 3995
1222 5100
1222 10985
1222 11489
1222 12888
1222 16100
1223 21299
1224 6331
1224 6828
1224 9035
1224 12501
1224 14967
1224 15094
1224 18319
1224 19526
1224 20310
1224 21166
1224 23122
1225 3604
1225 4617
1225 5112
1225 19651
1226 3268
1226 15538
1226 18261
1226 20718
1227 1423
1227 11441
1227 14525
1227 19160
1227 22829
1228 10851
1228 11096
1228 12019
1228 12760
1228 13213
1228 14176
1228 17598
1228 18717
1228 19426
1228 21218
1228 22469
1228 23210
1229 3564
1229 10386
1229 16318
1229 23112
1230 2320
1230 13179
1230 13620
1230 17131
1231 1797
1231 3181
1231 13273
1231 22741
1231 23961
1232 2778
1232 15158
1232 18419
1233 3813
1233 4779
1233 5352
1233 19667
1233 23967
1233 24169
1234 8088
1234 8985
1234 10063
1234 11329
1234 12509
1234 20135
1234 21482
1235 4905
1235 8638
1235 9353
1235 10434
1235 20337
1236 1249
1236 16405
1236 16625
1236 21821
1237 3992
1237 21190
1238 6287
1238 8137
1238 23792
1238 24397
1238 24399
1239 3051
1239 3557
1239 3751
1239 4839
1239 4867
1239 4888
1239 6805
1239 12939
1239 15143
1239 15748
1239 18389
1240 6626
1240 15314
1240 15489
1241 7450
1241 9360
1241 12272
1241 17047
1242 3155
1242 8098
1243 2541
1243 4390
1243 17298
1244 3816
1244 4294
1244 11328
1244 15828
1244 17894
1245 1353
1245 2707
1245 2710
1245 3239
1245 3993
1245 5095
1245 6065
1245 6715
1245 6952
1245 8715
1245 13113
1245 13712
1245 14572
1245 14863
1245 15571
1245 15907
1245 16419
1245 18090
1245 18637
1245 18749
1245 19653
1245 21713
1245 23692
1245 24483
1246 5824
1246 6047
1246 6733
1246 8089
1246 8739
1246 10012
1246 10309
1246 12178
1246 12367
1246 12443
1246 13406
1246 14771
1246 15154
1246 16161
1246 16180
1246 16187
1246 16860
1246 17305
1246 18576
1246 19116
1246 19461
1246 19923
1246 19928
1246 21230
1246 21597
1246 22399
1246 22947
1246 23275
1246 23283
1246 23554
1247 1622
1247 1673
1247 11558
1247 12936
1247 15258
1247 18116
1248 9546
1248 19400
1249 2399
1249 3533
1250 3239
1250 12709
1250 13294
1250 15453
1251 9780
1251 14978
1251 18333
1251 23887
1252 7192
1252 20144
1253 1507
1253 7876
1253 11902
1253 20634
1253 23412
1254 5964
1254 8955
1254 9492
1254 13347
1254 15751
1254 16208
1254 18464
1254 23198
1255 8306
1255 9804
1255 18820
1255 20370
1256 5479
1256 7021
1256 9133
1256 9821
1256 15839
1256 21477
1257 5090
1257 8560
1257 11484
1257 14316
1257 19366
1258 1983
1258 2325
1258 4402
1258 4618
1258 4647
1258 5878
1258 6152
1258 7971
1258 8663
1258 10210
1258 10355
1258 11236
1258 11353
1258 12373
1258 12776
1258 13407
1258 13469
1258 13544
1258 13741
1258 13820
1258 13949
1258 14328
1258 14490
1258 14977
1258 17503
1258 17957
1258 18009
1258 18697
1258 19371
1258 19671
1258 21967
1258 22281
1258 22669
1258 22725
1258 23768
1259 5187
1259 7052
1259 23108
1259 23671
1259 24110
1260 3529
1260 5903
1260 13221
1261 3526
1262 3750
1262 5239
1262 19134
1262 22332
1262 22784
1263 3457
1263 17992
1263 19318
1263 20107
1264 18782
1264 20107
1265 3542
1265 7440
1265 20661
1266 2491
1266 5297
1266 5995
1266 7680
1266 8468
1266 9368
1266 10491
1266 14340
1266 17604
1267 1626
1267 2360
1267 3165
1267 4868
1267 6912
1267 7890
1267 23078
1268 4402
1268 8857
1268 20377
1268 23369
1269 2813
1269 5428
1269 5702
1269 16302
1270 13646
1270 17320
1270 17904
1271 3077
1271 6483
1271 10035
1271 16196
1271 21551
1272 1321
1272 11024
1272 12434
1272 19259
1272 19878
1272 20264
1273 3952
1273 5966
1273 10427
1273 18363
1274 5743
1274 6167
1274 17271
1275 5285
1275 5764
1275 6163
1275 6816
1275 7439
1275 10061
1275 16223
1275 22659
1276 1277
1276 2021
1276 2817
1276 13577
1277 2817
1277 19401
1279 2276
1281 1768
1281 2500
1281 3944
1281 4062
1281 5782
1281 6215
1281 6766
1281 7952
1281 8267
1281 12686
1281 15274
1281 16452
1281 16657
1281 17154
1281 17435
1281 17517
1281 19500
1281 20866
1282 11419
1282 16747
1282 19503
1282 23312
1283 10470
1283 12214
1283 13182
1283 13490
1283 15241
1283 19771
1283 19987
1284 3576
1284 4637
1284 10004
1284 18358
1285 3866
1285 4637
1285 10004
1286 5669
1286 8670
1286 11973
1286 18466
1287 7684
1287 11508
1287 23323
1287 23864
1287 24168
1288 5420
1288 15840
1288 19198
1288 21614
1289 1909
1289 5830
1289 22949
1290 7995
1290 10166
1290 14432
1290 14479
1290 19214
1290 20980
1290 21011
1290 23459
1291 6827
1291 15827
1291 17593
1291 20534
1291 21737
1292 2469
1292 23799
1292 24026
1293 1946
1293 4541
1293 22281
1294 3533
1294 16405
1295 2855
1295 3546
1295 4727
1295 5288
1295 10046
1295 13999
1295 17290
1295 19762
1295 23931
1295 24310
1296 11419
1297 16598
1297 19576
1297 23495
1298 3539
1298 4855
1298 4873
1298 5812
1298 9390
1298 9868
1298 12582
1298 14095
1298 18505
1298 19712
1298 20658
1298 21220
1299 2004
1299 2417
1299 3776
1299 11400
1299 13510
1299 14127
1299 14481
1299 16658
1299 18154
1299 18302
1299 18407
1299 19207
1299 20619
1299 22252
1300 5676
1300 10431
1300 14716
1300 15035
1301 3585
1301 4733
1301 7999
1301 9570
1301 9814
1301 9856
1301 12658
1301 13238
1301 13252
1301 13825
1301 14076
1301 16618
1301 17836
1301 18013
1301 18138
1301 22483
1302 1409
1302 2054
1302 7859
1302 8930
1303 5362
1303 9414
1303 15424
1303 17469
1304 5177
1304 8299
1304 17609
1304 21893
1305 3978
1305 4530
1305 17299
1305 17508
1305 17985
1306 4669
1306 7685
1306 17636
1306 17741
1306 23223
1307 2408
1307 6752
1307 9060
1307 24208
1307 24357
1307 24373
1308 1905
1308 1991
1308 2806
1308 4188
1308 8493
1308 9190
1308 10311
1308 18251
1308 23987
1308 24112
1309 7295
1309 13921
1310 3620
1310 10034
1310 13445
1310 18169
1310 20448
1310 22433
1310 23589
1311 2280
1311 8916
1311 23255
1312 4958
1312 5133
1312 6902
1312 12635
1312 14705
1312 21158
1312 21357
1312 22942
1313 4880
1313 6039
1313 10444
1313 10646
1313 14675
1313 18532
1313 24421
1314 5601
1314 5753
1314 10494
1314 13628
1314 17944
1314 18480
1314 21162
1315 3312
1315 6297
1315 19311
1315 19703
1316 4325
1316 16414
1316 16572
1316 18759
1316 19080
1316 21364
1317 1495
1317 6227
1317 7707
1317 12756
1317 18143
1318 9285
1318 12027
1318 18916
1319 4067
1319 4762
1319 13095
1319 13674
1319 17733
1319 20257
1319 21397
1320 3313
1320 13883
1320 20623
1321 11024
1321 16358
1321 19259
1321 20264
1322 2605
1322 11405
1322 20653
1322 21671
1323 14761
1323 15914
1323 18487
1323 18760
1323 20233
1323 21745
1323 22730
1324 6504
1324 15963
1325 1750
1325 2247
1325 2576
1325 7849
1325 24174
1325 24188
1325 24311
1326 3825
1326 17436
1326 19318
1326 23328
1327 1328
1327 1330
1327 10394
1327 16087
1328 1329
1328 9244
1328 16087
1328 17856
1328 18988
1328 18989
1328 19996
1328 21715
1328 22452
1329 9244
1329 17690
1329 18989
1329 19996
1329 22452
1330 18989
1330 19996
1331 2452
1331 5620
1331 6696
1331 7298
1331 8510
1331 9565
1331 10582
1331 10684
1331 11280
1331 11862
1331 11966
1331 16568
1331 16674
1331 18018
1331 18055
1331 18635
1331 18980
1331 20883
1331 21247
1331 22211
1331 23175
1331 24137
1332 4140
1332 8570
1332 10290
1332 11505
1332 20875
1333 2321
1333 3138
1333 3460
1333 13037
1333 21998
1334 1606
1334 8019
1334 21345
1334 21820
1335 6062
1335 19968
1336 2271
1336 7959
1336 8032
1336 11877
1336 13887
1337 13301
1337 13875
1337 15834
1337 15837
1337 21229
1338 1339
1338 5462
1338 5463
1338 15621
1338 15852
1338 15854
1338 15856
1338 19663
1338 22117
1339 5462
1339 6502
1339 6622
1339 15621
1339 15854
1339 15855
1339 22117
1340 4298
1340 14643
1340 22437
1341 6360
1341 8795
1341 10800
1341 19058
1341 20133
1342 4010
1342 4645
1342 5624
1342 9114
1342 9321
1342 14709
1342 23281
1343 12290
1344 2238
1344 5527
1344 10359
1344 10475
1344 19744
1345 2131
1345 7028
1345 7464
1345 11606
1345 18676
1345 19689
1346 6492
1346 8930
1346 24083
1346 24228
1347 3175
1347 6560
1347 17064
1347 20156
1348 8245
1348 8355
1348 16223
1349 9228
1349 17699
1349 18862
1349 23270
1350 5553
1350 11619
1350 15648
1350 17642
1351 3760
1351 15610
1351 19611
1351 20199
1352 2144
1352 6779
1352 9011
1352 16615
1352 18123
1352 20845
1353 1753
1354 6218
1354 14682
1354 15529
1354 18052
1354 23494
1355 5188
1356 21626
1357 6576
1357 11056
1357 12047
1357 12393
1357 15118
1358 14450
1358 16517
1358 19318
1358 22025
1359 8943
1359 19262
1359 19264
1359 21645
1360 2302
1360 2390
1360 4641
1360 4712
1360 10639
1360 10712
1360 13155
1360 17838
1360 20696
1360 21975
1360 22636
1361 4017
1361 5815
1361 19515
1361 23045
1362 3531
1362 3912
1362 4567
1362 4644
1362 5684
1362 10481
1362 15128
1362 19486
1363 2902
1363 7343
1363 9174
1363 9703
1363 10994
1363 17077
1363 17669
1364 1666
1364 10612
1364 16597
1364 22424
1365 12204
1365 12812
1365 13745
1365 15112
1365 18929
1365 22257
1365 22458
1366 21009
1366 22040
1367 1515
1367 9300
1368 3239
1368 12303
1368 12897
1369 5187
1369 6333
1369 23676
1369 24240
1370 2058
1370 2609
1370 23732
1370 23921
1370 24197
1371 4534
1371 7704
1371 11116
1371 12710
1371 13738
1371 14433
1371 16716
1371 21068
1371 21091
1371 22969
1371 23639
1372 7197
1372 8812
1372 15538
1372 19634
1373 7253
1373 14243
1373 14732
1373 16713
1373 22685
1374 2317
1374 2543
1374 4315
1375 1439
1375 6103
1375 6122
1375 10214
1375 23937
1376 1494
1376 3948
1376 5489
1376 15445
1376 21834
1377 3386
1377 9644
1377 12404
1377 17491
1378 2487
1378 4029
1378 9875
1378 10798
1378 10973
1378 14637
1378 14653
1378 14941
1378 16914
1378 19113
1379 9038
1379 10219
1379 15944
1379 19797
1380 2429
1380 5437
1380 5758
1380 8754
1380 9361
1380 11661
1380 12771
1380 18694
1380 22157
1380 23187
1381 15670
1381 15795
1381 18831
1381 19636
1381 21427
1382 8458
1382 8508
1382 9560
1382 13879
1382 17887
1383 2189
1383 2993
1383 3224
1383 3370
1383 3530
1383 4227
1383 5205
1383 6652
1383 6946
1383 7520
1383 8548
1383 9862
1383 10151
1383 10327
1383 11306
1383 11403
1383 12504
1383 12605
1383 13282
1383 13475
1383 13859
1383 14861
1383 15734
1383 16421
1383 17778
1383 20044
1383 20080
1383 21055
1383 21146
1384 2866
1384 3423
1384 3506
1384 4935
1384 8785
1384 9924
1384 14166
1384 15070
1384 22542
1385 3878
1385 14949
1385 16083
1386 15344
1386 19733
1386 20433
1387 9637
1387 18520
1388 6882
1388 13462
1388 20605
1388 21687
1388 22523
1388 23735
1388 23824
1388 24015
1388 24235
1389 13916
1389 14893
1389 18959
1390 6611
1390 8857
1390 21487
1390 22948
1391 5695
1391 23835
1391 24008
1391 24375
1392 8251
1392 23765
1392 24298
1392 24475
1393 6581
1393 11317
1393 15904
1393 18803
1394 11743
1394 20319
1395 10558
1395 11514
1395 13314
1395 21402
1396 5689
1396 7071
1396 7823
1396 17443
1396 23202
1397 11167
1397 17865
1397 21435
1398 1600
1398 2739
1398 4816
1398 4832
1398 6534
1398 7586
1398 11210
1398 11541
1398 19148
1398 23369
1398 24479
1399 8528
1399 18099
1399 21234
1400 19502
1400 20257
1400 21397
1401 12079
1401 19381
1401 21437
1401 22932
1401 23239
1402 11619
1402 14940
1402 15648
1402 17642
1402 18680
1403 2673
1403 10082
1403 10206
1403 16273
1403 19562
1404 4703
1404 8175
1404 20294
1404 21855
1405 12985
1405 13930
1405 15406
1405 21626
1406 19745
1406 21165
1406 22290
1407 1662
1407 3630
1407 3906
1407 4953
1407 6188
1407 6507
1407 10192
1407 11852
1407 20646
1407 20843
1408 5545
1408 7722
1408 8821
1408 16483
1408 23604
1409 2054
1409 4047
1409 4704
1409 5405
1409 6403
1409 6500
1409 7859
1409 8637
1409 10367
1409 11338
1409 11599
1409 15580
1409 16731
1409 18808
1409 20867
1409 22699
1409 22783
1409 23659
1409 23949
1409 24385
1410 14558
1411 14946
1411 15009
1412 2216
1412 3887
1412 6588
1412 12814
1412 17340
1412 18331
1412 19487
1412 20923
1413 1676
1413 5063
1413 7198
1413 14561
1414 9977
1414 12643
1415 1555
1415 4337
1415 15086
1415 15087
1415 20763
1416 3273
1416 6045
1416 15805
1416 17234
1416 21398
1417 8082
1417 9175
1417 16725
1417 19424
1417 20448
1417 20989
1418 3632
1418 16583
1418 17090
1418 20114
1418 20271
1419 2523
1419 21508
1419 21721
1420 5019
1420 7587
1420 19040
1421 2619
1421 3158
1421 15802
1421 17604
1421 23067
1422 4809
1423 14525
1423 19160
1423 22829
1424 5568
1424 6589
1424 6592
1424 6593
1424 15295
1424 16200
1424 17316
1424 18823
1424 19870
1425 10604
1425 11861
1425 15991
1425 17687
1426 12693
1426 15127
1427 2336
1427 3488
1427 17305
1427 22856
1428 16517
1428 19318
1429 3381
1429 20379
1429 22799
1430 4156
1430 13291
1430 17528
1430 17585
1430 19565
1431 1455
1431 2540
1431 4791
1431 7064
1431 11370
1431 23423
1432 3107
1432 4149
1432 5117
1432 15974
1432 16933
1432 22473
1433 3787
1433 5213
1433 5746
1434 3239
1434 12303
1434 13294
1435 2346
1435 4256
1435 8905
1435 9717
1435 10500
1436 1609
1436 2811
1436 10034
1436 18372
1437 3225
1437 12027
1437 17519
1437 18916
1437 19931
1438 2551
1438 9764
1438 18336
1438 22513
1439 7681
1439 23937
1440 2891
1440 8232
1440 11509
1440 24412
1441 11163
1441 23307
1442 1528
1442 3141
1442 3270
1442 4934
1442 6308
1442 6594
1442 7946
1442 8026
1442 8800
1442 8958
1442 10896
1442 11032
1442 12234
1442 13331
1442 14585
1442 14859
1442 15703
1442 16556
1442 16955
1442 20607
1442 21614
1442 21621
1442 21878
1442 23185
1442 23393
1442 23456
1443 4623
1443 6719
1443 6856
1443 21764
1444 11432
1444 11458
1444 23847
1444 24081
1444 24186
1445 1733
1445 2420
1445 3659
1445 6509
1445 6940
1445 7563
1445 7696
1445 8074
1445 8389
1445 8577
1445 9323
1445 9428
1445 10853
1445 12408
1445 12432
1445 12717
1445 13679
1445 13810
1445 14226
1445 15226
1445 15417
1445 15520
1445 15570
1445 19048
1445 20759
1445 22446
1445 23751
1445 23764
1446 1640
1446 4603
1446 5439
1446 5989
1446 12723
1446 15239
1446 20459
1447 2886
1447 12023
1447 17711
1447 18242
1447 19073
1447 19835
1447 20148
1447 20815
1448 9606
1448 16632
1449 6596
1449 7711
1449 9493
1449 9769
1449 23005
1450 6990
1450 6991
1450 8046
1450 8047
1450 10402
1450 14535
1451 9134
1451 10358
1451 21339
1451 23470
1452 5031
1452 5561
1452 6487
1452 6595
1452 9716
1452 11035
1452 11036
1452 11517
1452 11519
1452 13152
1452 14588
1452 15285
1452 17827
1452 20763
1452 21914
1453 5088
1453 6455
1453 18214
1453 21527
1453 22708
1454 4437
1454 5737
1454 7176
1454 11195
1454 16623
1455 4668
1455 20976
1455 21101
1455 22236
1456 12300
1456 15298
1456 18040
1457 1548
1457 2325
1457 14877
1457 19061
1458 4448
1458 7474
1458 10801
1458 11591
1458 12238
1458 13799
1459 4753
1459 6847
1459 7733
1459 8272
1459 9532
1459 10283
1459 10422
1459 10487
1459 11567
1459 11724
1459 12407
1459 15137
1459 15527
1459 16701
1459 17167
1459 19342
1459 22369
1460 4619
1460 19374
1461 3041
1461 16624
1461 16768
1461 17447
1461 18632
1462 8114
1462 9760
1462 13982
1462 15039
1462 16054
1462 18031
1462 18516
1462 20510
1463 12204
1463 12812
1463 22257
1463 22458
1464 5956
1464 7796
1464 10222
1464 10948
1464 12113
1465 17126
1465 19468
1466 2754
1466 7832
1466 8117
1466 10429
1466 16511
1466 21076
1467 6438
1467 8989
1467 18178
1468 6980
1468 7052
1468 24138
1469 3786
1469 5820
1469 12620
1469 22361
1469 23490
1470 7977
1470 21556
1471 9534
1471 11965
1471 21498
1472 5328
1472 6388
1472 23100
1473 9411
1473 12683
1473 16371
1473 17193
1474 16268
1475 3493
1475 11540
1475 17541
1475 17626
1475 19772
1476 4630
1476 5833
1476 16017
1476 23523
1477 4705
1477 13160
1477 14253
1477 16285
1478 2004
1478 2373
1478 4449
1478 9784
1478 16469
1478 18269
1478 20619
1479 2836
1479 4756
1479 11254
1479 19176
1479 21171
1480 1548
1480 2325
1480 4402
1481 6710
1481 6712
1481 9859
1481 12990
1481 14551
1482 2400
1482 10348
1482 23652
1482 24316
1483 1534
1483 10551
1483 15204
1483 21587
1484 2589
1484 2797
1484 19569
1485 7651
1485 23987
1485 24443
1486 8301
1486 23778
1486 24371
1487 7361
1487 9610
1487 14144
1487 16978
1487 18176
1487 19118
1487 21798
1487 23374
1488 4799
1488 7065
1488 7575
1488 12579
1488 17871
1488 19347
1489 6785
1489 7411
1489 8847
1489 20269
1489 22811
1490 4701
1490 5160
1490 21929
1490 22716
1491 9206
1491 16768
1491 17447
1491 18632
1491 20125
1492 21556
1492 21570
1492 21781
1493 6025
1493 12806
1493 18622
1493 19580
1493 22834
1494 3948
1494 4561
1494 12819
1494 21834
1495 6227
1495 7707
1495 9879
1495 20622
1496 3177
1496 5015
1496 10420
1496 10502
1496 13750
1496 21186
1496 22972
1497 2237
1497 5282
1497 10714
1497 10715
1497 11081
1497 11796
1497 11797
1497 17404
1497 17926
1498 7447
1498 7516
1498 7780
1498 14255
1498 19613
1498 21892
1499 4954
1499 7278
1499 8226
1499 10126
1499 11919
1499 14077
1499 14883
1500 6709
1500 7359
1500 13259
1501 3097
1501 6777
1501 18714
1501 22212
1502 7662
1502 8047
1502 19263
1503 1781
1503 2803
1503 3145
1503 3481
1503 3769
1503 4436
1503 4479
1503 5197
1503 5712
1503 6129
1503 6170
1503 6935
1503 7906
1503 7998
1503 9377
1503 9387
1503 9594
1503 10711
1503 12108
1503 13656
1503 15544
1503 16149
1503 16194
1503 16540
1503 16804
1503 17096
1503 17376
1503 18238
1503 18631
1503 18661
1503 18765
1503 19265
1503 19564
1503 20718
1503 21675
1503 22308
1503 22530
1503 22801
1503 23216
1504 1507
1504 14473
1504 15940
1505 1506
1505 7876
1505 15940
1506 1507
1506 2139
1506 7228
1506 7655
1506 7658
1506 10031
1506 11902
1506 15183
1506 15940
1506 20634
1506 22380
1507 2139
1507 2204
1507 7228
1507 7655
1507 7658
1507 9126
1507 11902
1507 15940
1507 17010
1507 18202
1507 18203
1507 20116
1507 20198
1507 20633
1507 21901
1507 22379
1507 22380
1508 1757
1508 7507
1508 18293
1509 4328
1509 4935
1509 11568
1509 12263
1509 22313
1510 15538
1510 21894
1511 2629
1511 4150
1511 4408
1511 4691
1511 5952
1511 6106
1511 6292
1511 8279
1511 11359
1511 12375
1511 12874
1511 13496
1511 14670
1511 15190
1511 15399
1511 16813
1511 17500
1511 17614
1511 19277
1511 20457
1511 21660
1512 5188
1512 9707
1512 9855
1512 10534
1512 15880
1512 20388
1512 20600
1512 21506
1512 22362
1513 15448
1513 23258
1514 2770
1514 5526
1514 6915
1514 8835
1515 1979
1515 3758
1515 7582
1515 9274
1515 24187
1516 12695
1516 16438
1516 19013
1517 3303
1517 11051
1517 11363
1517 12355
1517 13271
1517 16124
1517 17123
1518 6719
1518 9104
1518 10571
1518 18738
1518 22904
1519 5835
1519 7170
1519 13592
1519 21879
1519 22237
1520 7559
1521 3322
1521 3374
1521 5563
1521 11972
1521 14031
1521 14034
1521 21079
1521 21943
1522 5025
1522 11600
1522 12547
1522 16248
1522 18540
1522 23880
1522 24306
1523 3488
1523 17305
1523 18782
1524 3030
1524 3922
1524 6756
1524 12954
1524 22817
1525 5328
1525 14513
1525 19923
1526 17389
1526 22261
1526 22953
1526 24159
1527 12227
1528 2545
1528 8026
1528 10604
1529 3316
1529 3441
1529 3653
1529 3932
1529 5851
1529 6895
1529 8035
1529 8424
1529 8807
1529 9040
1529 9452
1529 10069
1529 11312
1529 12571
1529 14091
1529 15777
1529 16032
1529 16132
1529 16301
1529 16865
1529 17612
1529 17830
1529 17994
1529 18199
1529 21569
1529 21915
1529 22140
1529 23442
1529 23651
1530 3702
1530 3920
1530 6132
1530 12115
1530 24313
1531 6186
1531 17716
1531 22567
1531 23029
1531 23464
1531 23687
1532 5403
1532 10703
1532 15031
1532 19537
1532 19554
1533 11772
1533 20988
1534 5021
1534 10411
1534 15696
1534 21587
1535 7197
1535 15280
1535 19074
1535 21921
1535 23351
1536 23796
1536 23823
1536 24303
1536 24339
1537 4194
1537 5301
1537 12560
1537 14329
1537 20178
1538 23713
1538 24016
1538 24217
1539 5456
1539 9491
1539 18400
1539 20928
1540 15033
1540 23028
1541 2279
1541 14133
1541 15257
1541 23434
1542 4789
1542 5505
1542 13766
1542 14135
1542 15435
1542 21505
1543 5734
1543 7743
1543 23820
1543 24487
1544 2212
1544 4104
1544 5271
1544 8710
1544 11103
1544 16128
1544 17269
1544 18542
1545 6573
1545 22568
1546 8257
1546 8560
1547 6115
1547 15127
1547 17252
1547 17264
1548 1675
1548 2381
1548 2386
1548 2824
1548 3071
1548 3158
1548 3172
1548 3430
1548 4023
1548 4402
1548 4618
1548 4735
1548 4893
1548 5170
1548 5309
1548 5725
1548 5878
1548 7686
1548 8509
1548 9248
1548 9397
1548 10686
1548 10915
1548 11982
1548 12373
1548 12805
1548 13494
1548 14364
1548 14977
1548 15699
1548 16509
1548 16954
1548 16964
1548 17503
1548 18981
1548 19099
1548 19105
1548 19361
1548 21280
1548 22594
1548 22901
1549 3493
1549 6191
1549 6229
1549 20578
1550 12726
1550 13201
1550 16634
1550 20518
1550 23452
1551 2153
1551 2556
1551 2625
1551 4414
1551 6574
1551 7116
1551 8461
1551 10284
1551 13972
1551 16519
1551 17301
1551 18435
1551 19913
1551 21036
1551 22077
1551 22300
1551 22599
1552 2754
1553 3595
1553 18354
1553 21700
1554 3399
1554 5947
1554 20402
1554 20815
1555 14090
1555 15086
1555 15087
1555 23268
1556 5553
1556 15648
1557 3397
1557 8413
1557 21009
1557 22913
1558 10230
1558 15466
1558 17084
1558 20378
1558 21130
1559 9014
1559 10030
1559 16229
1560 5903
1560 9229
1560 13221
1560 14194
1560 16125
1560 21777
1561 5820
1561 7130
1561 8101
1561 9937
1561 10794
1561 11095
1561 15101
1561 16730
1561 17411
1561 17618
1561 17627
1561 19101
1561 21393
1561 21640
1562 1687
1562 12476
1562 17235
1562 18017
1562 23345
1563 2717
1563 8056
1563 9115
1563 16143
1563 21106
1564 1684
1564 1835
1564 6498
1564 8328
1564 11177
1564 14057
1564 20675
1565 4790
1565 13696
1566 6300
1566 13284
1566 19109
1566 22352
1567 23900
1568 15033
1568 20925
1568 22868
1568 23028
1569 2708
1569 6012
1569 6014
1569 11531
1569 16276
1570 2911
1570 6707
1570 7325
1570 15981
1570 19629
1570 21191
1571 8614
1571 17165
1571 22179
1572 10056
1572 16003
1572 16546
1573 2232
1573 11249
1573 12488
1573 13567
1573 19236
1574 1954
1574 14688
1574 17286
1575 2745
1575 5783
1575 13121
1575 13208
1575 15755
1576 2248
1576 7781
1576 11204
1576 12403
1576 13768
1576 16174
1576 16497
1576 21554
1576 24490
1577 2813
1577 5294
1577 5614
1577 5827
1577 10950
1577 18115
1577 19872
1578 13731
1578 17347
1578 21356
1578 23475
1579 8482
1579 23622
1579 23932
1579 24143
1580 1802
1580 9379
1580 13765
1580 15340
1581 12897
1581 21181
1582 1925
1582 8894
1582 11764
1582 12474
1582 15498
1582 15819
1582 16532
1582 18275
1582 19278
1583 2126
1583 2799
1583 3841
1583 5115
1583 6031
1583 17899
1583 20057
1584 4978
1584 11036
1584 13152
1584 15285
1585 10499
1585 11817
1585 13203
1585 18567
1585 23574
1586 2315
1586 6115
1586 9058
1586 15127
1587 3548
1587 3921
1587 13052
1587 17457
1587 18750
1587 21073
1587 21202
1588 1700
1588 3940
1588 19695
1589 3265
1589 4851
1589 8574
1590 5188
1590 8455
1590 9707
1591 2214
1591 8036
1591 8225
1591 11478
1591 16066
1591 17094
1591 22778
1592 2732
1592 3850
1592 11217
1592 12357
1592 17680
1592 20016
1593 8137
1593 10650
1593 24361
1594 1670
1594 3149
1594 9143
1594 11633
1594 22386
1595 2222
1595 4483
1595 5593
1595 7764
1596 17794
1597 2074
1597 23094
1597 23704
1598 6415
1599 4402
1599 19923
1600 4816
1600 6534
1600 11210
1600 24479
1601 4619
1603 10177
1603 13317
1603 20414
1603 23095
1604 6158
1604 10785
1605 3872
1605 6993
1605 7573
1605 7772
1605 24083
1606 4987
1606 5468
1606 6921
1606 7913
1606 8019
1606 9817
1606 10521
1606 10736
1606 13060
1606 15287
1606 18172
1606 20371
1606 21345
1606 21681
1606 21820
1606 22494
1607 15033
1607 19084
1607 22868
1607 23028
1608 4405
1608 5465
1608 12934
1608 13277
1608 13619
1608 16335
1609 2113
1609 2252
1609 2811
1609 4085
1609 4182
1609 4399
1609 5229
1609 6148
1609 7251
1609 8082
1609 8287
1609 9175
1609 9689
1609 10034
1609 10538
1609 11113
1609 12364
1609 13901
1609 14159
1609 14182
1609 14610
1609 14855
1609 16551
1609 16725
1609 17575
1609 18372
1609 19424
1609 19881
1609 20989
1609 21988
1609 22166
1609 22428
1609 22531
1609 22722
1609 22869
1609 22995
1609 23085
1610 2273
1610 7498
1610 10829
1610 15100
1610 17546
1611 16813
1611 18050
1611 19972
1611 21257
1612 1764
1612 3104
1612 4319
1612 4544
1612 17295
1612 21641
1612 22215
1612 22325
1612 23970
1613 3456
1613 7736
1613 16009
1613 17948
1613 17997
1614 7179
1614 7197
1614 15280
1615 3890
1615 18720
1615 21832
1616 12102
1616 12620
1616 16506
1616 19198
1617 7237
1617 14446
1618 5834
1618 7841
1618 12276
1618 21874
1618 22597
1619 12901
1619 17518
1620 1715
1620 2178
1620 4144
1620 13431
1620 13507
1620 15550
1620 21274
1621 2211
1621 20008
1621 20650
1622 11558
1622 12520
1622 12936
1622 14619
1622 18116
1622 19126
1622 21954
1623 15950
1623 16979
1623 18873
1623 20620
1623 22034
1624 2685
1624 2792
1624 5905
1624 8825
1624 14408
1625 2213
1625 11091
1625 13127
1625 14876
1626 4868
1626 12919
1626 23078
1627 9414
1627 15424
1628 7859
1628 15580
1628 24274
1629 2698
1629 4076
1629 6941
1629 8525
1629 8526
1629 9422
1630 9546
1630 9658
1630 15475
1630 19400
1630 20034
1631 2603
1631 3187
1631 7845
1631 10288
1631 10533
1631 20743
1632 9780
1632 18333
1632 24087
1633 8692
1633 11375
1633 12008
1633 12153
1633 12224
1633 14805
1633 15562
1633 19422
1633 22622
1634 2777
1634 13824
1634 15051
1634 16456
1634 18312
1634 20325
1635 9323
1635 10853
1635 18644
1635 20660
1636 4344
1636 8042
1636 12095
1636 18846
1637 4570
1637 5582
1637 10903
1637 19489
1638 2061
1638 3833
1638 18683
1638 22740
1638 23520
1639 8800
1639 14585
1639 21593
1640 12723
1640 15239
1640 17864
1640 20459
1641 15560
1641 23706
1641 23909
1641 24070
1642 10756
1642 12390
1642 17881
1642 20646
1643 5962
1643 13175
1643 18768
1643 19094
1643 19154
1644 4391
1644 12095
1644 23783
1645 19570
1645 21142
1646 4358
1646 6466
1646 13758
1646 14179
1646 15947
1646 21297
1646 22463
1647 7043
1647 24116
1647 24246
1648 10530
1648 15999
1648 18923
1648 19868
1648 23197
1649 1914
1649 2039
1649 2939
1649 3134
1649 3885
1649 4031
1649 5387
1649 6711
1649 8610
1649 9972
1649 13374
1649 16021
1649 18867
1649 23557
1650 1695
1650 8019
1650 9964
1650 13417
1650 17676
1650 20463
1651 1730
1651 1776
1651 3785
1651 6218
1651 6364
1651 6454
1651 7785
1651 9098
1651 13030
1651 13481
1651 14935
1651 17178
1651 18473
1651 21525
1651 23494
1652 2617
1652 6324
1652 7556
1652 10781
1652 15953
1652 18940
1652 19026
1652 22680
1653 3946
1653 20273
1654 2195
1654 22784
1654 23531
1655 11308
1655 23782
1655 24048
1656 1773
1656 3753
1656 10641
1656 11410
1656 18022
1656 19380
1656 20847
1656 23515
1656 23851
1656 23934
1657 1854
1657 5407
1657 8008
1657 10475
1657 19708
1657 19744
1657 20390
1657 21156
1658 12535
1658 20903
1658 21951
1658 21952
1658 24178
1659 6052
1659 10650
1659 24429
1660 1838
1660 4845
1660 5935
1660 7185
1660 9932
1660 9962
1660 11244
1660 14916
1660 15384
1660 17065
1661 3185
1661 4760
1661 8684
1661 11078
1661 11739
1661 17159
1661 17176
1661 22609
1662 2287
1662 9606
1662 15665
1663 4969
1663 5995
1663 7680
1664 4948
1664 20763
1664 22431
1665 5134
1665 23679
1665 23725
1665 24258
1665 24261
1666 10612
1666 16597
1666 22424
1666 22883
1667 16140
1667 16152
1667 16153
1667 17444
1667 17445
1668 4785
1668 8626
1668 12289
1668 12290
1668 24084
1668 24176
1668 24360
1669 23446
1669 23713
1669 24050
1670 2413
1670 3149
1670 5081
1670 6165
1670 8587
1670 11633
1670 16892
1670 17869
1670 19952
1670 22386
1670 23501
1671 3136
1671 3392
1671 4942
1671 9453
1671 11049
1671 18826
1672 6821
1672 7740
1672 11181
1672 15556
1672 20342
1673 8060
1673 10331
1673 11558
1673 12520
1673 13411
1673 14202
1673 14619
1673 18116
1673 19126
1673 21954
1674 15033
1674 19084
1674 22868
1675 2325
1675 14877
1676 4992
1676 20617
1676 20770
1676 21128
1677 4762
1677 13495
1678 2963
1678 6620
1678 7718
1678 23731
1678 23881
1679 2020
1679 18536
1679 20903
1679 21728
1679 23199
1680 1821
1680 2300
1680 2972
1680 12158
1680 15235
1680 23378
1681 2818
1681 2819
1681 5642
1681 14237
1681 22771
1682 3294
1682 5560
1682 10150
1682 20960
1682 21691
1683 2820
1683 11004
1683 12071
1684 6498
1684 11474
1684 19744
1685 5772
1685 6060
1685 17120
1685 18859
1685 20536
1686 5169
1686 16500
1687 5762
1687 12476
1687 13103
1688 4138
1688 5245
1688 12336
1688 17000
1689 4838
1689 18128
1689 18263
1689 18748
1689 20586
1690 2440
1690 16210
1690 16820
1690 17033
1691 7845
1691 12574
1691 15766
1691 20478
1691 23261
1692 4080
1692 7380
1693 2305
1693 16462
1693 18527
1694 3731
1694 8714
1694 8896
1694 10759
1694 19442
1695 4080
1695 8574
1696 2804
1696 3888
1696 13015
1696 19678
1696 19679
1696 21045
1696 21683
1697 5842
1697 5853
1697 5918
1697 8003
1697 8352
1697 8703
1697 9128
1697 10789
1697 12374
1697 12603
1697 12923
1697 13542
1697 16082
1697 18121
1697 18460
1697 19713
1697 20182
1697 20194
1697 22393
1697 23703
1698 13176
1698 18421
1698 18938
1698 21307
1698 23212
1699 16660
1699 20107
1699 21658
1700 2836
1700 4756
1700 19695
1700 21657
1701 5166
1701 11134
1701 11324
1701 11325
1701 23856
1702 11935
1702 14141
1702 17911
1702 20503
1703 2488
1704 2840
1704 18058
1704 19973
1705 3821
1705 11391
1705 16003
1706 6874
1706 9010
1706 12099
1707 1789
1707 2267
1707 6508
1707 7561
1707 15106
1708 4619
1708 13440
1708 20115
1708 22346
1709 6067
1709 22138
1710 6521
1710 12863
1710 14191
1710 17567
1710 21358
1711 6793
1711 16973
1712 17214
1712 22056
1712 22709
1713 4613
1713 7657
1713 8118
1713 12773
1713 15341
1713 15510
1713 17628
1713 20476
1714 3250
1714 13024
1714 14049
1715 13507
1715 18967
1716 7972
1717 8019
1717 13227
1717 21199
1718 2637
1718 5054
1718 14272
1718 19071
1718 23273
1719 12326
1719 16221
1719 17097
1719 17180
1719 22863
1720 3403
1720 6193
1720 20209
1721 6998
1721 9596
1722 7074
1722 9127
1722 10261
1722 13171
1722 13759
1722 14620
1722 14710
1722 14711
1722 14713
1722 23684
1723 3492
1723 6263
1723 7633
1724 8909
1724 17196
1725 2460
1725 3287
1725 8145
1725 19298
1725 22051
1726 5708
1727 3394
1727 3758
1727 4273
1727 4663
1727 7749
1727 8498
1727 8857
1727 11073
1727 13670
1727 13732
1727 13944
1727 16961
1727 17329
1727 17698
1727 19726
1727 21516
1727 23404
1728 19988
1728 21009
1728 22040
1729 3584
1729 4696
1729 10190
1729 15057
1729 16910
1729 21122
1730 3785
1730 6302
1730 9098
1730 13030
1730 14935
1731 4492
1731 5414
1731 9513
1731 9812
1731 13303
1731 15096
1731 19536
1731 22807
1731 23006
1732 7130
1732 15539
1732 20164
1733 15417
1734 5563
1734 11631
1734 14676
1735 2271
1735 7956
1735 7959
1735 11466
1735 11877
1736 6548
1736 23378
1737 6580
1737 7118
1737 10666
1737 18976
1737 20408
1738 3542
1738 4542
1739 10208
1739 12412
1739 23009
1740 3548
1741 1742
1741 9362
1741 12854
1741 14906
1741 21343
1741 22128
1741 23008
1742 9362
1742 14900
1742 14906
1742 23007
1743 3626
1743 3925
1743 4095
1743 7395
1743 8294
1743 15048
1744 1745
1744 8032
1744 11506
1744 13887
1744 19242
1744 21277
1745 8032
1745 8033
1745 16895
1746 1747
1746 12609
1747 2464
1747 12988
1747 17398
1748 6346
1748 6350
1748 8584
1748 8585
1748 9535
1749 10306
1749 12556
1749 18565
1750 24174
1750 24188
1750 24417
1751 3773
1751 7152
1751 7942
1751 20669
1751 22086
1752 5809
1752 10049
1752 20489
1752 21564
1752 23542
1753 3993
1753 4849
1753 5095
1753 7514
1753 7621
1753 7773
1753 9308
1753 9772
1753 10185
1753 11192
1753 11193
1753 11948
1753 12881
1753 13723
1753 13795
1753 14019
1753 15787
1753 18046
1753 18090
1753 18637
1753 19354
1753 19538
1753 19653
1753 22395
1753 22754
1754 7450
1754 9360
1755 4619
1755 6722
1755 10328
1756 6026
1756 6411
1756 7471
1756 8588
1757 3838
1757 3879
1757 6426
1757 7507
1757 9176
1758 4117
1758 10021
1758 10211
1758 24073
1758 24302
1759 23938
1759 24016
1759 24050
1759 24217
1760 6395
1760 10922
1760 14172
1760 16909
1760 18087
1760 23146
1761 10602
1761 13016
1761 22226
1762 2306
1762 4395
1762 5501
1762 6537
1762 9257
1762 10710
1762 17637
1762 20046
1762 20677
1762 21254
1762 23754
1762 24295
1763 3887
1763 8502
1763 15184
1763 22092
1764 3104
1764 12202
1764 21641
1764 22325
1765 3401
1765 6239
1765 14482
1765 17163
1765 18166
1765 19986
1765 23492
1766 9519
1766 9723
1766 23756
1766 24076
1766 24169
1767 7339
1767 8566
1767 10004
1767 10619
1767 13249
1767 13755
1767 23487
1768 4547
1768 4550
1768 7952
1768 10473
1768 11884
1768 12686
1768 13260
1768 13571
1768 14288
1768 19119
1768 19120
1768 20554
1768 20866
1768 22637
1769 11090
1769 14486
1769 15318
1769 15516
1770 4194
1770 5228
1770 6125
1770 10133
1770 20321
1770 22182
1771 5501
1771 18455
1771 23038
1772 2427
1772 2606
1772 2630
1772 3428
1772 4274
1772 6097
1772 6247
1772 7063
1772 8292
1772 11088
1772 12198
1772 13927
1772 14297
1772 14458
1772 16135
1772 16293
1772 16700
1772 17066
1772 17174
1772 18023
1772 18231
1772 20300
1772 20935
1772 21823
1772 22436
1772 23208
1772 23453
1772 24077
1773 18022
1773 20847
1773 23515
1774 3488
1774 5526
1774 8835
1774 17305
1775 5927
1775 9761
1775 16802
1775 20298
1775 20665
1776 9098
1776 14935
1777 2920
1777 17533
1777 21212
1778 5527
1778 7256
1778 19744
1778 23331
1779 3406
1779 3500
1779 4520
1779 5616
1779 6583
1779 11166
1779 12573
1779 14504
1779 17596
1779 18406
1779 19039
1779 20754
1780 1834
1780 13205
1780 18257
1780 22970
1781 7391
1781 10664
1781 18631
1782 4758
1782 5657
1782 7632
1782 12700
1782 22941
1783 2213
1783 5164
1783 6117
1783 8102
1783 9218
1783 9593
1783 9675
1783 9742
1783 11820
1783 15330
1783 17978
1783 19284
1783 19828
1783 20311
1783 21005
1783 21330
1783 22780
1783 22951
1783 22962
1783 23473
1784 2170
1784 2380
1784 21865
1785 19318
1785 22025
1786 7769
1786 23056
1787 6624
1787 12664
1787 23722
1787 24382
1788 1951
1788 14011
1789 3416
1789 6508
1789 7561
1790 2299
1790 21115
1790 21938
1791 2693
1791 4184
1791 8337
1791 10396
1791 19687
1792 3646
1792 3942
1792 5010
1792 5687
1792 9881
1792 12523
1792 17183
1792 18025
1792 18886
1792 20673
1792 21942
1792 24453
1793 5358
1793 7932
1793 18480
1793 18501
1794 5522
1794 8319
1794 13410
1794 17029
1794 18857
1794 21251
1795 12361
1795 13964
1795 22440
1796 4459
1796 6778
1796 23274
1796 24407
1797 2889
1797 3365
1797 3941
1797 4884
1797 6339
1797 8484
1797 8643
1797 13273
1797 16792
1797 17039
1797 17874
1797 19405
1797 19897
1797 20466
1797 22057
1798 3952
1798 21039
1799 4342
1799 12484
1800 3368
1800 17284
1800 19279
1800 20756
1800 21023
1801 5596
1801 7654
1801 8724
1801 12146
1801 16053
1801 18656
1802 3378
1802 7659
1802 9379
1802 10260
1802 11229
1802 12332
1802 13765
1802 15340
1802 15540
1802 15781
1802 16919
1802 19621
1802 21795
1802 22307
1803 10558
1803 21402
1804 4057
1804 14881
1804 21208
1804 22720
1805 15310
1805 21389
1805 23282
1806 6917
1806 14472
1806 19121
1806 20480
1806 20709
1807 17305
1807 22856
1808 6861
1808 14012
1808 14261
1808 17483
1809 9038
1809 9866
1809 19797
1809 22796
1810 3112
1810 6054
1810 7340
1810 8325
1810 11054
1810 16920
1810 18655
1810 23151
1810 23668
1810 24230
1810 24432
1811 2790
1811 12287
1811 19389
1811 20214
1811 23886
1812 1920
1812 4164
1812 6716
1812 7090
1812 9009
1812 10020
1812 15580
1813 9157
1813 12549
1813 20045
1813 21423
1814 3192
1814 13258
1814 14065
1814 14220
1814 15329
1815 4216
1815 4850
1815 5062
1815 16934
1815 21117
1816 2766
1816 9043
1816 11953
1816 23940
1817 4701
1817 12897
1817 15818
1817 21181
1818 8196
1818 10935
1818 13660
1818 20862
1819 6922
1819 18189
1819 19350
1819 20404
1819 22551
1820 12079
1820 19381
1820 20063
1820 21437
1821 2300
1821 2972
1821 22707
1822 4667
1822 8631
1822 15930
1822 17028
1822 17747
1822 22887
1823 6137
1823 6523
1823 10737
1823 12193
1824 2758
1824 5105
1824 7262
1824 10169
1824 12640
1824 19953
1825 4364
1825 23346
1825 24355
1825 24447
1825 24450
1826 4608
1826 6230
1826 7975
1826 8539
1826 16283
1826 20435
1826 23317
1827 4208
1827 15975
1827 17946
1827 19757
1827 20996
1827 21089
1828 4384
1828 15988
1828 18379
1828 22943
1829 2475
1829 4195
1829 6176
1829 7525
1829 10631
1829 16531
1830 3008
1830 12560
1830 14889
1831 2805
1831 3464
1831 11742
1832 7511
1832 10264
1832 11583
1833 4802
1833 6755
1833 10083
1833 10647
1833 14247
1834 11800
1834 18257
1834 19642
1834 22488
1835 6498
1835 8328
1835 20675
1836 4112
1836 4293
1836 11297
1837 5438
1837 10344
1837 13973
1837 20112
1838 2116
1838 4845
1838 5933
1838 7185
1838 8918
1838 11311
1838 12226
1838 14916
1838 15764
1838 17207
1838 17417
1838 19839
1838 20106
1838 23544
1839 11373
1839 12148
1839 13232
1839 20303
1840 2019
1840 2226
1840 8141
1840 23568
1841 1892
1841 6048
1841 20122
1842 2506
1842 5556
1842 5734
1842 22014
1842 23900
1842 24067
1843 11357
1843 18286
1843 18998
1843 23100
1844 3967
1844 13199
1845 10245
1845 12348
1846 2123
1846 5063
1846 18962
1847 5363
1847 6978
1847 9183
1847 22846
1847 23917
1847 23939
1848 12575
1848 16546
1848 18036
1848 20340
1849 3487
1849 15957
1849 16360
1849 20729
1849 20964
1850 14931
1850 15716
1850 24299
1851 19570
1851 22472
1852 2566
1852 2584
1852 9458
1852 9917
1852 16921
1853 11485
1853 16996
1853 17236
1853 18048
1853 20301
1854 16798
1854 17735
1854 20390
1854 21156
1855 6297
1855 12490
1855 13956
1855 16512
1855 22164
1856 8017
1856 15350
1856 20704
1857 8186
1857 9102
1857 10349
1857 11290
1857 11429
1857 12552
1858 4109
1858 12737
1858 12892
1858 22297
1859 4494
1859 4701
1859 9061
1859 12897
1859 21929
1860 3119
1860 12733
1860 13299
1860 20840
1861 5442
1861 11416
1861 12537
1861 16390
1861 17422
1861 18416
1862 4050
1862 5974
1862 7623
1862 22288
1863 9500
1863 19158
1863 19631
1863 21241
1863 23020
1864 11772
1865 2948
1865 3042
1865 3190
1865 4290
1865 8708
1865 9536
1865 13204
1865 14269
1865 19457
1865 23621
1866 13434
1867 6265
1867 8959
1867 8995
1867 14204
1867 16260
1868 4075
1868 6070
1868 9241
1868 9279
1868 14613
1868 17226
1868 19029
1868 20992
1868 22024
1868 22178
1869 2814
1869 3411
1869 6617
1869 8500
1869 12442
1869 13388
1869 16008
1869 22679
1869 23828
1870 3196
1870 3245
1870 3289
1870 3704
1870 4038
1870 4701
1870 4725
1870 5149
1870 5296
1870 5847
1870 5873
1870 6097
1870 6151
1870 6247
1870 6754
1870 6784
1870 7063
1870 7345
1870 7710
1870 7868
1870 7942
1870 8292
1870 8387
1870 8697
1870 9223
1870 9611
1870 9926
1870 9996
1870 10116
1870 10412
1870 10497
1870 10708
1870 10969
1870 11088
1870 11817
1870 11847
1870 12046
1870 12897
1870 13295
1870 14152
1870 14155
1870 14458
1870 15449
1870 15608
1870 15705
1870 16005
1870 16303
1870 16337
1870 16467
1870 16770
1870 17174
1870 17247
1870 17885
1870 18231
1870 18567
1870 18919
1870 18960
1870 19003
1870 19357
1870 19875
1870 20383
1870 20559
1870 20682
1870 21025
1870 21119
1870 21181
1870 21392
1870 21440
1870 21546
1870 21823
1870 22303
1870 22351
1870 22698
1870 23084
1870 23208
1870 23574
1870 23836
1871 7508
1871 9557
1871 13689
1871 14659
1871 19328
1872 7191
1872 8342
1872 9252
1872 22222
1872 22267
1872 23650
1873 2608
1873 3668
1873 6795
1873 7099
1873 7802
1873 8015
1873 10159
1873 11221
1873 11624
1873 11688
1873 11867
1873 15022
1873 17051
1873 20812
1873 21633
1873 23053
1874 3295
1874 4485
1874 9002
1874 11267
1874 12470
1874 13150
1874 17402
1875 3208
1875 6041
1875 13004
1875 16930
1876 2932
1876 7845
1876 14118
1876 15981
1877 9594
1877 10711
1877 21596
1877 22474
1878 2683
1878 7641
1878 12615
1878 23870
1879 5469
1879 6441
1879 18465
1879 20608
1879 23402
1880 4564
1880 11906
1880 19201
1880 20002
1880 21108
1881 3865
1881 10654
1881 16216
1881 18639
1881 20330
1881 23717
1881 24256
1881 24318
1882 23871
1882 23910
1882 23977
1882 24398
1883 15710
1883 17075
1883 23578
1884 6404
1884 6405
1884 19190
1884 20227
1884 23678
1885 9518
1885 20978
1886 7004
1886 15158
1886 15824
1886 18419
1887 8170
1887 12976
1887 15201
1888 2094
1888 7160
1888 7166
1888 12841
1888 23362
1888 24293
1888 24396
1889 10678
1889 10823
1889 12892
1890 6268
1890 7340
1890 9771
1890 15847
1891 1892
1891 6048
1891 20122
1892 10399
1892 15961
1893 2750
1893 2837
1893 5143
1893 5518
1893 6933
1893 10392
1893 11808
1893 13587
1893 13883
1893 16639
1894 5391
1894 20957
1894 21786
1895 4135
1895 9982
1895 10729
1895 14743
1895 14909
1896 3613
1896 3614
1896 3615
1896 6345
1896 6706
1896 22705
1897 10485
1897 22904
1898 22261
1898 22953
1898 23648
1898 23790
1899 3409
1899 5254
1899 9281
1899 9969
1899 10428
1899 14029
1899 17471
1899 17535
1899 20676
1899 20878
1899 23411
1900 3694
1900 7461
1900 9762
1900 13295
1900 19600
1901 2593
1901 4236
1901 7690
1902 7054
1902 13158
1902 15564
1902 18082
1902 18913
1902 22335
1903 3638
1903 5820
1903 19774
1903 20774
1903 23154
1904 7915
1904 11310
1904 16722
1904 18267
1905 4188
1905 23987
1906 10593
1907 14658
1907 16703
1907 23173
1908 4990
1908 22562
1909 3091
1909 4263
1909 8037
1909 10742
1909 12802
1909 15192
1909 18140
1909 18318
1909 21471
1909 22949
1909 24250
1910 20134
1910 23308
1911 2551
1911 10245
1911 10571
1911 12038
1912 2766
1912 24422
1913 15715
1913 18035
1914 3134
1914 3885
1914 9972
1914 13374
1915 5061
1915 8090
1915 14870
1915 16246
1915 21024
1915 21859
1915 22056
1916 18771
1916 21282
1917 4381
1917 5198
1917 17360
1918 2993
1918 3370
1918 17911
1919 9798
1919 22485
1919 22702
1920 4164
1920 23064
1920 24335
1920 24454
1921 7668
1921 9607
1921 12047
1921 12976
1922 4842
1922 19353
1922 21344
1922 22798
1923 3623
1923 15933
1923 22769
1924 1951
1924 3188
1924 14011
1924 17697
1925 8803
1925 8894
1925 9775
1925 9928
1925 12474
1925 15498
1925 16868
1925 18275
1925 18526
1926 3186
1926 6458
1926 7187
1926 9489
1926 14831
1927 6834
1927 9096
1928 10108
1928 13118
1928 13815
1928 15349
1929 4126
1929 10567
1929 18732
1930 2060
1930 7763
1930 9325
1930 14259
1931 7349
1931 15487
1931 17351
1931 18778
1931 19993
1931 23166
1932 7426
1932 8856
1933 2049
1933 4728
1933 12184
1933 16358
1933 22097
1933 22914
1934 5421
1934 8563
1934 9442
1934 23881
1935 8647
1935 11002
1935 12674
1935 23213
1935 23266
1936 1937
1936 12270
1936 12637
1936 13559
1936 15989
1936 18799
1936 19480
1936 21354
1936 23247
1936 23418
1937 11498
1937 12270
1937 15741
1937 15989
1937 19480
1937 21354
1937 23418
1938 2018
1938 3848
1938 13396
1939 8486
1939 8575
1939 14738
1939 15488
1939 16181
1939 17824
1939 18005
1939 20751
1939 21765
1939 21986
1939 22217
1939 23077
1940 10541
1940 12212
1940 17278
1940 17514
1940 22976
1941 8673
1941 10102
1941 11930
1941 14104
1941 18804
1942 6258
1942 17538
1942 18133
1942 21370
1942 24066
1943 3502
1943 5014
1943 7839
1943 11197
1943 15230
1943 16697
1943 17043
1943 17987
1943 19534
1943 20009
1943 21121
1943 22580
1944 7087
1944 11063
1944 17931
1944 21063
1944 23781
1945 2344
1945 3951
1945 14283
1945 18539
1946 3466
1946 4541
1946 5598
1946 7338
1946 8128
1946 13544
1946 13949
1946 14377
1946 17970
1946 19960
1946 22281
1946 23284
1946 23526
1947 1948
1947 7088
1947 13220
1948 13220
1948 19531
1949 2517
1950 15108
1950 16671
1950 20796
1951 3188
1951 6727
1951 6972
1951 9708
1951 13264
1951 16230
1951 16491
1951 16826
1951 17697
1951 18518
1951 19440
1951 21404
1952 5121
1952 8103
1952 8221
1953 12871
1953 14437
1953 15473
1953 17018
1953 23022
1953 23304
1953 23429
1954 3405
1954 4517
1954 7782
1954 10148
1954 10940
1954 14567
1954 14688
1954 15679
1954 17286
1954 22557
1955 6613
1955 21970
1955 22361
1956 3318
1956 3778
1956 18072
1957 2864
1957 3898
1957 8458
1957 9560
1957 15490
1957 17887
1958 7224
1958 7367
1959 6493
1959 18631
1959 22365
1960 5553
1960 12120
1960 13210
1960 14940
1960 18680
1961 8547
1961 10281
1961 12225
1961 21948
1961 23162
1962 10921
1962 13317
1962 22268
1962 22942
1963 6333
1963 6378
1963 23870
1963 24161
1964 6650
1964 12716
1964 14110
1965 2338
1965 17449
1965 18975
1965 19091
1965 20364
1966 3397
1966 8413
1966 19907
1967 5428
1967 5702
1968 4253
1968 7761
1968 9975
1968 15240
1968 15650
1969 11769
1969 17818
1969 21714
1969 21722
1969 23843
1970 4380
1970 8041
1970 9485
1970 11475
1970 11681
1970 14361
1970 17047
1970 17157
1970 18024
1970 18027
1970 19333
1970 23428
1971 7143
1971 8062
1971 10180
1971 15305
1971 19015
1972 4340
1972 9953
1973 5025
1973 16248
1973 20174
1974 4998
1974 5882
1974 7132
1975 4485
1975 7446
1975 7875
1976 6871
1976 23839
1977 4619
1977 6722
1977 10142
1977 13440
1978 2518
1978 3959
1978 5578
1978 11157
1978 13479
1978 13509
1978 14318
1978 16224
1978 21401
1978 23126
1979 3758
1979 20377
1980 2530
1980 11440
1980 18372
1980 19869
1981 3697
1981 7051
1981 11836
1981 12392
1982 2766
1982 24422
1983 13767
1983 18697
1983 19671
1983 23647
1984 6067
1984 9543
1984 22138
1985 14462
1985 15789
1985 16894
1985 18047
1986 3552
1986 4043
1986 9870
1986 10890
1987 5393
1987 5893
1987 10897
1987 19041
1987 22055
1988 8606
1988 17054
1989 4333
1989 16286
1990 11549
1990 12678
1990 20628
1990 22945
1990 22962
1991 3517
1991 11025
1991 18251
1991 19169
1991 23139
1992 4592
1992 5383
1992 11626
1992 14571
1992 21667
1993 20856
1993 23338
1994 13549
1995 15445
1995 16407
1995 21834
1996 3934
1996 5855
1996 5870
1996 14040
1996 15903
1996 17112
1996 18004
1996 18534
1996 19146
1996 22154
1997 10761
1997 16412
1997 19252
1998 6301
1998 7227
1998 7654
1998 15806
1999 7667
1999 8615
1999 20411
1999 21407
2000 3045
2000 3046
2000 3047
2000 6600
2000 6919
2000 7863
2000 9993
2000 14587
2000 15797
2000 16255
2000 17008
2000 18256
2000 20060
2000 21123
2000 23621
2001 6458
2001 7187
2001 14831
2002 6293
2002 14643
2003 7646
2003 7873
2003 18001
2003 23072
2003 23214
2004 3776
2004 9784
2004 11186
2004 14186
2004 14816
2004 16469
2004 17999
2004 18269
2004 18302
2004 18407
2004 19207
2004 20619
2005 3340
2005 4734
2005 8458
2005 13879
2006 5063
2006 15350
2006 18962
2007 2926
2007 5150
2007 9004
2007 10465
2007 14122
2007 15684
2007 16858
2007 18491
2007 18499
2007 18617
2007 19301
2007 19429
2007 19790
2007 20639
2007 21013
2007 21446
2007 23500
2008 10685
2008 14372
2008 22097
2008 22914
2008 23161
2009 4623
2009 4969
2009 5297
2009 5995
2009 6357
2009 6516
2009 7680
2009 10458
2009 11169
2009 11445
2009 14360
2009 15383
2009 15771
2009 15802
2009 16235
2009 17006
2009 17035
2009 17116
2009 17168
2009 17657
2009 18266
2009 19088
2009 20151
2009 22977
2009 23483
2010 13221
2010 19923
2011 10021
2011 10211
2012 2593
2012 12864
2013 10489
2013 16318
2013 20302
2013 22069
2014 5865
2014 7202
2014 8388
2014 9878
2014 11659
2014 12745
2014 16831
2015 5376
2015 13272
2015 14451
2016 2965
2016 2978
2016 4528
2016 5814
2016 7750
2016 8250
2016 9186
2016 11945
2016 12468
2016 15576
2016 16824
2016 17569
2016 21484
2016 23306
2016 23326
2017 6840
2017 8790
2018 3848
2018 13270
2018 20000
2019 2226
2019 12370
2019 23568
2020 14349
2021 3478
2021 6642
2021 12878
2021 13749
2021 16263
2021 16264
2021 17014
2021 18580
2021 19646
2021 19759
2021 20197
2021 22427
2021 23096
2022 3631
2022 5040
2022 6524
2022 8042
2022 11589
2022 17023
2022 17765
2022 18846
2023 2751
2023 3034
2023 4739
2023 9084
2023 10051
2023 13880
2024 2865
2024 7397
2024 12438
2024 12439
2024 14138
2024 22763
2024 22880
2025 9776
2025 14127
2025 16921
2026 3637
2026 5718
2026 7048
2026 19997
2027 5344
2027 6398
2027 6399
2027 7310
2027 9517
2027 12441
2027 13053
2027 13439
2027 15815
2027 20975
2027 23694
2027 23757
2027 23888
2028 4886
2028 7149
2028 24067
2028 24361
2029 11935
2029 14141
2029 20503
2030 3364
2030 6086
2031 8800
2031 21593
2031 21614
2032 6373
2032 8505
2032 15567
2032 16575
2032 17038
2032 18648
2033 23714
2033 23918
2033 24251
2034 15868
2035 2529
2035 5760
2035 12424
2035 15724
2035 18337
2035 22879
2036 4293
2036 9626
2036 12551
2036 24134
2036 24452
2037 3720
2037 11255
2037 11535
2037 12255
2037 13403
2037 19583
2037 20833
2038 7515
2038 8223
2038 8531
2038 20591
2038 22777
2039 5387
2039 16021
2040 19318
2040 22025
2041 5034
2041 5811
2041 9741
2041 20082
2041 20794
2042 2565
2042 2623
2042 2647
2042 4007
2042 6359
2042 6547
2042 7676
2042 8052
2042 9579
2042 9938
2042 10324
2042 11908
2042 12453
2042 14942
2042 18956
2042 23978
2042 24212
2043 7389
2043 13827
2043 14737
2043 14784
2043 16995
2044 17305
2044 19923
2045 7042
2045 15182
2046 18012
2046 22568
2046 23144
2047 3285
2047 5425
2047 6070
2047 8522
2047 10747
2047 14206
2047 14531
2048 2148
2048 4395
2048 17639
2049 3074
2049 12816
2049 14660
2049 16358
2049 22097
2049 22914
2050 7433
2050 8580
2050 10266
2050 10338
2050 11344
2050 12353
2050 13525
2050 15420
2051 9959
2051 16819
2051 19834
2052 4541
2052 8106
2052 8919
2052 12308
2052 12521
2052 14377
2053 5067
2053 5708
2053 18438
2053 24283
2053 24403
2053 24485
2054 6490
2054 6492
2054 10407
2054 11471
2054 15321
2054 22299
2054 22699
2054 23721
2054 23820
2054 24284
2054 24362
2055 19040
2055 20554
2055 20866
2056 2465
2056 3980
2056 4765
2056 6695
2056 7283
2056 8862
2056 8987
2056 12634
2056 13106
2056 18476
2057 3550
2057 5018
2057 6023
2057 20207
2058 5799
2058 7016
2058 8802
2058 11550
2058 12245
2058 17725
2058 18990
2058 23885
2058 23921
2058 24204
2059 9323
2059 10853
2059 18644
2059 20660
2060 15350
2061 3230
2061 7788
2061 11802
2061 21592
2062 4348
2062 5769
2062 6944
2062 9394
2062 11142
2062 14254
2062 14751
2062 17995
2062 18689
2062 19224
2062 22340
2062 23394
2063 2969
2063 7721
2063 12017
2063 12018
2064 4224
2064 7986
2064 8335
2064 12767
2064 17531
2065 4603
2065 12683
2065 20459
2066 2650
2066 6721
2066 14416
2066 16357
2067 8953
2067 13466
2067 17091
2067 19274
2067 20284
2067 21375
2068 3183
2069 2581
2069 2847
2069 5447
2069 12269
2069 12512
2069 15654
2069 22587
2070 5892
2070 20836
2071 5063
2071 6407
2071 14833
2071 18962
2072 3637
2072 7048
2072 19997
2073 6043
2073 11582
2073 14898
2073 14899
2073 16684
2073 16685
2073 16688
2073 16696
2073 23134
2074 2383
2074 3926
2074 4598
2074 5860
2074 7156
2074 10720
2074 14989
2074 15967
2074 20146
2074 20766
2074 21048
2074 21589
2074 23670
2074 23697
2074 23895
2075 4656
2075 5045
2075 10687
2075 17866
2075 22692
2075 22854
2076 6588
2076 6646
2076 10674
2077 5953
2077 10167
2077 16368
2077 18586
2077 20363
2078 3678
2078 4131
2078 4916
2078 8330
2078 8789
2078 9973
2078 17522
2078 20213
2079 7898
2079 8778
2079 10812
2079 11895
2079 17816
2080 4285
2080 8100
2080 16486
2080 17243
2080 22239
2081 5209
2081 19477
2081 21224
2081 22209
2082 10983
2082 17368
2082 21191
2083 4459
2083 23529
2083 24326
2084 6691
2084 7111
2084 14164
2084 20334
2084 23384
2085 12532
2085 17416
2085 20802
2086 8621
2086 10492
2086 17600
2087 7370
2087 14807
2087 17427
2087 17450
2087 21384
2088 7936
2088 8595
2088 13257
2088 17714
2088 19337
2089 4448
2089 7474
2089 11591
2089 12238
2089 13799
2090 4215
2090 8070
2090 8135
2090 14847
2091 2095
2091 7167
2091 7168
2092 2094
2092 7164
2092 24293
2093 4033
2093 4750
2093 4882
2093 9739
2093 10242
2093 13184
2093 14098
2093 14235
2093 14390
2093 15694
2093 18968
2093 20890
2093 24003
2093 24395
2094 7164
2094 7167
2094 19276
2094 24262
2095 5813
2095 7165
2095 7168
2095 10460
2096 8169
2096 8561
2096 10388
2096 20167
2097 5328
2097 18286
2097 23100
2098 11439
2098 12687
2098 23970
2099 4015
2099 10303
2099 16853
2099 18334
2100 3130
2100 7915
2100 8380
2100 13415
2100 16722
2100 17358
2100 17515
2100 18267
2101 6998
2101 14261
2102 7579
2102 9233
2102 9345
2102 10096
2102 11479
2102 11933
2102 11989
2102 15303
2102 16503
2103 23778
2104 2286
2104 2935
2104 11752
2104 14420
2104 19685
2104 21111
2105 3825
2105 11821
2105 15446
2105 20922
2106 3938
2106 5085
2106 22633
2107 2209
2107 3538
2107 22419
2107 23709
2108 2719
2108 6864
2108 7974
2108 18668
2108 23723
2108 23786
2108 24346
2108 24369
2109 4446
2109 10521
2109 10736
2109 19302
2109 21681
2110 4243
2110 14565
2110 17044
2111 2845
2111 4026
2111 5530
2112 2896
2112 8030
2112 13885
2112 15587
2113 5229
2113 7251
2113 14855
2114 2949
2114 8604
2114 8817
2114 11703
2115 7076
2115 19319
2116 4845
2116 5933
2117 7878
2117 9674
2117 10121
2117 12311
2117 14038
2117 15601
2117 17434
2118 5380
2119 8387
2119 12897
2119 22885
2120 10976
2120 12307
2120 12999
2120 17332
2120 20154
2120 20758
2121 8592
2121 10645
2122 3279
2122 10250
2122 14496
2122 16805
2122 21209
2122 21635
2122 22315
2123 5063
2123 5340
2123 20770
2124 9474
2124 9861
2124 22465
2125 4069
2125 18761
2125 19917
2125 20938
2126 2799
2126 3639
2126 15928
2127 4610
2127 9134
2127 14780
2127 16896
2128 19158
2128 20175
2128 22412
2129 2130
2129 18596
2129 19885
2129 20614
2129 22194
2129 22438
2130 19883
2130 20614
2130 22194
2131 7464
2131 13335
2132 3241
2132 23066
2133 5328
2133 18286
2133 18998
2134 3044
2134 6348
2134 7428
2134 15605
2135 6166
2135 11189
2135 22991
2136 2423
2136 3288
2136 3510
2136 8776
2136 15666
2136 15731
2136 17922
2136 22358
2137 2256
2137 9505
2137 13183
2137 15172
2137 16410
2137 22023
2137 23591
2138 7656
2138 7876
2139 7876
2139 20634
2140 7808
2140 10285
2140 15659
2140 20413
2141 5869
2141 6544
2141 9035
2141 21693
2141 22612
2142 8037
2142 10742
2142 15192
2142 18318
2142 22419
2142 24074
2142 24271
2142 24441
2143 6736
2143 17932
2143 24343
2143 24360
2144 2198
2144 6779
2144 9011
2145 4303
2145 4502
2145 5130
2145 5480
2145 5622
2145 6224
2145 6471
2145 7296
2145 8045
2145 8248
2145 8917
2145 11249
2145 11987
2145 12488
2145 13395
2145 13598
2145 14017
2145 14393
2145 15211
2145 15983
2145 16281
2145 20008
2145 20200
2145 21359
2145 23558
2146 2517
2146 5523
2146 8543
2146 14324
2147 4625
2147 8712
2147 19576
2147 21556
2148 2306
2148 6854
2148 9347
2148 14884
2148 17639
2148 18692
2148 21231
2149 6942
2149 11335
2149 11427
2149 12024
2149 12833
2149 17059
2149 17656
2149 18367
2149 20782
2149 22566
2150 5059
2150 10893
2151 2769
2151 4795
2151 7146
2152 9285
2152 12027
2152 19931
2152 20098
2153 2977
2153 9569
2154 2756
2154 3711
2154 5258
2154 12251
2154 16320
2154 22111
2154 23209
2154 23305
2154 23632
2154 24408
2155 12742
2155 16328
2155 16394
2156 8394
2156 10418
2156 23912
2157 8394
2157 10418
2157 23912
2157 24154
2158 8359
2158 13211
2158 13547
2158 15774
2158 18074
2158 18842
2158 19153
2158 21637
2159 8085
2159 15053
2159 19834
2160 4638
2160 8923
2160 17107
2160 21255
2161 2306
2161 4496
2161 8685
2161 16622
2161 19140
2161 20046
2161 22231
2162 5226
2162 13171
2162 14986
2162 17544
2163 7291
2163 10310
2164 2680
2164 2737
2164 12896
2164 14267
2165 5554
2165 5969
2165 9369
2165 11841
2165 11850
2165 19991
2166 5404
2166 6903
2166 9781
2166 11125
2166 11366
2167 5501
2168 15240
2169 12121
2169 15738
2169 21077
2171 3745
2171 5656
2171 17937
2171 22597
2172 3053
2172 5191
2172 5317
2172 8886
2172 9298
2172 10910
2172 21273
2173 23948
2173 24009
2173 24158
2174 8775
2174 11888
2175 7081
2175 13384
2175 15931
2175 19830
2175 22864
2175 22876
2176 3272
2176 6834
2176 7972
2177 7237
2177 10075
2177 10196
2177 13023
2177 17992
2178 13507
2178 18967
2179 6820
2179 14867
2179 15368
2180 10630
2180 14866
2180 14871
2180 19449
2181 2308
2181 3031
2181 6494
2181 11451
2181 12787
2181 21500
2182 12748
2182 16188
2182 17265
2182 23367
2182 23694
2182 24006
2182 24132
2182 24275
2182 24430
2183 5772
2183 10273
2183 17120
2183 17136
2183 18859
2184 3948
2184 7844
2184 22329
2185 3752
2185 5086
2185 6964
2185 19543
2185 21604
2186 6101
2186 7430
2186 9481
2186 12136
2186 18044
2187 6300
2187 13284
2188 5809
2188 7435
2188 7443
2188 7548
2188 8463
2188 8590
2188 9366
2188 10899
2188 12736
2188 20126
2188 21322
2189 2993
2189 3370
2189 13296
2189 17124
2190 7829
2190 9645
2190 9774
2190 12839
2190 13390
2190 15063
2190 16150
2190 17089
2190 18887
2190 19394
2190 20553
2190 20908
2190 21828
2190 22541
2191 3239
2191 12303
2191 12735
2192 3336
2192 23028
2193 12570
2193 15874
2193 16234
2193 16738
2193 17683
2194 2604
2194 3343
2194 6833
2194 9970
2194 13898
2194 14409
2194 15444
2194 16613
2194 19519
2195 3750
2195 19134
2195 22784
2196 4130
2196 4575
2196 9310
2196 9388
2196 18498
2197 6073
2198 8656
2198 16615
2198 20845
2199 5012
2199 12502
2199 13302
2199 18415
2199 20266
2200 2549
2200 6778
2200 7530
2200 12803
2200 23529
2201 14787
2201 20338
2202 4265
2202 5225
2202 11655
2202 18219
2202 22543
2203 11467
2203 18543
2204 7876
2204 11902
2204 20634
2204 23412
2205 3282
2205 6653
2205 10671
2205 11758
2206 11700
2206 23893
2206 23894
2206 24160
2207 4289
2207 9221
2207 18445
2207 23854
2207 24345
2208 3636
2208 8593
2208 10435
2208 16444
2208 16445
2209 3538
2209 4211
2209 5389
2209 7375
2209 11063
2209 12624
2209 15219
2209 16376
2209 19701
2209 20931
2209 22419
2209 22498
2209 23127
2209 23746
2209 23747
2210 5553
2211 4331
2211 5251
2211 5794
2211 17989
2212 3967
2212 4104
2212 5958
2212 8321
2212 8710
2212 9195
2212 9722
2212 10056
2212 11660
2212 13199
2212 15233
2212 17573
2212 19661
2212 21870
2212 23186
2213 7194
2213 8102
2213 8148
2213 9218
2213 13694
2213 15865
2213 16464
2213 16845
2213 20986
2213 21005
2213 21157
2213 21928
2213 22758
2213 22962
2214 3943
2214 8036
2214 10217
2215 3613
2215 3616
2215 3617
2215 21238
2216 6370
2216 17340
2216 22092
2217 16809
2217 21682
2218 8262
2218 9696
2218 13928
2218 20460
2218 21703
2219 11134
2219 23854
2219 24424
2220 4166
2220 9888
2220 15496
2220 22664
2221 5086
2221 19543
2221 20242
2221 21604
2222 4161
2222 4483
2222 5593
2222 7357
2222 7664
2222 7764
2222 8144
2222 19352
2222 19638
2222 20454
2222 21266
2223 4958
2223 10921
2223 20414
2223 22268
2223 22942
2224 3313
2224 5143
2225 3388
2225 3416
2225 4524
2225 14029
2225 18317
2226 2299
2226 8141
2227 3240
2228 5777
2228 13099
2228 13941
2228 16501
2229 7555
2229 8151
2229 13872
2229 16165
2229 21684
2230 5813
2230 23362
2231 3582
2231 3902
2231 7427
2231 12396
2231 14380
2231 15393
2231 20436
2232 12488
2232 13567
2232 19236
2233 12744
2233 13454
2233 17919
2233 18174
2233 20761
2234 7787
2234 15802
2234 20541
2235 3007
2235 7000
2236 4322
2236 4680
2236 8515
2236 17428
2236 19171
2237 4973
2237 6605
2237 8208
2237 11796
2237 11797
2237 15597
2237 17404
2237 17926
2237 20217
2237 20218
2237 20708
2238 5527
2238 10359
2238 19744
2239 8687
2239 10639
2239 17294
2239 19260
2240 5059
2240 5328
2240 10893
2240 22287
2241 15033
2241 20925
2241 22868
2241 23028
2242 11213
2242 11699
2242 16328
2242 17616
2243 7154
2243 16110
2243 16839
2243 22225
2243 22802
2244 5048
2244 8538
2244 17334
2244 19239
2244 20210
2244 21069
2244 21368
2245 10320
2245 16631
2245 23488
2246 7203
2246 8519
2246 9375
2246 15657
2246 17504
2246 18627
2246 22461
2246 22790
2247 24188
2247 24417
2248 11204
2248 16497
2248 21554
2248 24490
2249 8301
2249 8409
2249 24370
2249 24384
2250 6362
2250 14692
2251 5916
2251 7535
2251 18006
2251 19811
2252 10034
2253 4243
2253 6473
2254 3218
2254 5231
2254 5488
2254 5675
2254 5804
2254 10463
2254 10739
2254 13719
2254 13748
2254 13967
2254 14602
2254 16530
2254 17633
2254 18073
2254 18324
2254 18675
2254 20277
2254 20648
2254 21172
2254 21974
2254 23132
2254 23219
2254 23297
2255 5774
2255 12309
2255 13387
2255 20642
2255 20950
2256 9055
2256 14066
2256 16173
2257 3336
2257 22053
2257 23028
2258 11618
2258 13055
2259 2291
2259 5387
2259 14548
2259 16098
2259 19755
2260 2285
2260 2884
2260 4022
2260 6390
2260 10967
2260 11384
2260 13287
2260 14436
2260 15993
2260 16166
2260 16496
2260 17684
2260 17991
2260 19935
2260 20488
2260 20533
2260 22910
2261 2344
2261 5029
2261 9374
2261 11846
2261 13533
2261 15505
2261 22210
2262 6636
2262 10793
2262 23783
2262 23926
2262 24151
2263 10501
2263 12338
2263 15317
2263 23932
2263 24091
2263 24162
2264 2511
2264 2628
2264 4493
2264 8804
2264 10243
2264 13219
2264 24009
2265 3810
2265 12692
2265 18702
2265 20006
2265 20680
2266 6484
2266 7758
2266 9819
2266 17025
2266 21611
2266 22716
2267 6508
2267 10378
2267 15106
2267 19063
2268 6986
2268 7963
2268 14796
2268 18776
2268 21203
2268 23514
2269 4539
2269 11555
2269 16653
2269 19888
2269 23207
2270 8423
2270 8428
2270 8429
2270 8430
2270 12163
2271 7956
2271 7959
2271 11465
2272 24213
2272 24347
2273 2691
2273 10829
2273 17681
2274 3362
2274 7625
2274 20692
2274 21537
2275 2441
2275 11757
2275 11838
2275 12828
2276 22180
2277 6848
2277 10557
2277 14512
2277 18736
2278 2882
2278 4896
2278 9094
2278 21576
2279 3050
2279 3508
2279 5305
2279 7534
2279 12371
2279 14945
2279 21625
2279 23434
2280 2509
2280 3946
2280 5327
2280 5968
2280 6131
2280 7489
2280 9539
2280 12420
2280 12873
2280 14148
2280 17707
2280 19132
2280 20253
2280 23255
2281 6878
2281 7280
2281 18810
2282 11580
2282 15670
2283 6571
2283 13910
2283 19079
2283 19305
2284 2342
2284 3116
2284 9426
2284 9464
2284 16162
2285 4022
2285 13502
2285 20306
2285 20533
2286 10882
2286 11752
2286 19685
2286 23443
2287 14518
2287 15751
2287 22504
2287 22770
2288 2767
2288 2785
2288 9149
2288 14520
2288 16656
2288 23365
2289 4893
2289 10245
2289 22841
2290 6719
2290 15315
2290 19227
2291 5004
2291 5387
2291 14400
2291 14548
2291 19755
2292 2571
2292 3716
2292 15610
2292 17606
2292 18648
2292 19611
2292 20653
2292 22677
2293 17681
2293 19736
2294 8615
2294 19997
2294 20463
2295 5774
2295 23541
2296 2642
2296 6318
2296 24189
2297 9010
2297 12099
2298 10872
2298 24458
2299 8141
2299 11402
2299 21940
2300 2972
2300 22707
2301 2526
2301 8235
2301 10709
2301 17418
2301 18686
2301 23136
2302 10639
2302 10712
2302 13155
2303 2519
2303 5177
2303 7632
2303 16788
2304 3336
2304 8545
2304 8889
2304 9036
2304 9601
2304 9651
2304 9966
2304 11666
2304 12620
2304 13675
2304 14363
2304 17478
2304 17797
2304 21972
2305 16462
2305 17767
2305 21700
2305 23366
2306 4395
2306 4635
2306 5631
2306 6050
2306 6355
2306 6776
2306 9277
2306 10256
2306 10638
2306 11052
2306 15429
2306 17637
2306 17883
2306 20046
2306 21228
2306 22068
2306 23050
2306 23370
2306 24295
2307 3052
2307 3450
2307 4568
2307 5253
2307 6320
2307 6425
2307 6768
2307 8217
2307 8357
2307 8548
2307 9862
2307 12154
2307 12306
2307 13475
2307 15749
2307 17778
2307 18253
2307 19131
2307 20044
2307 21092
2307 22286
2308 6494
2308 11451
2308 21500
2309 2784
2309 8691
2309 11256
2309 18066
2310 2684
2310 3983
2310 13546
2310 16494
2310 19024
2310 21030
2311 3182
2311 11047
2311 17839
2312 2987
2312 4556
2312 8020
2312 18604
2313 6679
2313 9700
2313 11996
2313 14282
2313 17141
2314 7355
2314 15156
2314 16363
2314 20894
2315 2960
2315 4197
2315 5114
2315 5208
2315 6003
2315 7726
2315 8936
2315 11105
2315 13131
2315 15337
2315 17252
2315 17264
2316 3809
2316 21556
2316 21614
2316 23489
2317 2462
2317 4281
2317 4315
2317 4624
2317 7810
2317 10160
2317 10322
2317 10472
2317 10826
2317 11450
2317 11467
2317 13606
2317 14150
2317 16673
2317 18168
2317 18814
2317 21306
2318 11357
2318 12356
2318 18998
2319 9323
2319 10746
2319 18644
2319 20660
2319 20746
2320 5492
2320 9501
2320 13013
2320 13179
2320 17131
2320 17363
2321 3138
2321 3460
2321 20912
2322 8894
2322 12474
2322 18275
2323 3026
2323 14021
2323 23862
2324 11311
2324 16247
2324 17207
2325 3071
2325 4402
2325 4618
2325 5278
2325 5725
2325 5878
2325 8364
2325 8509
2325 9397
2325 10210
2325 10439
2325 10686
2325 10915
2325 11767
2325 12373
2325 12805
2325 14877
2325 16081
2325 17125
2325 17275
2325 18981
2325 19105
2325 19371
2325 20464
2325 21280
2325 21602
2325 23768
2326 5221
2326 12302
2326 15728
2326 17346
2326 19195
2326 20121
2326 21290
2326 21490
2327 2642
2327 6318
2327 23671
2327 23765
2328 2962
2328 5142
2328 12247
2328 24213
2329 2962
2329 5142
2329 12247
2329 24167
2329 24213
2330 4402
2331 12532
2331 17416
2331 20349
2332 3474
2332 6242
2332 7404
2332 8133
2332 10745
2332 13602
2332 19436
2332 20502
2334 5328
2334 18286
2334 18998
2335 4479
2335 8144
2335 19564
2335 22365
2336 3488
2336 3772
2336 5168
2336 5526
2336 5637
2336 5862
2336 6202
2336 6250
2336 6625
2336 7150
2336 8675
2336 8752
2336 8933
2336 10688
2336 11050
2336 11171
2336 11480
2336 11801
2336 11910
2336 12548
2336 13527
2336 13654
2336 14885
2336 16515
2336 17088
2336 17305
2336 17645
2336 17950
2336 18112
2336 18576
2336 18782
2336 18872
2336 19734
2336 19900
2336 21539
2336 22065
2336 22646
2336 22862
2336 23283
2337 2543
2337 5757
2337 14347
2338 5775
2338 15171
2338 18975
2338 19091
2339 8198
2339 9296
2339 9691
2339 11214
2339 13361
2339 14391
2339 20730
2340 16554
2341 3258
2341 3607
2341 4261
2341 5874
2341 6419
2341 7743
2341 10360
2341 13149
2341 14756
2341 16386
2341 23659
2341 23820
2341 24254
2341 24284
2341 24401
2342 6475
2342 9464
2342 9502
2342 10772
2342 13642
2342 15003
2342 17779
2342 19485
2342 20318
2342 21542
2343 8868
2343 9423
2343 16323
2343 19705
2343 20171
2344 3321
2344 4199
2344 5751
2344 9374
2344 11846
2344 12401
2344 13533
2344 15505
2344 18539
2344 18797
2344 20874
2344 22210
2345 5328
2345 14513
2346 4256
2346 8905
2346 11149
2346 14735
2346 15254
2346 23623
2347 6417
2347 16279
2347 19254
2348 8499
2349 3986
2349 6950
2349 7478
2349 13760
2349 19393
2349 20249
2349 21269
2350 14511
2350 16242
2350 20718
2350 20850
2351 3212
2351 3524
2351 4571
2351 4796
2351 4812
2351 4848
2351 4877
2351 6836
2351 6971
2351 7317
2351 7695
2351 8190
2351 8205
2351 8855
2351 9820
2351 10018
2351 10068
2351 12715
2351 13061
2351 15744
2351 16432
2351 16968
2351 18535
2351 19096
2351 19680
2351 19765
2351 20706
2351 21721
2351 21810
2351 22894
2352 6759
2352 7275
2352 14136
2352 16398
2352 20238
2352 21617
2353 21939
2353 21940
2354 8528
2354 16584
2354 21234
2354 23138
2355 8668
2355 17917
2356 4701
2356 16591
2356 22756
2357 7000
2357 16661
2357 17871
2357 19036
2358 2709
2358 4592
2358 4678
2358 5383
2358 6262
2358 11507
2358 14231
2358 20856
2358 22875
2358 23338
2359 3702
2359 10679
2359 22986
2359 23665
2359 24414
2360 6912
2360 7890
2360 16963
2360 23078
2361 8753
2361 15445
2361 16407
2362 7545
2362 7895
2362 23120
2362 24177
2363 2999
2363 9953
2363 24246
2364 5345
2364 9215
2364 23715
2364 24117
2365 5178
2365 24078
2365 24393
2366 5627
2366 8181
2366 9455
2366 13839
2367 6428
2367 9543
2367 22138
2368 4147
2368 4863
2368 9401
2368 9936
2368 13913
2368 14264
2368 20800
2369 9536
2369 23979
2369 24272
2369 24427
2370 7815
2370 9694
2370 18918
2370 23051
2371 2876
2371 10880
2371 15660
2371 22153
2372 7895
2372 24013
2372 24177
2373 7097
2373 9826
2373 12546
2374 11514
2374 12450
2374 13314
2374 20224
2375 4975
2375 7827
2375 11955
2375 15238
2375 20934
2376 9038
2376 9866
2376 15944
2376 19797
2376 22796
2377 4168
2377 5859
2377 16250
2377 18995
2377 24044
2378 10059
2378 13052
2378 18750
2378 21073
2379 4275
2379 19403
2379 19961
2380 10315
2381 2610
2381 3430
2381 8235
2381 12101
2381 15288
2381 16509
2381 16954
2381 17418
2381 20603
2382 4550
2382 7359
2382 19119
2382 19120
2382 20866
2383 20766
2383 23697
2384 8996
2384 8997
2384 15862
2384 16889
2384 23047
2384 23048
2385 2397
2385 3919
2385 7135
2385 12007
2385 14382
2385 18614
2385 23778
2385 23946
2386 6719
2386 23067
2387 6868
2387 9666
2387 9667
2387 9668
2387 13882
2387 14724
2387 15565
2387 16601
2387 20495
2388 8215
2389 4817
2389 5344
2389 23321
2389 24144
2390 4712
2390 6276
2390 9010
2390 10712
2390 13155
2390 14383
2390 15727
2391 5344
2391 23321
2391 23804
2392 4817
2392 5344
2392 23069
2392 23804
2392 24144
2393 6236
2393 9418
2393 10499
2393 10543
2393 10905
2393 22726
2393 22727
2393 23971
2394 4101
2394 15300
2394 22475
2395 5096
2395 6211
2395 12590
2395 13861
2395 23813
2395 23833
2396 2744
2396 6033
2396 7450
2396 9360
2396 12272
2396 17047
2398 9310
2398 11456
2398 19181
2399 16405
2400 3491
2400 4133
2400 5216
2400 5422
2400 6164
2400 6618
2400 10137
2400 10348
2400 10361
2400 16670
2400 17543
2400 18451
2400 18971
2400 20740
2400 23293
2400 23652
2400 24266
2400 24297
2400 24317
2400 24324
2400 24461
2401 4552
2401 13444
2401 24099
2401 24152
2401 24161
2401 24368
2402 2553
2402 5057
2402 8414
2402 23862
2402 23953
2403 7374
2403 8314
2403 9272
2403 12162
2403 21818
2403 22682
2403 23875
2403 23914
2403 23984
2404 3166
2404 6139
2404 7506
2404 11205
2404 23075
2404 23952
2404 24082
2404 24478
2405 11641
2405 24225
2405 24411
2406 6199
2406 10864
2406 15405
2406 23981
2406 24480
2406 24488
2407 3989
2407 4133
2407 13355
2407 18330
2407 24198
2408 10668
2408 12258
2408 20147
2408 23877
2408 24014
2409 3056
2409 3917
2409 4586
2409 6295
2409 6486
2409 7565
2409 7610
2409 12057
2409 12807
2409 13746
2409 13914
2409 14423
2409 14658
2409 14927
2409 15817
2409 16703
2409 16935
2409 16952
2409 18028
2409 21458
2409 21775
2409 22747
2409 23173
2410 6812
2410 7447
2410 7516
2410 13900
2411 4854
2411 6666
2411 10040
2411 17055
2411 21289
2411 21720
2412 7732
2412 9203
2412 11231
2412 17052
2412 18858
2413 3149
2413 6165
2413 8587
2413 9143
2413 16892
2413 17869
2413 19952
2413 23501
2414 4701
2414 5160
2414 7446
2414 21929
2415 6174
2415 10607
2415 13807
2415 16056
2415 18671
2416 8857
2416 9300
2417 9776
2417 10677
2417 14481
2417 14816
2417 16469
2417 16658
2417 18407
2418 4449
2418 5587
2418 9055
2419 4893
2419 10245
2419 10571
2419 22841
2420 10853
2420 15417
2421 2568
2421 4098
2421 7485
2421 10891
2421 11967
2421 12256
2421 12387
2421 13918
2421 14234
2421 16568
2421 18018
2421 20883
2422 4995
2422 5174
2422 6780
2422 20219
2423 3510
2423 15731
2423 17922
2423 22358
2424 23956
2424 23972
2424 23986
2425 2519
2425 5177
2425 8299
2425 17609
2425 21893
2426 4840
2426 10950
2426 13231
2426 18028
2426 23173
2427 2630
2427 4274
2427 6402
2427 7519
2427 8142
2427 8387
2427 11396
2427 14297
2427 18667
2427 20055
2427 22436
2427 23453
2428 3880
2428 5580
2428 5685
2428 5973
2428 7009
2428 8200
2428 9099
2428 10750
2428 11773
2428 13042
2428 14198
2428 16852
2428 17547
2428 20190
2428 20293
2428 21061
2428 21474
2428 22081
2428 22675
2428 23327
2428 23524
2429 5437
2429 7567
2429 11661
2430 2845
2430 4026
2431 5015
2431 10420
2431 21186
2432 5315
2432 7800
2432 10596
2432 10945
2432 13854
2432 14440
2432 14478
2432 15080
2432 15831
2432 16011
2432 16270
2432 16401
2432 17557
2433 2497
2433 14913
2433 19506
2433 23258
2434 5577
2434 9238
2434 18252
2434 19349
2435 6178
2435 7241
2435 10462
2435 10520
2435 14994
2435 15810
2435 19021
2435 23690
2436 14734
2436 22939
2437 2646
2437 4800
2437 7752
2437 8459
2437 19592
2438 10864
2438 24476
2438 24488
2439 4233
2439 5680
2439 13391
2439 13881
2439 13977
2439 19396
2440 2657
2440 2863
2440 13067
2440 14005
2440 14157
2440 17033
2440 21242
2441 11577
2441 11757
2441 11838
2441 12828
2441 21519
2442 3215
2442 4194
2442 6644
2442 10133
2442 14035
2442 15788
2442 20178
2443 5652
2443 7618
2443 14733
2443 18299
2444 7883
2444 11207
2444 11482
2444 12323
2444 18183
2444 22503
2445 19251
2445 20469
2445 21378
2446 3329
2446 3527
2446 3596
2446 3768
2446 4420
2446 5077
2446 5310
2446 14502
2446 15180
2446 15652
2446 16326
2446 18624
2446 18786
2447 6334
2447 8365
2447 8801
2447 10790
2447 17700
2447 17728
2447 20835
2447 21875
2447 22029
2448 11188
2448 13762
2448 15525
2448 15526
2448 23486
2449 5090
2449 8560
2449 10526
2449 14316
2450 11188
2450 15525
2450 23486
2451 2551
2451 8055
2451 15673
2452 7298
2452 9372
2452 9565
2452 15220
2452 18139
2453 8826
2453 9545
2453 14628
2453 21466
2453 23499
2454 4244
2454 12750
2454 16487
2454 17532
2454 18500
2454 21072
2455 5545
2455 6708
2455 13757
2456 3597
2456 6321
2456 13603
2456 17267
2456 19761
2457 4879
2457 16650
2458 2607
2458 9585
2458 13756
2458 14230
2458 14585
2458 20858
2458 21501
2459 4253
2459 15650
2460 3852
2460 3937
2460 7124
2460 7517
2460 8145
2460 9712
2460 11483
2460 14961
2460 19298
2460 22051
2461 8528
2461 21034
2461 22311
2461 23138
2462 7810
2462 17347
2462 18168
2463 3198
2463 14484
2464 4252
2465 4925
2465 8717
2465 16665
2466 14512
2466 18736
2467 3041
2467 8266
2468 5553
2468 12120
2468 18680
2469 4911
2469 8083
2469 9486
2470 5551
2470 10524
2470 15073
2470 21010
2470 24232
2471 5452
2471 7993
2471 14559
2471 22454
2472 3235
2472 3551
2472 4400
2472 4841
2472 10622
2472 10623
2472 15243
2472 16177
2473 13110
2473 16956
2473 17393
2473 21560
2473 21562
2473 21563
2474 8853
2474 10490
2474 20490
2475 4195
2475 7831
2475 10631
2475 16531
2476 11074
2476 11519
2476 14588
2476 15285
2476 20763
2477 3610
2477 8621
2477 11389
2477 12981
2477 19199
2478 2764
2478 3953
2478 13954
2478 17405
2478 20999
2479 4397
2479 7558
2479 11951
2479 19517
2479 22283
2480 5289
2480 12119
2480 18387
2480 20165
2480 22559
2481 3529
2481 5903
2481 6947
2481 13221
2481 23405
2482 2682
2482 4707
2482 7640
2482 24166
2483 7652
2483 8006
2483 13661
2483 19655
2483 21275
2484 19973
2485 8554
2485 11911
2485 15151
2486 5274
2486 9591
2486 10861
2486 13908
2486 17228
2487 8410
2487 14653
2488 4178
2488 6758
2488 8947
2488 12751
2488 13207
2488 13487
2488 15949
2488 15994
2488 17954
2488 23518
2489 2493
2489 9275
2489 19990
2490 2493
2490 10515
2490 10516
2490 23973
2490 24099
2491 5297
2491 6719
2491 7706
2491 13834
2491 18816
2491 22465
2492 10513
2492 13340
2492 24099
2493 10516
2493 23800
2493 24099
2494 2904
2494 3595
2494 19166
2495 4543
2495 4641
2495 6383
2495 12099
2495 20696
2496 3087
2496 3088
2496 7226
2496 9637
2496 19171
2497 19506
2497 23258
2498 3550
2498 5018
2498 13675
2498 19491
2498 20093
2499 15538
2499 15704
2499 20718
2499 21894
2500 7885
2500 7952
2500 10067
2500 11690
2500 11884
2500 13260
2500 17517
2500 21558
2500 22672
2501 9161
2501 18014
2501 22984
2502 2648
2502 11980
2502 13239
2502 23636
2502 23809
2502 24093
2502 24154
2503 4762
2503 6628
2503 11350
2503 12206
2503 13076
2503 18146
2503 20192
2504 3240
2504 4659
2504 11542
2504 23789
2504 23897
2505 8705
2505 9554
2505 9801
2505 11365
2505 12464
2506 8930
2506 24380
2507 7268
2507 10390
2507 10767
2507 20375
2508 4069
2508 14498
2508 18761
2509 3946
2509 7489
2509 8916
2509 13288
2509 23255
2510 13669
2510 16940
2510 21113
2511 8804
2511 24158
2512 8943
2512 11503
2512 21645
2513 5205
2513 5520
2513 11164
2513 11523
2513 16588
2513 20503
2514 9035
2514 11014
2514 12501
2514 18933
2514 20525
2515 3083
2515 4045
2516 4789
2516 8026
2516 21505
2517 3376
2517 5523
2517 5727
2517 7367
2517 8543
2517 9853
2517 10362
2517 12417
2517 12973
2517 13093
2517 13112
2517 13224
2517 13395
2517 13672
2517 13840
2517 14324
2517 15983
2517 17155
2517 21472
2517 21567
2518 13479
2519 5038
2519 5177
2519 8299
2519 17609
2519 18118
2519 20666
2519 23260
2520 3120
2520 8458
2520 8508
2520 9560
2521 5396
2521 8390
2521 13698
2521 14495
2521 14644
2521 22540
2522 3821
2522 8531
2523 5871
2523 7127
2523 9170
2523 14497
2523 21508
2523 21721
2523 23555
2524 5277
2524 15178
2524 15200
2524 24071
2525 6201
2525 6351
2525 10666
2525 18976
2526 10709
2526 16777
2526 17418
2526 18686
2527 2886
2527 9196
2527 12801
2528 7894
2528 16773
2528 19554
2528 20037
2529 5760
2529 12424
2529 15724
2529 15739
2529 22879
2530 11440
2530 18372
2530 19869
2530 22428
2531 5798
2531 6930
2531 12303
2531 18900
2532 5985
2532 14120
2532 18568
2533 3667
2533 3868
2533 12025
2533 18544
2533 20747
2534 10201
2534 16031
2534 19529
2534 20575
2535 17096
2535 18064
2535 18631
2536 10445
2536 13460
2536 14071
2536 16620
2536 21614
2537 6208
2537 11880
2537 18722
2537 20513
2537 22905
2538 7190
2538 7311
2538 7591
2539 9590
2539 12139
2539 15623
2539 17058
2540 4791
2540 10197
2540 11265
2540 11370
2540 12405
2540 13993
2540 14036
2540 21101
2540 22745
2540 23423
2541 3327
2541 5635
2541 7511
2541 9018
2541 10098
2541 13399
2541 15533
2541 17298
2541 17947
2541 18651
2541 20410
2541 20538
2541 22696
2541 23296
2541 23587
2542 17669
2542 24000
2542 24183
2542 24437
2543 4624
2543 5846
2543 12498
2543 13606
2543 14150
2543 14347
2543 19940
2543 22041
2544 18220
2544 18742
2544 20261
2545 4934
2545 6308
2545 6594
2545 9137
2545 13319
2545 13331
2545 16556
2545 21593
2545 21614
2545 21621
2545 22445
2545 23393
2545 23456
2546 4970
2546 11787
2546 14865
2546 15203
2547 5635
2547 15533
2547 22696
2547 23296
2548 3488
2548 17305
2549 15759
2549 23274
2550 3383
2550 3804
2550 4045
2550 4066
2550 6063
2550 9600
2550 10618
2550 10754
2550 11066
2550 11178
2550 11732
2550 12210
2550 12500
2550 15261
2550 16300
2550 17403
2550 17821
2550 19045
2550 21543
2550 21632
2550 22591
2551 8055
2551 8537
2551 8604
2551 8636
2551 8661
2551 10571
2551 14836
2551 19227
2551 19845
2551 20096
2551 21991
2552 3457
2552 14156
2552 17992
2552 19318
2553 23862
2553 23953
2554 12079
2554 21437
2554 22290
2555 5907
2555 8483
2555 16207
2556 2977
2556 21673
2556 21913
2557 4011
2557 6028
2557 20943
2557 21983
2558 4433
2558 4807
2558 14713
2558 15631
2559 2561
2559 3699
2559 5981
2559 17080
2559 17081
2560 5088
2560 5129
2560 6455
2560 7329
2560 10941
2560 17424
2560 18214
2561 17080
2561 19086
2561 21456
2561 21699
2562 2564
2562 4806
2562 4807
2562 21378
2563 2564
2563 3706
2563 4192
2563 4798
2563 4804
2563 4805
2563 4806
2563 4807
2563 4808
2563 5534
2563 5980
2563 8288
2563 8845
2563 21378
2563 23222
2564 4798
2564 4804
2564 4807
2564 4808
2564 14248
2564 22242
2565 11908
2566 7342
2566 9917
2566 12228
2566 16921
2566 17953
2567 7803
2567 9416
2567 12108
2567 17640
2568 3289
2568 7557
2568 8890
2568 13918
2568 14123
2568 14234
2568 15736
2569 2719
2569 3240
2569 12388
2569 23789
2570 8264
2570 8645
2570 12616
2570 16593
2570 17132
2570 17565
2570 18221
2570 18594
2570 19463
2570 19554
2570 20037
2570 20235
2570 21137
2571 11405
2571 19611
2571 20653
2571 21488
2572 3761
2572 4395
2572 5501
2573 3832
2573 5571
2573 5572
2573 12524
2573 18478
2574 5526
2574 17305
2574 18782
2575 2770
2575 17785
2576 23892
2576 24174
2576 24417
2577 10557
2577 14512
2577 18736
2578 6551
2578 13197
2578 20234
2578 21556
2578 21614
2579 4647
2579 7320
2579 13966
2579 19027
2579 20047
2580 8882
2580 14359
2580 16959
2580 17641
2580 21163
2581 12269
2581 12512
2581 21056
2581 22587
2582 7203
2582 8011
2582 10830
2582 18627
2582 22461
2583 15327
2583 18339
2583 18608
2583 23582
2584 9917
2584 17101
2584 17587
2585 6634
2585 8556
2585 9819
2586 3445
2586 4792
2586 6256
2586 7035
2586 13635
2586 14069
2586 16186
2586 16246
2586 17214
2586 18815
2586 19222
2587 10766
2587 12337
2587 13020
2587 19754
2587 23472
2588 8136
2588 8255
2588 13168
2588 20807
2588 23492
2589 8187
2589 17067
2589 19383
2589 19569
2589 21647
2589 21648
2590 2812
2590 5535
2590 5564
2590 10215
2590 12070
2590 12849
2590 13851
2590 19410
2590 20370
2590 23047
2591 8071
2591 11548
2591 14643
2591 22151
2592 9858
2592 14385
2592 16618
2593 7151
2593 7172
2593 9116
2593 9246
2593 13057
2593 20825
2593 23413
2594 3997
2594 9797
2594 10336
2594 10773
2594 13414
2594 13473
2594 14265
2594 14997
2594 16830
2594 17813
2595 4481
2595 24217
2596 6378
2596 23811
2596 24017
2596 24451
2597 17898
2597 18678
2598 4244
2598 6983
2598 9288
2598 16487
2598 21072
2599 4906
2599 8664
2599 11671
2599 11751
2599 18217
2599 19346
2599 21518
2599 23234
2600 8790
2600 9360
2600 10426
2600 19398
2601 11199
2601 17369
2601 20167
2602 3735
2602 9671
2602 12722
2602 14080
2602 18193
2602 20965
2602 21084
2602 21094
2603 10288
2603 10533
2603 20743
2604 9970
2604 10217
2604 13898
2604 15444
2605 16193
2605 16423
2606 9762
2606 21025
2606 22193
2607 3738
2607 4700
2607 9585
2607 14230
2607 16219
2607 17300
2607 18114
2607 18551
2607 20631
2607 20858
2608 3668
2608 4302
2608 6328
2608 20812
2609 7016
2609 10866
2609 10867
2609 10924
2609 12245
2609 23921
2610 7920
2610 8281
2610 12835
2610 20603
2610 22960
2611 6268
2611 11147
2611 17772
2611 22800
2612 14790
2613 4036
2613 4509
2613 5613
2613 6153
2613 7094
2613 7436
2613 8203
2613 10320
2613 10637
2613 13049
2613 16090
2613 16631
2613 20286
2613 21131
2613 22859
2613 23644
2614 6876
2614 8438
2614 22183
2615 8879
2615 10817
2615 14015
2615 17374
2615 20000
2615 20117
2616 19502
2616 20257
2616 21397
2617 6324
2617 22196
2618 5809
2618 7548
2619 2989
2619 9580
2619 15802
2619 19607
2620 4310
2620 4409
2620 6384
2620 7673
2620 9630
2620 9921
2620 23023
2621 7077
2621 9241
2621 19029
2621 22178
2622 3239
2622 12303
2622 13294
2622 15453
2623 2647
2623 23978
2623 24238
2624 6855
2624 7366
2624 10827
2624 12945
2624 20434
2624 21241
2624 22002
2625 2977
2625 21673
2626 2695
2626 23174
2627 11684
2627 17260
2627 17749
2628 19604
2628 23982
2629 21257
2630 7519
2630 8387
2630 9342
2630 11396
2630 16135
2630 17909
2631 10404
2631 23878
2631 23896
2631 24264
2632 6169
2632 17610
2632 24147
2633 22892
2633 22893
2633 23417
2633 24024
2634 3203
2635 6422
2635 7577
2635 16312
2635 17094
2635 23032
2636 15068
2636 23189
2637 3673
2637 6305
2637 6310
2637 7528
2637 8512
2637 14272
2637 19657
2638 7759
2638 16608
2638 20189
2638 20771
2638 22894
2639 8644
2639 13139
2639 13868
2639 16361
2639 18945
2640 5422
2640 5818
2640 6761
2640 23980
2640 24253
2640 24266
2641 7560
2642 2943
2642 2944
2642 5275
2642 6318
2642 6333
2642 6963
2642 13462
2642 15007
2642 16085
2642 16119
2642 16369
2642 17076
2642 19409
2642 20605
2642 23235
2642 23735
2642 23765
2642 24161
2642 24298
2643 2647
2643 3163
2643 3357
2643 4007
2643 4377
2643 4852
2643 5235
2643 5299
2643 6401
2643 6808
2643 6900
2643 7647
2643 8834
2643 9579
2643 9983
2643 12453
2643 12800
2643 13627
2643 13943
2643 18122
2643 18956
2643 20942
2643 20944
2643 21919
2643 22845
2643 23829
2643 24304
2643 24305
2643 24333
2643 24337
2643 24338
2643 24425
2644 4293
2644 5111
2644 6212
2644 15050
2644 16073
2644 16859
2645 8642
2645 18187
2645 18268
2645 18920
2645 23354
2645 23870
2645 24032
2645 24328
2645 24446
2646 7752
2646 14246
2646 16113
2646 23861
2647 3163
2647 4774
2647 6401
2647 8052
2647 8432
2647 14942
2647 23960
2647 23978
2648 4721
2648 6271
2648 6877
2648 7713
2648 9235
2648 11664
2648 11980
2648 23119
2648 24064
2648 24093
2648 24154
2649 7626
2649 13597
2649 13632
2649 21672
2650 11124
2650 14416
2651 11942
2651 19793
2651 20727
2652 3020
2652 3498
2652 9387
2652 13332
2652 13656
2652 22347
2653 5741
2653 11425
2653 14600
2653 15041
2653 16254
2654 9754
2654 11472
2654 13080
2654 14992
2655 4874
2655 4985
2655 9079
2655 10161
2655 11224
2655 15152
2655 16637
2655 18399
2655 19464
2656 4653
2656 5417
2656 24124
2657 2863
2657 15272
2658 3690
2658 3857
2658 9213
2658 10383
2658 11260
2659 2770
2659 3315
2659 3836
2659 4935
2660 4293
2660 7212
2660 11297
2660 24016
2660 24134
2661 13385
2661 15639
2661 16007
2661 16928
2661 19348
2662 8265
2662 12708
2662 15615
2662 23440
2663 4402
2663 13870
2663 18166
2663 19923
2664 2700
2664 5001
2664 12117
2664 18474
2664 19127
2664 19850
2665 3907
2665 7794
2665 18077
2665 19731
2665 21116
2665 22992
2666 2924
2666 5384
2666 7529
2666 8004
2666 10663
2666 11061
2666 11592
2666 13059
2666 15167
2666 18285
2666 19921
2666 20447
2666 20703
2666 21280
2666 22634
2667 12303
2667 18900
2668 10245
2668 10571
2668 18908
2668 19590
2669 3483
2669 9386
2669 10087
2669 18508
2669 22350
2670 8040
2670 10246
2670 14196
2670 15111
2670 19272
2670 20421
2670 22772
2671 5035
2671 6520
2671 12299
2671 17105
2672 3564
2672 8911
2672 17959
2672 20302
2672 23112
2673 3269
2673 10206
2673 15583
2673 21896
2674 7291
2674 12879
2675 6767
2675 9782
2675 15612
2675 16619
2675 17801
2675 20647
2675 21848
2675 23450
2676 7856
2676 8973
2677 6171
2677 8054
2677 11670
2677 14677
2677 15308
2677 17333
2677 18431
2677 18852
2677 20589
2677 21628
2678 5113
2678 22701
2678 22757
2679 7880
2679 11191
2679 12850
2679 18653
2679 19138
2680 13263
2680 13304
2680 16742
2680 17022
2681 2747
2681 2920
2681 5443
2681 9057
2681 9496
2681 10525
2681 12060
2681 12165
2681 12613
2681 23001
2681 23559
2681 24045
2681 24079
2681 24210
2682 7240
2682 7537
2682 7597
2682 12165
2682 24166
2682 24210
2683 7641
2683 12649
2683 16225
2683 24079
2683 24096
2684 2800
2684 16494
2684 19024
2684 22479
2684 22733
2685 5436
2685 8825
2685 18969
2686 12101
2686 12870
2686 14752
2686 15758
2687 6524
2687 12591
2687 22592
2687 23431
2688 3306
2688 11694
2688 15820
2689 7854
2689 8931
2689 23503
2689 23881
2689 24040
2690 6786
2690 13001
2690 13181
2690 13378
2690 23547
2691 9719
2691 19736
2692 3488
2692 5526
2692 17305
2692 18782
2693 4184
2693 7051
2693 8337
2693 19687
2693 20087
2694 8417
2694 8848
2694 12145
2694 17349
2694 18413
2695 2784
2695 4484
2695 5638
2695 11379
2695 11486
2695 13488
2695 13789
2695 14886
2695 15364
2695 15786
2695 17935
2695 18034
2695 18403
2695 20527
2695 22872
2695 23600
2696 14238
2696 23234
2696 23246
2697 7045
2697 10238
2697 10608
2697 15933
2697 22769
2698 4076
2698 8526
2698 20695
2699 3379
2699 9950
2699 16022
2700 3490
2700 5001
2700 19587
2701 5065
2701 7972
2701 9290
2701 11683
2701 14601
2701 16561
2701 20053
2701 20528
2702 4328
2702 4935
2703 3749
2703 10942
2703 14804
2703 19382
2704 22658
2704 23308
2705 5673
2705 9329
2705 14639
2705 15991
2705 19601
2705 20638
2706 6966
2706 7294
2706 8658
2706 9371
2706 9806
2706 9836
2706 11872
2706 20793
2707 12735
2707 18188
2708 16276
2708 21551
2709 21667
2710 5095
2710 17646
2711 5244
2711 6510
2711 19780
2712 3791
2712 11212
2713 3833
2713 10065
2713 18683
2713 22740
2714 6360
2714 7977
2714 10053
2714 21556
2715 7117
2715 10245
2716 4185
2716 16022
2716 22424
2716 24190
2717 2749
2717 4158
2717 4231
2717 6035
2717 6831
2717 7581
2717 8690
2717 8799
2717 9008
2717 9115
2717 13427
2717 15181
2717 16143
2717 19261
2717 21106
2717 22091
2718 3491
2718 24288
2719 17423
2719 18668
2719 23786
2719 24063
2719 24369
2720 4937
2720 5108
2720 5121
2720 8103
2720 21880
2721 5435
2721 10912
2721 15586
2721 20123
2722 7888
2722 11921
2723 4140
2723 7038
2723 7700
2723 11502
2723 11505
2723 20875
2724 3458
2724 12562
2724 14424
2724 18954
2724 22984
2725 12402
2725 18279
2725 24172
2726 3469
2726 14999
2726 15990
2726 21332
2727 2729
2727 2730
2727 7835
2727 10598
2727 10938
2727 11230
2727 11665
2727 24130
2728 2729
2728 2730
2728 10598
2728 13032
2729 7835
2729 10938
2730 10938
2730 11230
2730 11665
2730 24130
2731 6376
2731 10406
2731 22907
2732 3850
2732 9073
2732 12357
2732 17680
2733 11818
2733 18299
2733 18771
2733 21663
2734 2760
2734 4234
2734 14405
2734 15646
2734 23337
2735 17005
2735 19447
2735 20429
2735 21964
2735 22755
2736 12117
2736 19587
2736 22466
2737 8178
2737 14267
2737 16000
2737 16742
2737 23123
2737 23510
2738 4537
2738 18345
2738 21563
2739 4832
2739 11210
2739 24479
2740 3146
2740 4648
2740 7377
2740 9370
2740 19446
2740 19635
2740 19995
2740 23073
2741 5856
2741 11213
2741 11699
2741 15750
2741 18710
2742 4981
2742 6158
2742 10785
2742 24282
2743 5999
2743 15265
2744 10807
2744 12699
2744 17257
2745 5783
2745 7170
2745 11622
2745 13208
2745 13953
2745 15755
2745 17142
2745 20090
2745 22861
2746 3657
2746 6549
2746 6997
2746 10446
2746 10917
2746 12112
2746 12254
2746 20149
2746 20961
2746 22400
2747 7640
2747 24166
2748 6358
2748 12566
2748 16018
2748 18313
2748 23617
2748 23975
2749 5889
2749 17640
2750 5097
2750 11219
2750 11808
2750 17337
2751 3034
2751 6606
2751 8619
2751 9084
2751 10051
2751 10189
2751 13997
2751 15921
2752 2929
2752 3829
2752 4672
2752 5356
2752 11682
2752 17273
2752 21326
2753 6266
2753 8451
2753 9805
2753 13261
2753 13996
2753 14828
2754 16425
2754 16511
2755 5542
2755 6698
2755 15730
2756 5258
2756 11854
2756 23632
2756 24408
2757 7324
2757 8437
2757 11978
2757 21528
2758 5105
2758 7262
2758 19953
2758 24436
2759 3745
2759 7091
2759 12275
2759 13717
2759 17937
2759 20651
2760 4234
2760 15646
2760 17563
2760 23337
2761 3787
2761 5213
2761 11182
2762 3068
2762 6207
2762 11404
2762 16185
2762 16851
2763 4577
2763 8002
2763 8782
2763 10523
2763 12966
2764 3251
2764 4503
2764 5138
2764 6223
2764 8476
2764 13212
2764 14956
2764 15941
2764 17405
2765 7669
2765 7679
2765 9264
2765 10608
2765 23528
2766 2895
2766 2916
2766 5607
2766 6204
2766 11953
2766 13174
2766 18615
2766 18977
2766 21213
2766 23940
2766 24060
2766 24422
2767 5096
2767 9149
2767 18159
2767 23933
2768 8201
2768 9210
2768 9723
2768 10810
2768 10995
2768 11892
2768 12782
2768 24438
2769 4795
2769 7146
2769 17974
2770 5206
2770 5515
2770 5577
2770 5862
2770 6915
2770 8835
2770 10078
2770 10697
2770 13436
2770 14575
2770 17305
2770 17785
2770 22354
2770 22640
2770 22926
2771 7294
2771 8658
2771 9371
2771 11872
2771 15976
2772 2933
2772 7463
2772 10342
2772 11553
2772 12281
2772 20909
2773 7578
2773 7996
2773 10568
2773 11649
2773 18249
2773 19427
2774 3151
2774 17554
2774 18094
2774 23123
2775 7888
2775 8156
2775 12391
2775 13166
2775 14874
2776 3397
2776 8413
2776 19988
2776 21009
2777 13824
2777 15051
2777 16456
2777 18312
2777 20430
2778 3021
2778 7003
2778 9806
2778 15824
2778 22601
2779 5021
2779 10411
2780 9988
2780 12734
2780 20028
2780 20032
2781 7646
2781 7873
2781 8824
2781 12930
2781 17460
2781 19141
2781 22320
2781 23031
2781 23072
2781 23447
2782 4935
2782 8611
2782 10567
2782 18732
2783 4142
2783 16563
2783 22488
2783 23054
2784 3205
2784 3867
2784 4079
2784 5110
2784 5557
2784 6570
2784 6750
2784 6811
2784 7147
2784 7276
2784 7992
2784 8691
2784 9017
2784 10105
2784 10693
2784 11256
2784 11379
2784 13515
2784 13643
2784 14783
2784 16949
2784 17133
2784 17311
2784 17635
2784 17935
2784 17941
2784 18403
2784 20527
2784 21853
2784 22872
2785 6211
2785 23912
2786 4296
2786 7551
2786 13262
2786 14403
2786 17782
2786 22643
2787 9278
2787 12452
2787 13029
2787 15129
2787 17800
2787 19189
2787 21124
2787 21520
2787 23298
2788 7984
2788 24041
2788 24428
2789 3907
2789 4988
2789 9779
2789 15434
2789 18077
2790 23637
2790 24189
2790 24239
2791 4372
2791 16615
2791 18201
2791 21580
2791 21814
2792 4538
2792 4600
2792 5905
2792 8269
2792 12264
2792 14408
2792 19185
2792 20969
2792 20977
2792 23588
2793 8427
2793 15017
2793 20545
2793 22998
2794 7922
2794 14697
2794 17833
2794 22519
2795 3701
2795 4580
2795 23964
2795 24099
2796 2908
2796 7397
2796 13985
2796 14138
2796 21730
2797 6699
2797 9834
2797 14204
2797 15136
2797 20345
2797 20769
2797 23178
2798 4472
2798 5858
2798 12726
2798 15503
2798 16634
2798 23004
2799 3639
2799 3841
2799 5115
2800 7439
2800 14063
2800 20468
2800 22733
2801 4541
2801 22281
2802 6950
2802 14419
2802 17872
2802 19393
2802 20249
2802 21269
2803 9963
2803 16194
2803 16540
2803 19890
2803 21270
2804 7602
2804 10013
2804 18479
2804 19679
2804 19950
2804 20530
2804 21045
2804 22038
2805 3464
2805 3897
2805 5918
2805 10299
2805 10789
2805 11742
2805 16815
2805 20557
2805 20953
2805 22603
2806 8609
2806 9190
2806 9307
2806 10311
2806 14394
2806 23336
2806 23987
2807 9662
2807 19866
2808 8026
2808 8800
2808 14585
2808 21593
2808 21614
2809 7731
2809 9286
2809 17186
2809 22955
2810 5384
2810 9300
2810 11061
2811 9689
2811 10034
2811 22722
2811 23085
2812 15641
2812 15645
2813 5294
2813 5614
2813 5965
2813 10413
2813 10724
2813 13711
2813 13746
2813 13914
2813 18028
2813 18277
2813 20229
2814 5294
2815 5820
2815 7130
2815 20144
2816 3686
2816 3687
2816 7569
2816 7721
2816 7848
2816 7849
2816 23630
2816 23936
2816 24118
2816 24120
2816 24191
2816 24192
2816 24358
2817 12878
2817 13442
2817 16263
2817 16264
2817 22427
2817 23096
2817 23300
2818 15281
2818 18580
2819 15281
2819 18580
2819 20393
2820 12066
2820 13770
2820 17288
2820 17289
2820 23159
2820 23165
2821 12274
2821 12394
2821 17595
2822 6686
2822 9415
2822 12065
2822 13054
2822 13090
2822 15263
2822 16534
2822 16788
2822 21215
2822 21382
2823 3833
2823 4662
2823 12740
2823 17248
2823 19722
2824 2977
2824 14877
2825 3948
2825 19022
2825 20607
2825 21753
2826 6939
2826 8544
2826 14093
2826 14545
2826 20360
2827 9197
2827 11849
2827 15975
2827 19316
2827 19757
2827 20996
2827 23019
2828 5668
2828 10970
2828 11027
2828 13630
2828 15163
2829 6713
2829 7809
2829 8096
2829 8433
2829 12516
2829 16808
2829 17019
2829 19220
2830 5496
2830 5913
2830 6920
2830 19506
2831 4820
2831 4984
2831 4990
2831 14266
2831 14773
2832 5429
2832 6458
2832 20662
2832 22305
2833 9101
2833 13913
2833 17439
2834 3935
2834 8606
2834 17054
2835 6379
2835 7190
2835 7311
2835 7591
2835 7630
2835 10363
2835 11346
2835 18793
2835 19452
2835 19690
2835 21514
2836 10029
2836 10115
2836 11254
2836 11309
2836 13829
2836 14276
2836 16120
2836 21171
2836 21406
2836 22775
2836 23033
2836 23598
2837 3313
2837 10392
2837 13883
2838 4168
2838 11444
2838 23719
2838 23952
2839 6418
2839 14895
2839 20568
2839 22053
2840 4666
2840 6042
2840 7258
2840 12449
2840 13370
2840 14402
2840 15362
2840 17335
2840 20566
2840 21807
2840 21935
2840 22804
2840 23225
2840 23369
2841 9395
2841 12722
2841 18193
2841 21205
2841 21513
2842 4120
2842 7846
2842 13965
2842 17654
2843 11508
2843 22265
2843 23864
2844 6624
2844 8320
2844 12664
2844 23722
2845 4026
2845 4170
2845 5530
2845 9919
2845 10330
2845 12957
2845 13185
2845 14210
2845 14375
2845 15028
2845 16010
2845 17276
2845 17678
2845 18101
2845 19955
2845 20572
2845 21074
2845 22102
2846 3344
2846 4262
2846 11658
2846 17459
2846 23306
2847 5447
2847 12512
2847 22587
2848 4089
2848 12324
2848 22336
2849 8736
2849 10753
2849 12232
2849 17597
2849 21933
2849 24239
2850 7660
2850 9192
2850 9965
2850 11686
2851 5404
2851 8465
2851 10733
2851 12021
2851 14429
2851 20577
2851 20818
2851 21409
2852 6719
2852 10571
2852 12348
2853 6269
2853 23907
2854 3964
2854 4768
2854 5919
2854 6254
2854 8671
2854 13920
2855 3096
2855 7651
2855 11383
2855 14917
2855 23931
2855 24310
2856 4257
2856 23950
2857 5055
2857 6142
2857 9112
2857 22263
2857 22903
2858 3220
2858 3484
2858 5505
2858 6073
2858 6110
2858 8116
2858 11339
2858 11571
2858 14795
2858 15435
2858 16659
2858 16888
2858 17955
2858 18177
2858 21425
2858 23070
2858 23489
2859 9243
2859 10114
2859 17212
2859 20086
2859 21767
2859 21768
2860 6562
2860 11019
2860 13087
2860 14527
2860 16580
2860 18334
2860 19957
2860 20565
2860 23242
2861 3367
2861 16715
2861 18503
2861 19558
2861 20604
2862 10893
2862 20376
2862 21394
2862 22287
2863 11161
2863 16820
2864 8458
2864 9560
2864 10683
2864 15490
2864 17887
2864 21288
2865 7397
2865 9110
2865 13955
2865 22765
2866 6472
2866 9924
2867 9761
2867 18335
2868 6683
2868 23335
2868 23578
2869 19791
2869 20232
2869 21695
2869 21895
2869 23341
2870 4826
2870 8111
2870 10287
2870 14249
2870 15649
2870 16612
2870 19805
2870 20842
2870 22881
2871 2971
2871 3389
2871 9138
2871 10272
2871 10524
2871 11623
2871 13959
2871 14555
2871 15681
2871 17910
2872 11563
2872 11607
2872 12252
2872 23637
2872 24126
2873 3381
2873 9533
2873 17511
2874 3322
2874 17212
2874 21766
2875 9617
2875 10593
2875 16552
2875 22918
2876 9652
2876 10880
2876 11069
2876 15251
2876 18370
2877 8872
2877 9330
2877 13392
2877 17364
2877 18662
2878 6659
2878 7386
2878 9181
2878 9686
2878 15005
2878 20981
2878 23706
2878 23868
2878 23996
2878 24170
2879 5505
2879 21614
2880 10764
2880 12735
2880 12943
2880 18886
2881 9835
2881 19729
2881 22125
2882 4500
2882 5339
2882 7410
2882 8651
2882 9094
2882 13600
2882 14171
2882 17425
2882 21469
2882 23334
2883 3690
2883 5890
2883 6934
2884 3981
2884 20306
2885 7179
2885 8884
2885 11303
2885 12377
2885 13730
2885 13998
2885 14745
2885 15001
2885 15313
2885 16626
2885 18270
2885 20274
2885 22710
2885 23663
2886 12023
2886 16086
2886 18242
2886 19073
2886 19835
2886 20722
2887 8224
2887 8519
2887 8732
2887 15657
2888 4117
2888 10211
2888 24073
2888 24302
2889 3941
2889 6339
2889 16792
2890 19728
2890 21126
2891 6794
2891 8232
2891 9586
2891 11016
2891 18578
2891 23630
2891 23884
2891 24412
2892 2894
2892 3817
2892 4722
2892 4723
2892 6788
2892 8152
2892 12179
2892 13857
2892 16891
2892 19832
2892 21246
2892 23318
2892 24350
2893 6378
2893 16321
2894 8152
2894 16891
2895 23940
2896 5161
2896 6180
2896 12890
2896 15587
2896 17993
2896 19129
2896 20138
2896 20299
2896 22061
2898 8714
2898 9672
2898 20531
2898 22344
2899 2925
2899 4402
2899 7475
2900 7298
2900 13184
2900 13206
2900 14235
2900 18968
2900 22819
2901 12826
2901 16754
2902 9703
2902 24000
2903 5223
2903 6450
2903 12031
2903 13126
2903 15915
2903 22314
2903 22560
2904 3085
2904 4002
2904 4039
2904 4230
2904 7775
2904 14201
2904 15011
2904 15485
2904 17208
2904 19964
2904 20369
2904 22940
2905 2908
2905 4591
2905 7805
2905 7950
2905 15377
2905 20130
2906 12362
2906 12978
2906 12979
2906 12980
2907 7083
2907 11425
2907 14600
2907 15619
2908 7950
2908 10730
2908 15377
2909 11357
2909 12356
2909 18286
2909 18998
2910 12056
2910 18222
2911 6707
2911 9789
2911 15981
2911 19629
2911 21191
2912 8312
2912 9335
2912 9723
2912 20445
2912 24131
2913 5505
2913 10490
2913 14579
2913 18177
2913 20490
2913 21007
2914 4371
2914 5777
2914 13941
2914 18935
2915 14524
2915 15010
2915 17790
2915 17896
2916 9043
2916 11953
2916 24060
2917 9536
2917 24164
2917 24272
2917 24427
2918 17896
2918 18855
2919 6438
2919 8794
2919 10860
2919 17246
2920 9057
2920 9496
2920 10109
2920 10525
2920 12613
2920 13202
2920 14707
2920 14731
2920 20994
2920 22408
2921 4452
2921 4701
2921 5160
2921 7446
2921 21929
2921 22716
2922 5820
2922 6732
2922 14822
2922 15459
2922 17591
2922 22537
2923 2987
2923 4556
2923 14412
2923 14970
2923 15690
2923 21239
2923 22078
2923 22690
2923 23279
2924 9300
2924 11061
2924 15167
2925 12697
2925 22127
2925 23916
2926 10465
2926 14122
2926 20771
2927 3793
2927 5200
2927 9587
2927 13250
2927 19030
2927 21980
2928 4402
2928 23369
2929 11682
2929 18467
2930 11928
2930 12236
2930 20493
2931 9453
2931 19855
2931 22365
2932 6707
2932 7128
2932 11552
2932 14118
2932 22240
2932 22576
2933 10342
2933 17863
2934 13163
2934 15567
2935 11752
2935 14420
2936 4779
2936 5351
2936 9199
2936 9335
2937 5351
2937 5352
2937 9080
2937 9337
2937 9690
2937 9723
2937 15701
2937 18941
2937 23806
2937 24169
2937 24419
2938 7043
2938 11839
2938 12557
2938 24200
2938 24246
2939 4031
2939 16021
2939 23557
2940 4821
2940 5380
2941 3646
2941 12523
2941 12943
2941 14168
2941 17858
2941 18886
2942 2980
2942 4225
2942 5957
2942 11438
2942 22161
2942 23669
2942 23989
2942 24163
2942 24199
2942 24225
2943 23671
2943 24475
2944 5275
2944 24161
2944 24475
2945 3952
2945 13785
2945 15431
2945 18363
2945 21039
2946 9039
2946 9640
2946 12076
2947 4762
2947 13964
2947 20257
2948 3043
2948 4290
2948 24164
2948 24427
2949 6130
2949 9576
2949 11703
2949 12935
2949 20145
2950 3409
2950 8322
2950 20396
2951 3742
2951 5011
2951 11894
2951 22451
2951 22918
2952 5807
2952 14331
2952 15514
2952 16091
2952 20636
2953 18846
2953 19973
2953 21655
2954 2957
2954 3148
2954 4048
2954 4058
2954 13313
2954 14882
2954 19250
2955 10558
2955 11514
2955 13314
2955 21137
2955 21402
2956 5400
2956 16177
2957 4048
2957 14882
2958 3501
2958 10469
2958 19611
2959 3322
2959 17212
2959 21244
2959 21766
2960 10305
2960 10539
2960 14239
2960 18390
2960 20872
2960 22156
2961 18583
2961 19232
2961 20092
2961 21603
2961 22033
2962 23822
2962 24190
2962 24249
2963 5991
2963 6620
2963 7115
2963 21705
2963 21851
2963 23731
2964 20840
2965 6234
2965 16824
2965 23326
2965 23826
2966 9866
2966 15944
2966 19797
2966 22796
2967 6418
2967 20568
2968 3143
2968 12971
2968 20137
2968 20882
2969 7721
2969 12016
2969 12017
2969 12018
2969 22794
2969 23904
2969 24185
2969 24194
2970 23312
2970 23718
2970 24256
2971 5831
2971 8633
2971 9138
2971 9346
2971 13959
2971 14555
2971 15244
2971 17717
2972 12158
2972 22707
2973 4609
2973 9890
2973 14936
2973 16812
2973 18906
2973 19593
2973 21414
2973 23063
2974 6034
2974 7419
2975 5691
2975 10375
2975 24037
2975 24439
2976 9629
2976 19828
2977 3311
2977 4023
2977 4467
2977 6610
2977 6638
2977 7116
2977 8509
2977 8764
2977 9569
2977 13860
2977 13972
2977 14140
2977 14877
2977 15753
2977 16241
2977 18435
2977 20521
2977 21280
2977 22077
2978 5154
2978 7750
2978 8759
2978 10927
2979 9909
2979 10616
2979 11152
2979 11537
2979 13092
2979 13408
2979 18763
2979 18958
2979 21376
2979 21553
2980 4168
2980 4347
2980 22443
2980 24213
2981 3800
2981 6113
2981 7018
2981 12925
2981 16071
2981 16493
2981 18444
2981 19628
2981 20506
2981 21150
2981 23563
2982 19889
2982 23645
2983 8592
2983 9581
2983 10645
2983 17041
2984 4747
2984 4770
2984 7401
2984 9419
2984 9845
2984 18991
2984 21992
2985 5576
2985 5583
2985 7766
2985 11394
2985 11944
2985 22264
2986 6929
2986 11792
2986 12236
2986 12713
2986 13299
2986 22738
2987 4556
2987 8871
2987 14412
2987 18604
2988 3263
2988 8339
2988 18409
2988 18410
2988 18411
2989 3158
2989 15802
2989 17604
2989 23067
2990 3962
2990 9160
2990 13716
2990 17615
2990 22368
2991 5920
2991 12327
2991 13314
2991 21402
2992 12530
2992 16573
2992 19966
2992 21917
2992 22501
2993 3370
2993 3530
2993 5205
2993 13859
2993 14141
2993 17911
2993 18392
2994 5660
2994 10840
2994 12514
2994 13958
2994 14299
2994 18625
2994 19392
2995 4014
2995 16781
2995 16942
2995 21556
2996 9313
2996 11672
2996 14702
2997 12010
2997 12011
2997 24201
2997 24202
2997 24464
2998 22453
2998 23932
2999 17644
3000 3280
3000 6720
3000 8367
3000 12089
3000 18848
3001 15856
3001 15862
3001 16886
3001 16889
3002 3534
3002 5720
3002 7367
3002 11934
3002 12348
3002 12691
3002 12880
3002 13346
3002 13974
3002 19524
3002 20853
3002 22973
3002 23595
3003 11139
3003 16076
3003 20431
3003 21443
3004 23899
3005 3882
3005 10237
3005 18366
3006 3092
3006 7709
3006 14539
3007 3722
3007 7000
3007 9000
3007 9995
3007 13181
3007 14657
3007 16704
3007 17871
3008 15677
3008 15700
3009 9133
3010 10397
3010 18910
3011 5214
3011 5215
3011 6675
3011 17400
3011 21296
3011 23399
3012 9491
3012 13094
3012 18250
3012 19255
3012 20186
3013 8220
3014 3848
3014 8387
3014 13270
3014 22211
3014 23084
3015 7619
3015 7761
3015 11804
3015 17786
3015 22334
3016 19793
3016 20727
3016 20951
3017 3749
3018 6530
3018 12989
3018 16618
3019 3151
3019 12207
3019 18548
3019 22852
3020 5656
3020 13656
3021 7294
3021 15976
3021 22601
3022 4045
3023 3566
3023 5902
3023 6988
3023 8641
3023 8942
3023 12203
3023 13189
3023 13447
3023 15604
3023 16131
3023 17106
3024 7560
3024 9673
3024 14499
3024 15034
3024 16272
3024 20990
3024 21899
3024 22597
3024 23605
3025 3483
3025 4315
3025 19110
3026 4148
3026 10912
3026 18618
3026 19025
3026 19441
3027 5618
3027 10190
3027 16749
3027 18124
3027 22457
3028 23783
3028 23926
3029 4587
3029 6449
3029 7335
3029 10561
3029 11807
3029 14594
3029 17385
3029 23376
3030 3922
3030 4971
3030 6608
3030 6756
3030 10560
3030 12954
3030 13457
3030 21188
3030 21245
3030 21683
3030 22260
3030 22817
3031 6494
3032 7237
3032 10075
3032 10196
3032 17992
3033 11154
3033 11984
3033 16269
3033 18083
3033 19782
3034 9084
3035 11362
3035 11698
3035 23779
3036 5420
3036 5511
3036 6360
3036 11610
3036 22445
3037 4942
3037 12620
3037 13368
3037 23490
3038 8199
3038 10418
3038 23966
3038 23968
3039 5107
3039 9824
3039 10269
3039 13992
3039 16641
3039 20050
3040 4819
3040 12535
3040 20903
3040 21952
3041 4151
3041 4904
3041 4989
3041 6433
3041 7812
3041 8266
3041 8552
3041 9206
3041 16768
3041 18632
3041 20580
3041 20973
3042 3043
3042 4287
3042 4290
3042 9994
3042 12451
3042 23979
3043 4287
3043 4291
3043 5126
3043 7300
3043 9317
3043 10024
3043 12284
3043 12451
3043 13835
3043 14269
3043 16449
3043 19457
3043 22870
3043 23150
3043 23979
3044 5184
3044 7530
3044 18279
3045 3046
3045 3047
3045 6917
3045 7863
3045 20820
3046 3047
3046 7863
3046 20060
3047 6819
3047 7247
3047 7863
3047 9994
3047 13835
3047 20820
3048 4139
3048 7434
3048 9901
3048 12502
3048 18415
3049 3296
3049 10586
3050 8702
3050 18725
3051 3751
3051 4839
3051 4867
3051 6805
3051 8368
3051 12939
3051 15143
3051 15748
3052 5253
3052 15775
3052 16190
3053 5188
3053 8886
3054 9322
3054 12941
3054 13685
3054 17015
3055 17369
3055 19323
3055 20167
3056 6295
3056 16952
3056 20500
3057 3733
3057 8517
3057 9745
3057 10418
3058 8090
3058 14870
3058 16246
3058 17214
3058 19994
3058 21024
3058 21859
3059 4163
3059 7626
3059 13597
3059 13632
3059 23375
3060 3157
3060 9168
3060 18623
3060 19069
3061 4213
3061 5453
3061 5506
3061 8169
3061 9232
3061 10388
3061 11199
3061 11825
3061 13124
3061 14469
3061 17542
3061 20167
3061 22532
3061 23832
3062 5652
3062 7618
3062 14733
3062 18299
3062 22123
3063 13111
3063 17147
3064 7657
3064 9852
3064 11609
3064 13673
3064 17628
3064 19467
3065 9840
3065 12904
3065 16544
3065 18851
3065 19072
3067 9374
3067 12043
3067 23899
3068 6207
3068 8405
3068 16185
3069 24216
3070 6361
3070 7693
3070 11832
3070 14485
3070 14777
3070 15478
3070 15479
3070 15894
3071 4402
3072 8772
3072 8775
3072 11888
3072 16217
3072 19863
3073 4527
3073 4972
3073 12454
3074 14372
3074 16358
3074 22914
3075 5157
3075 7874
3075 8495
3075 9632
3075 12743
3075 17752
3075 18910
3075 19549
3076 19382
3076 23401
3077 20335
3078 12027
3078 14058
3078 19931
3079 4856
3079 13724
3079 13725
3079 16439
3080 7496
3080 15291
3080 15722
3080 22267
3081 6301
3081 10634
3081 15969
3081 17011
3082 8738
3082 12335
3082 14111
3082 16114
3082 20172
3083 3509
3083 9977
3083 14431
3083 18290
3083 19289
3083 20707
3083 21850
3084 23921
3084 23974
3084 24204
3085 14201
3085 15485
3085 19166
3086 4691
3086 14670
3086 21257
3087 17428
3088 9131
3088 17428
3088 18520
3089 9707
3089 13794
3090 8263
3090 9438
3090 17092
3090 18289
3090 19659
3091 4263
3091 18984
3092 4885
3092 9952
3092 12079
3092 15145
3092 17969
3092 22271
3092 22550
3093 3202
3093 8653
3093 10763
3093 20101
3093 21148
3094 4861
3094 7622
3094 8770
3094 10919
3094 11562
3094 13253
3094 13638
3094 19332
3094 19737
3094 20755
3094 21016
3094 21702
3094 22724
3094 23088
3094 23683
3095 4298
3095 7533
3095 19399
3095 21556
3095 22411
3096 3546
3096 10046
3096 24310
3097 3197
3097 4427
3097 11202
3097 13605
3097 18120
3097 18714
3097 22212
3098 21783
3098 22628
3099 9618
3099 9619
3099 24225
3099 24391
3100 4287
3100 9536
3100 23979
3100 24164
3100 24272
3101 3744
3101 10265
3101 11789
3101 12871
3101 13066
3101 15473
3101 23022
3102 7550
3102 14630
3102 20778
3102 21485
3103 15063
3103 16339
3103 16911
3103 17244
3103 17523
3103 21338
3104 4319
3104 4544
3104 12202
3104 19542
3104 21641
3104 22215
3104 22325
3104 23970
3105 3345
3105 7311
3105 19452
3105 20726
3106 3234
3106 11490
3106 13830
3106 18766
3107 4149
3107 6319
3107 11987
3107 13178
3107 13610
3107 19041
3108 7663
3108 10929
3108 12999
3108 16316
3109 4902
3109 12746
3110 6298
3110 12583
3111 5494
3111 5679
3111 5826
3111 5849
3111 8470
3111 13011
3111 14509
3111 15911
3111 22944
3112 11053
3112 11054
3113 5256
3113 5916
3113 9913
3113 18006
3114 7043
3114 24032
3114 24225
3114 24312
3115 10997
3115 11141
3115 11718
3115 16990
3115 22626
3116 4485
3116 16162
3116 17402
3117 6083
3117 9174
3117 9656
3117 22422
3118 3426
3118 7823
3118 11918
3119 3681
3119 3924
3119 5546
3119 5774
3119 6382
3119 9685
3119 11098
3119 12631
3119 12733
3119 13678
3119 14362
3119 14641
3119 16610
3119 17175
3119 18021
3119 20840
3119 22145
3119 22442
3120 8458
3120 8508
3121 12650
3121 12662
3121 19375
3121 20407
3121 23921
3122 6613
3123 9431
3123 12762
3123 13146
3123 16900
3123 22172
3124 4244
3124 6195
3124 21072
3125 5486
3125 14609
3125 15418
3125 22036
3125 22786
3126 3416
3126 18317
3127 3719
3127 9211
3127 9473
3127 11397
3127 14850
3127 24203
3128 4204
3128 10062
3128 14694
3129 5690
3129 6008
3129 12616
3129 18310
3129 19554
3129 22935
3130 4532
3130 5747
3130 6791
3130 7915
3130 8380
3130 16722
3130 17336
3130 17358
3130 17515
3130 18267
3130 20440
3131 8387
3131 12897
3132 6469
3132 14742
3132 18235
3132 21132
3133 7311
3133 11861
3133 14363
3133 15991
3134 9972
3134 18867
3135 3895
3135 4670
3135 5765
3135 10325
3135 16982
3135 18712
3135 22160
3136 4942
3136 18826
3136 23538
3137 6907
3137 13345
3137 16631
3138 3460
3138 13037
3139 5283
3139 5290
3139 7888
3139 11921
3139 13166
3140 4448
3141 21593
3141 21614
3142 4439
3142 5628
3142 12002
3142 12004
3142 13961
3142 15338
3143 3662
3143 4476
3143 5715
3143 6996
3143 7098
3143 9831
3143 10595
3143 11411
3143 12971
3143 13938
3143 14291
3143 16372
3143 20137
3143 20882
3143 21399
3143 22584
3144 5788
3144 8196
3144 8478
3144 10935
3144 13660
3144 19454
3145 16804
3145 20718
3146 9869
3146 14092
3147 4699
3147 14311
3147 16506
3147 22695
3148 4058
3148 6689
3148 13313
3148 14882
3148 19250
3148 21789
3149 11633
3149 22386
3149 23501
3150 15063
3150 19394
3151 4411
3151 5585
3151 9042
3151 9312
3151 12207
3151 15214
3151 17554
3151 18548
3151 22683
3152 5807
3152 20636
3153 11776
3153 13072
3153 20348
3153 21003
3153 23478
3154 6073
3154 14585
3155 8098
3155 18995
3155 24186
3156 14900
3156 14906
3156 17020
3156 22128
3157 4780
3157 5123
3157 6665
3157 8273
3157 8756
3157 9168
3157 10295
3157 12200
3157 13003
3157 13793
3157 16305
3157 18182
3157 18623
3157 18693
3157 19069
3157 22414
3158 6087
3158 7109
3158 10731
3158 16745
3158 20649
3158 23067
3159 5188
3159 6437
3159 6585
3159 7353
3159 9855
3159 10531
3159 10534
3159 11856
3159 14053
3159 14268
3159 17232
3160 6460
3160 21408
3160 22019
3160 22221
3161 10447
3161 12055
3161 12161
3161 14192
3161 21295
3162 11642
3162 14474
3162 18884
3162 20423
3162 22244
3163 23960
3163 24338
3164 9018
3164 10245
3165 6912
3165 12919
3165 23078
3166 5240
3166 6318
3166 23999
3166 24161
3167 8365
3167 20835
3167 21875
3168 9505
3168 22023
3168 23591
3169 6114
3169 10419
3169 24136
3170 8082
3170 15672
3171 5220
3171 5840
3171 5897
3171 6731
3171 8885
3171 8984
3171 9259
3171 9625
3171 10658
3171 13492
3171 15662
3171 21734
3171 22988
3172 4402
3172 19371
3172 23369
3173 4680
3173 19171
3173 19172
3173 19173
3173 19530
3174 5646
3174 13434
3175 6560
3175 12776
3177 5015
3177 6729
3177 21186
3177 22972
3178 8692
3178 11375
3178 12224
3178 21937
3178 22622
3179 6810
3179 14181
3179 14704
3179 15984
3179 18809
3180 8455
3180 16242
3180 20718
3181 8143
3181 8484
3181 13273
3182 18156
3182 19864
3182 21433
3183 14842
3184 6032
3184 7620
3184 8348
3184 12454
3184 13369
3184 17847
3184 18758
3184 19548
3184 21833
3185 11078
3185 17176
3186 4240
3186 7187
3186 11706
3186 12834
3187 7845
3187 10288
3187 20743
3188 6727
3188 6972
3188 17697
3188 19440
3188 20041
3188 20398
3188 21404
3189 7291
3189 12879
3190 23720
3190 24164
3191 3834
3191 8791
3191 18739
3191 20161
3191 21184
3192 12121
3192 14220
3193 10558
3193 11514
3193 13314
3193 21137
3194 3403
3194 6193
3194 17287
3194 20209
3194 21415
3195 13124
3195 17369
3195 22230
3196 8387
3197 8218
3197 13605
3197 22212
3198 4487
3198 4715
3198 5223
3198 5632
3198 6678
3198 6845
3198 10956
3198 13321
3198 13354
3198 13912
3198 14484
3198 21706
3198 22296
3198 23046
3199 10880
3199 11069
3200 5667
3200 8091
3200 9331
3200 11555
3200 16653
3201 23792
3201 23943
3201 24397
3202 8653
3202 11424
3202 20101
3202 21148
3203 12355
3203 21665
3204 14536
3204 22917
3204 23265
3204 23839
3205 5110
3205 18066
3206 12836
3206 15634
3206 17481
3206 18986
3206 21000
3207 11357
3207 18998
3207 23100
3208 18870
3208 21009
3209 15357
3209 18322
3209 22365
3210 6269
3210 6567
3210 11362
3210 23640
3210 23709
3211 8680
3211 13564
3212 4796
3212 20771
3212 21508
3212 22499
3213 9366
3213 10557
3214 5666
3214 6861
3214 9703
3214 10368
3214 14012
3214 14261
3214 18885
3215 16079
3215 20178
3216 9300
3216 13870
3217 5161
3217 10025
3217 12633
3217 19522
3218 5231
3218 5488
3218 5675
3218 7210
3218 7637
3218 8361
3218 10463
3218 10739
3218 13719
3218 13888
3218 17715
3218 18073
3218 18675
3218 20120
3218 20277
3218 23132
3218 23219
3218 23297
3218 23324
3219 7619
3219 7761
3219 17786
3219 22334
3220 3484
3220 21556
3220 22737
3221 5891
3221 10315
3221 10316
3221 14067
3221 19989
3222 10163
3222 12118
3222 22526
3223 5943
3223 23016
3224 3370
3224 11986
3225 3998
3225 4206
3225 12027
3225 13871
3225 18206
3225 18916
3225 19781
3225 23076
3226 23068
3226 23731
3226 24459
3227 3748
3227 6049
3227 7369
3227 8172
3227 10610
3227 16699
3227 17109
3227 21981
3228 5069
3228 8026
3228 8853
3228 11030
3228 13111
3228 13831
3228 14795
3228 17147
3228 19522
3228 21177
3228 21614
3229 20257
3229 21397
3230 7788
3230 14894
3230 21592
3230 23520
3231 7189
3231 7223
3231 7933
3231 8425
3231 9399
3231 11617
3231 11822
3231 13935
3231 14210
3231 17568
3231 19001
3231 22322
3231 22388
3231 22656
3232 5522
3232 7715
3232 8319
3232 9404
3232 13235
3232 13410
3232 14044
3232 14294
3232 17486
3232 18179
3232 22095
3233 13714
3233 14285
3233 17767
3233 21700
3234 6219
3234 10667
3234 11490
3234 13830
3234 14126
3234 18766
3234 19231
3234 20223
3234 20914
3234 21002
3234 23105
3235 5400
3235 10622
3235 15243
3235 16177
3236 7324
3236 9623
3236 23435
3237 15299
3238 3550
3238 6023
3238 20207
3239 4251
3239 4260
3239 4849
3239 4913
3239 5908
3239 6715
3239 7053
3239 7079
3239 8110
3239 8715
3239 10185
3239 10824
3239 11158
3239 12303
3239 12735
3239 13551
3239 14215
3239 14572
3239 14573
3239 14653
3239 14669
3239 14845
3239 15361
3239 15787
3239 16419
3239 16922
3239 18090
3239 18188
3239 18741
3239 19715
3239 20968
3239 21065
3239 21136
3239 21738
3239 22083
3239 22506
3239 22605
3239 22615
3239 22754
3239 22897
3239 23028
3239 24018
3239 24483
3240 3535
3240 6341
3240 7330
3240 8314
3240 12388
3240 13144
3240 23788
3240 23789
3240 24063
3241 3242
3241 7494
3241 9334
3241 11643
3241 12252
3241 23066
3241 23097
3242 7494
3242 9334
3242 11643
3242 12252
3242 23097
3243 23789
3244 4236
3244 20245
3244 22797
3245 3289
3245 5026
3245 5091
3245 10095
3245 12778
3245 14573
3245 21181
3245 22885
3246 5506
3247 13626
3248 6173
3248 10985
3248 18395
3248 19698
3249 4563
3249 9477
3249 13731
3250 8744
3250 13024
3251 3381
3251 3953
3251 17405
3251 20999
3252 14558
3252 17322
3252 17773
3253 4384
3253 12968
3253 15988
3253 17650
3253 19367
3254 3735
3254 12722
3254 18193
3254 22246
3255 8365
3255 10297
3255 19795
3256 14803
3256 14873
3256 15149
3256 15150
3256 16495
3256 16950
3256 17238
3256 18384
3256 19814
3256 19815
3257 3317
3257 4293
3257 11297
3258 3890
3258 11667
3258 13149
3258 23738
3258 23820
3258 24254
3258 24284
3258 24487
3259 4546
3259 12215
3259 13963
3259 16170
3259 16396
3259 21090
3259 22011
3260 4891
3260 12942
3260 18723
3260 21268
3260 22906
3261 7511
3261 11583
3261 15315
3262 5088
3262 8419
3262 12924
3262 12927
3262 14413
3262 17540
3262 18262
3263 8339
3263 13138
3263 18410
3263 18411
3264 11320
3264 13423
3264 15906
3264 16582
3264 22762
3265 4025
3265 4217
3265 8616
3265 9495
3265 16123
3265 18457
3265 18531
3265 22016
3265 23158
3266 5937
3266 6690
3266 12235
3266 13788
3266 13797
3266 16429
3266 16687
3266 22359
3267 3543
3267 5199
3267 13450
3267 15419
3268 4021
3268 9793
3268 15407
3268 15538
3268 15704
3268 16581
3268 17739
3268 18085
3268 18261
3268 19265
3268 20718
3268 21894
3268 23074
3269 3436
3269 4297
3269 5634
3269 14418
3269 19562
3270 6073
3270 8026
3270 14585
3270 21593
3271 7356
3271 10690
3271 18298
3271 18854
3272 3434
3272 5796
3272 6834
3272 7972
3272 9096
3272 9326
3272 13707
3272 17857
3273 4358
3273 4961
3273 9044
3273 10271
3273 15574
3273 19644
3274 7261
3274 8009
3274 8443
3274 8596
3274 9653
3274 10488
3274 19233
3274 21021
3275 5320
3275 7577
3275 10120
3275 16312
3275 17094
3276 4857
3276 10476
3276 15331
3276 17583
3276 19363
3276 20485
3276 22890
3276 23002
3277 7306
3277 17161
3277 19382
3277 20062
3278 3493
3278 11540
3278 17541
3278 19772
3279 5017
3279 21209
3279 22315
3280 19670
3280 20609
3281 9861
3282 5236
3282 7896
3282 11758
3283 6146
3283 6169
3283 8909
3283 10519
3283 12844
3283 24392
3284 12864
3284 13453
3284 18631
3285 14206
3286 7965
3286 17712
3286 18035
3287 3937
3287 7517
3287 8145
3287 14961
3288 3510
3288 8776
3288 15666
3288 15731
3288 22358
3288 22706
3289 4098
3289 4274
3289 4725
3289 5296
3289 6170
3289 7519
3289 7557
3289 8387
3289 9223
3289 9342
3289 9611
3289 10708
3289 11967
3289 12256
3289 13918
3289 14123
3289 15668
3289 15705
3289 15736
3289 17247
3289 17909
3289 18667
3289 19003
3289 21025
3289 21119
3289 21181
3289 21849
3289 22698
3290 3461
3290 11445
3290 17082
3290 22356
3290 23065
3291 12710
3291 16771
3291 22969
3291 23639
3292 8026
3292 14585
3292 21614
3293 8319
3293 17029
3293 20576
3293 21251
3293 22095
3294 10150
3294 10999
3294 11816
3294 20960
3294 23282
3295 9002
3295 11267
3295 13150
3295 13965
3295 16591
3296 4402
3296 20595
3296 22281
3297 5704
3297 8140
3297 15323
3297 16373
3297 17343
3298 20107
3299 7644
3299 8805
3299 9191
3299 18153
3300 3301
3300 6773
3300 10377
3300 10380
3300 16707
3301 15851
3301 16707
3301 20791
3302 8676
3302 9019
3302 12510
3302 23510
3303 4011
3303 12192
3304 3721
3304 4825
3304 5516
3304 6967
3304 22042
3305 4601
3305 8000
3305 10470
3305 12214
3305 13490
3305 13988
3305 15241
3305 19771
3305 19987
3305 22168
3306 3612
3306 15820
3307 8930
3307 22736
3307 23818
3307 24083
3307 24291
3307 24362
3307 24380
3308 8411
3308 14513
3308 18566
3308 18729
3308 20837
3308 23496
3309 8234
3309 10260
3309 12332
3310 6627
3310 10505
3310 15521
3310 18093
3310 22274
3310 23043
3311 17419
3311 21673
3311 22300
3312 5440
3312 5931
3312 8725
3312 16512
3312 21629
3312 22164
3313 5143
3313 6933
3313 9299
3313 10392
3313 12051
3313 12915
3313 13038
3313 13587
3313 13883
3313 14580
3313 16129
3313 16993
3313 20543
3313 20623
3313 21995
3313 22867
3314 15151
3314 19318
3315 5515
3315 6538
3315 10078
3315 10697
3315 11695
3315 12143
3315 12322
3315 13167
3315 14667
3315 22354
3315 22490
3315 22926
3316 9040
3316 17830
3317 4111
3317 4177
3317 4293
3317 6956
3317 9626
3317 10400
3317 11673
3317 12551
3317 14007
3317 20712
3317 23348
3317 24134
3318 9136
3318 12455
3319 6746
3319 8724
3319 22232
3320 8400
3320 12167
3321 3951
3321 11846
3321 24054
3322 3579
3322 10175
3322 10537
3322 10876
3322 11076
3322 11631
3322 11972
3322 14059
3322 15809
3322 16594
3322 16627
3322 17718
3322 19196
3322 19622
3322 20074
3322 20517
3322 21277
3322 21701
3323 12675
3323 23882
3323 24080
3324 3359
3324 6598
3324 10140
3324 21787
3325 3581
3325 4167
3325 9598
3326 4272
3326 9531
3326 19165
3326 23465
3327 10245
3327 10571
3328 7707
3329 3768
3329 4999
3329 15180
3329 18624
3329 19162
3330 4406
3330 14048
3330 23276
3331 6178
3331 15810
3331 19021
3331 19668
3332 15046
3333 4790
3333 10916
3334 3486
3334 4106
3334 7209
3334 10911
3334 16266
3334 19822
3335 5781
3335 13148
3336 4228
3336 9405
3336 13565
3336 14008
3336 14363
3336 15343
3336 16249
3336 18965
3336 19391
3336 19776
3336 19837
3336 20627
3337 7977
3337 19198
3337 21556
3337 21640
3338 19435
3339 6383
3339 10639
3339 14290
3339 17838
3340 8458
3340 13879
3340 17887
3341 12863
3341 13699
3341 14191
3342 5361
3342 15189
3342 16223
3342 20972
3342 22676
3342 22919
3343 6833
3343 13898
3343 14409
3343 19519
3344 17459
3344 23306
3345 7263
3345 7314
3345 8340
3345 11239
3345 12823
3345 15438
3345 17848
3345 19747
3345 21710
3345 23519
3346 11690
3346 12513
3347 3348
3347 5483
3347 6704
3347 11900
3347 18834
3348 5483
3348 11900
3348 17804
3348 18834
3349 6553
3349 9670
3349 11513
3349 14370
3349 16151
3349 22040
3350 6059
3350 23488
3351 6949
3351 11691
3351 13316
3351 23258
3352 9703
3352 14241
3352 15185
3353 3907
3353 5879
3353 12190
3353 15840
3353 18468
3353 20561
3353 22302
3354 9430
3354 12215
3354 16170
3354 21090
3355 3824
3355 13776
3355 14387
3355 16736
3356 4220
3356 5008
3356 10048
3356 11114
3356 14614
3356 15015
3356 18131
3356 21630
3356 21825
3356 22067
3356 23277
3357 6401
3358 7506
3358 8301
3358 24370
3359 6390
3359 8280
3359 11070
3359 13917
3359 14436
3359 18769
3360 3361
3360 12865
3360 15651
3361 7037
3361 12321
3361 12793
3361 12865
3361 20051
3362 7399
3362 7625
3362 15825
3362 20692
3363 4988
3363 8867
3363 19731
3364 3381
3364 6086
3364 14129
3364 15262
3364 22456
3364 23762
3365 8143
3365 23961
3366 4897
3366 11302
3366 18993
3366 22333
3367 18503
3367 19026
3367 22680
3368 12212
3368 17284
3368 20756
3369 4233
3369 9439
3369 13391
3369 14955
3369 19786
3370 3530
3370 5205
3370 11403
3370 13296
3371 5394
3371 14514
3371 15743
3371 15920
3371 22021
3372 3649
3372 3650
3372 4764
3372 6803
3372 19501
3372 20072
3373 17598
3373 18041
3373 19426
3374 4687
3374 4688
3374 5563
3374 14059
3374 19956
3374 21079
3375 7555
3375 8151
3375 13872
3375 21684
3376 5727
3376 14324
3377 11777
3377 18050
3377 20717
3377 20732
3378 7659
3378 9379
3378 15781
3378 16919
3378 21795
3379 23913
3379 24213
3380 5356
3380 11682
3380 13440
3380 14368
3381 3463
3381 3953
3381 5118
3381 5138
3381 9753
3381 10670
3381 11084
3381 12328
3381 13056
3381 13217
3381 13491
3381 13644
3381 14129
3381 15038
3381 15846
3381 15899
3381 16375
3381 16833
3381 17177
3381 18552
3381 18830
3381 19142
3381 20379
3381 20579
3381 21227
3381 21420
3381 21716
3381 21946
3381 22459
3381 22958
3382 8116
3382 8853
3382 14579
3383 3804
3383 4066
3383 5136
3383 7969
3383 9600
3383 9751
3383 10754
3383 11178
3383 11650
3383 11732
3383 12210
3383 12500
3383 14431
3383 15932
3383 16513
3383 17403
3383 20285
3383 20418
3383 20431
3383 21443
3383 21543
3383 21632
3384 9773
3384 11916
3384 12495
3384 12671
3384 12770
3384 18589
3384 23146
3385 3393
3385 5644
3385 7238
3385 11209
3385 19066
3385 20417
3385 21419
3386 14227
3386 16089
3386 17303
3386 21762
3386 22937
3387 13401
3387 16466
3387 21651
3387 23733
3387 23784
3387 23963
3387 24285
3388 3416
3388 4353
3388 4524
3388 9954
3388 12282
3388 17149
3388 18978
3388 19718
3388 23411
3389 7546
3389 11947
3389 17910
3390 4395
3390 21254
3391 9275
3391 10513
3391 24099
3392 11049
3393 11209
3393 19508
3393 20417
3393 21419
3394 4504
3394 8174
3394 8857
3394 9981
3394 11744
3394 21673
3394 23404
3395 8082
3395 10034
3395 15672
3395 18372
3395 20989
3396 3995
3396 10985
3397 3501
3397 5590
3397 6889
3397 8413
3397 9523
3397 11547
3397 14045
3397 14569
3397 15345
3397 15463
3397 15518
3397 16899
3397 17367
3397 18643
3397 18726
3397 18944
3397 19605
3397 19907
3397 21009
3397 21098
3397 22449
3397 22913
3397 23840
3397 24165
3398 18649
3398 19235
3398 24008
3399 5947
3399 8617
3399 18695
3400 4509
3400 10320
3400 16631
3401 13870
3402 7685
3402 17636
3402 17741
3402 23223
3403 3796
3403 6193
3403 6216
3403 9013
3403 9304
3403 10381
3403 10440
3403 11248
3403 17287
3403 18581
3403 19896
3403 20209
3403 20860
3403 21415
3403 21797
3403 23368
3404 17126
3404 19469
3405 7782
3405 10148
3406 4520
3406 4917
3406 5616
3406 6583
3406 9768
3406 13950
3406 14504
3406 19039
3407 5376
3407 11121
3407 14451
3408 7367
3408 9224
3408 12348
3408 20853
3409 7869
3409 9799
3409 20396
3410 12540
3410 13803
3410 19999
3410 20771
3411 8500
3411 12442
3411 13388
3411 22679
3412 6046
3412 7265
3412 23896
3412 24117
3412 24379
3413 8660
3413 11800
3413 18257
3414 8042
3414 11160
3414 19586
3415 6284
3415 7205
3415 9046
3415 14643
3415 15354
3415 15756
3415 16973
3416 4353
3416 7561
3416 7607
3416 7893
3416 8322
3416 9470
3416 9829
3416 9954
3416 10341
3416 11882
3416 12282
3416 14125
3416 18317
3416 19063
3416 19718
3416 19799
3417 3712
3417 3714
3417 3715
3417 23661
3417 23816
3418 15371
3418 15373
3418 21314
3418 22564
3418 23140
3419 13657
3419 17005
3419 21081
3420 3623
3420 22769
3420 23322
3421 7175
3421 19639
3423 4935
3423 7291
3423 21736
3424 6468
3424 10527
3424 15199
3424 19588
3425 10299
3426 7823
3426 18378
3426 23202
3427 8779
3427 9511
3427 10989
3427 11347
3427 14646
3427 22343
3428 5026
3428 13927
3428 14458
3428 17066
3428 20055
3428 20300
3428 23355
3428 24140
3429 10156
3429 14021
3429 23862
3430 5448
3430 6908
3430 17548
3430 21362
3431 3466
3431 6737
3431 7457
3431 7490
3431 14229
3431 23284
3432 3728
3432 4651
3432 5460
3432 15286
3432 17876
3432 20152
3432 21971
3432 22654
3432 23407
3432 23562
3433 6714
3433 10639
3433 16872
3434 6834
3434 7972
3435 4793
3435 12864
3436 10206
3436 12381
3436 12573
3436 14418
3436 14504
3437 7534
3437 8702
3437 12371
3437 12639
3437 18725
3437 22553
3437 22704
3438 6377
3438 7803
3438 9416
3438 10134
3438 15495
3438 16880
3438 16999
3438 17723
3438 19202
3438 20251
3438 21455
3438 21489
3438 22073
3439 3440
3439 6316
3439 11321
3439 17493
3439 20359
3439 22477
3440 4922
3440 8534
3440 11321
3440 20359
3441 15777
3441 18199
3442 8082
3442 9689
3442 16551
3443 8238
3443 10740
3443 11980
3443 24154
3444 7742
3444 17758
3444 23461
3445 6256
3445 7035
3445 11058
3445 12003
3445 13459
3445 13635
3445 16186
3445 18845
3445 19222
3446 6231
3446 11002
3446 12674
3446 24290
3447 6067
3447 13122
3448 4623
3448 6522
3448 9474
3448 9861
3448 15771
3448 22465
3449 10406
3449 18870
3450 5205
3450 11986
3451 7316
3451 8236
3451 12889
3452 4389
3452 4829
3452 11358
3452 12243
3452 14298
3452 16346
3452 21120
3452 23156
3452 23556
3453 4826
3453 15582
3453 17990
3453 18045
3453 19212
3453 19568
3454 4993
3454 21556
3454 23489
3455 4597
3455 15890
3456 7736
3456 9445
3456 16991
3456 19005
3457 3461
3457 6283
3457 9867
3457 11727
3457 12445
3457 15816
3457 17193
3457 17668
3458 8239
3458 12562
3458 15036
3458 22984
3459 16231
3460 20912
3461 7680
3461 7995
3461 14432
3461 17006
3461 19088
3461 22356
3461 23302
3462 10492
3462 15762
3462 21861
3463 13056
3463 15846
3463 15899
3463 17177
3463 20579
3463 22799
3464 3897
3464 10000
3464 20557
3465 7072
3465 13055
3465 13848
3465 19911
3465 23480
3466 4102
3466 7490
3466 12983
3466 14377
3466 23284
3467 4757
3467 5510
3467 8165
3467 22269
3468 11523
3468 14852
3469 17689
3469 20618
3469 21607
3470 14585
3470 21593
3471 6126
3471 11417
3471 14758
3471 15763
3471 17224
3471 20811
3471 22565
3472 3729
3472 5454
3472 23369
3472 24109
3473 13572
3473 18426
3474 4224
3474 6242
3474 10745
3474 13602
3474 19436
3475 7447
3475 7516
3475 14255
3475 19613
3476 6948
3476 13455
3476 19052
3477 5463
3477 14447
3477 15479
3477 22563
3478 6144
3478 14251
3478 14578
3478 15147
3478 18158
3478 21819
3479 4215
3479 14847
3479 19860
3480 4789
3480 23070
3481 6493
3481 6935
3481 9377
3481 9635
3481 14950
3481 18631
3481 21287
3481 23216
3482 8881
3482 17388
3482 18917
3483 4643
3483 5156
3483 8192
3483 9386
3483 10087
3483 11998
3483 13028
3483 13396
3483 15584
3483 17505
3483 17976
3483 18508
3483 18787
3483 20415
3483 22170
3483 22496
3483 23401
3484 19576
3484 21556
3485 4672
3485 11682
3485 12424
3485 18467
3485 21326
3486 3845
3486 4106
3486 7209
3486 10911
3486 16266
3487 7997
3487 10007
3487 16360
3487 20729
3487 20776
3487 20964
3488 5168
3488 5526
3488 5637
3488 5862
3488 7714
3488 8675
3488 8822
3488 8835
3488 8899
3488 9841
3488 10777
3488 11171
3488 11298
3488 11480
3488 11801
3488 12548
3488 14105
3488 14180
3488 15464
3488 16515
3488 17088
3488 17305
3488 18015
3488 22856
3488 22862
3489 9020
3489 12440
3489 17387
3489 21785
3489 21890
3490 7744
3490 8334
3490 10430
3490 11170
3490 18474
3490 21659
3490 22466
3491 5719
3491 8480
3491 14948
3491 24288
3491 24406
3492 16483
3493 4367
3493 5006
3493 6191
3493 6229
3493 7304
3493 7830
3493 8497
3493 10467
3493 11540
3493 12399
3493 13443
3493 17541
3493 17626
3493 20578
3493 22398
3493 22746
3494 4796
3494 20771
3495 6244
3495 13365
3496 3760
3496 6066
3496 19611
3497 12526
3497 14304
3497 19229
3497 20237
3498 9387
3498 10303
3498 13656
3498 21833
3498 22347
3499 3787
3499 5213
3499 5746
3499 11943
3500 4520
3500 4917
3500 5616
3500 14504
3500 17596
3501 6154
3501 7964
3501 11513
3501 12704
3501 18453
3502 11197
3502 15432
3502 17043
3502 19534
3502 22580
3503 4166
3503 6402
3503 8387
3504 9506
3504 17631
3504 19355
3504 20765
3505 5713
3505 7331
3505 8711
3505 10910
3505 15812
3505 15883
3505 19042
3505 20003
3505 22262
3505 22662
3506 5729
3506 7319
3506 18658
3506 22216
3507 15963
3507 18844
3507 20329
3507 20581
3508 8702
3508 9034
3508 14426
3509 14207
3509 21097
3510 8776
3510 9499
3510 15666
3511 4473
3511 6067
3511 8227
3511 13122
3512 3837
3512 5648
3512 19788
3512 22851
3513 6760
3513 7332
3514 5223
3514 6450
3514 8927
3514 11680
3514 14295
3515 10872
3515 11647
3515 16470
3515 23205
3515 24173
3515 24410
3516 4093
3516 23139
3517 4093
3517 23139
3518 9843
3518 10894
3518 10961
3518 17068
3518 22529
3519 4631
3519 9944
3519 13311
3520 4015
3520 10960
3521 10620
3521 12321
3521 12793
3522 9130
3522 10914
3522 17488
3522 21770
3523 7671
3523 13844
3523 20941
3524 7180
3524 9874
3524 10018
3524 22894
3525 9010
3525 10775
3526 9995
3526 13181
3526 14657
3527 3596
3527 4420
3527 4999
3527 9216
3527 14502
3527 15180
3527 18786
3527 22546
3528 3749
3528 6557
3528 8878
3528 11863
3528 11998
3528 12087
3528 14728
3528 18787
3528 23401
3529 9633
3529 11374
3529 13075
3529 13753
3529 17524
3531 10268
3531 11093
3531 14002
3531 18350
3532 8088
3532 12987
3533 6303
3533 8722
3533 16405
3534 8976
3534 12691
3534 19824
3534 20853
3534 22904
3535 23789
3535 24369
3536 6101
3536 11510
3536 12749
3536 13236
3536 15353
3536 16630
3536 19244
3536 22766
3537 10419
3537 10443
3537 11126
3537 15864
3537 23948
3537 24175
3538 5548
3538 7375
3538 7842
3538 12624
3538 20177
3538 22571
3538 23929
3539 5044
3539 5812
3539 5970
3539 8810
3539 9103
3539 9868
3539 10146
3539 10376
3539 11545
3539 13484
3539 14095
3539 19043
3539 20658
3539 22213
3539 23129
3539 23482
3540 19061
3540 22841
3541 6293
3541 8071
3541 14643
3542 4542
3542 7440
3542 20661
3543 5199
3543 9398
3543 13450
3543 14184
3543 15419
3544 6839
3544 13505
3544 15615
3545 6067
3545 12959
3546 5910
3546 5911
3546 10046
3546 13999
3546 14917
3546 19762
3546 23878
3546 24033
3546 24310
3547 8861
3547 12666
3547 16427
3547 22416
3547 23288
3548 13052
3548 18750
3548 21073
3548 22650
3549 4297
3549 5634
3549 10082
3550 4535
3550 4574
3550 4866
3550 5018
3550 9378
3550 9468
3550 11803
3550 15497
3550 16803
3550 18255
3550 18660
3550 19967
3550 21552
3550 22712
3551 8863
3551 9737
3551 10622
3552 4043
3552 4072
3552 9287
3552 10526
3552 16095
3552 21019
3553 5213
3553 5746
3553 13267
3553 13842
3554 9080
3554 9337
3554 24131
3555 16441
3555 17278
3555 18446
3555 20455
3556 4008
3556 6354
3556 8391
3556 10135
3556 19687
3557 3751
3557 18389
3558 9116
3558 21029
3559 9173
3559 9864
3559 15665
3559 21167
3560 7305
3560 10465
3560 11006
3560 20639
3560 21013
3560 21446
3561 13136
3561 15448
3561 23258
3562 5811
3562 5955
3562 7769
3562 9604
3562 10038
3562 10172
3562 11300
3562 16209
3562 19630
3562 19951
3562 20794
3562 21486
3563 7513
3563 8999
3563 11086
3563 12189
3563 12225
3563 12758
3563 13902
3563 20615
3563 20904
3563 21948
3564 8911
3564 10489
3564 16318
3564 17959
3564 22069
3565 24067
3565 24321
3566 4276
3566 4498
3566 5426
3566 5603
3566 5902
3566 6651
3566 10318
3566 11381
3566 12012
3566 13189
3566 15536
3566 18282
3566 19503
3566 19930
3566 20896
3566 21860
3567 6169
3567 7379
3567 10864
3567 23825
3567 24331
3568 5481
3568 10016
3568 10255
3568 15835
3569 3570
3569 3572
3569 3574
3569 3575
3569 4684
3569 13472
3569 22480
3570 3571
3570 3573
3570 3577
3570 21493
3570 22480
3571 3574
3571 4684
3572 3575
3572 3577
3572 4684
3572 21493
3572 22480
3573 3574
3573 3575
3573 22480
3574 3577
3574 21493
3575 3577
3576 14344
3576 14476
3576 20554
3578 4685
3578 11723
3578 20864
3578 21780
3578 22996
3579 14059
3579 16594
3580 7965
3580 10836
3580 17712
3580 18035
3581 4167
3581 5549
3581 12314
3581 14691
3581 15942
3582 3902
3582 7427
3582 14380
3582 23041
3583 4694
3583 5790
3583 7270
3583 7636
3583 8358
3583 10182
3583 10728
3583 12386
3583 12457
3583 12644
3583 16226
3583 17260
3583 17617
3583 17749
3583 19182
3583 19625
3583 23319
3584 4696
3584 9644
3584 11990
3584 17012
3585 6530
3586 4167
3586 9598
3586 19451
3586 21838
3586 22999
3587 6549
3587 6910
3587 22400
3588 3780
3588 12838
3588 17998
3588 23576
3589 6506
3589 6975
3589 7093
3589 8578
3589 10606
3589 11790
3589 21507
3589 21944
3589 21989
3590 10501
3590 23932
3591 12433
3591 12929
3591 20597
3591 23162
3592 9493
3592 19539
3592 20954
3593 5539
3593 6145
3593 10054
3593 20732
3593 20817
3593 22391
3594 13718
3594 16414
3595 16389
3595 18978
3595 19063
3596 14502
3596 18624
3597 4074
3597 5003
3597 5544
3597 7396
3597 9684
3597 11093
3597 13283
3597 13603
3597 14357
3597 14953
3597 15908
3597 16353
3597 20344
3598 5188
3598 11856
3598 15880
3598 20388
3599 15145
3599 16349
3599 19381
3599 21437
3600 6758
3600 15360
3600 15949
3600 15994
3601 3621
3601 4838
3601 8848
3602 8554
3602 11911
3603 5242
3603 6875
3603 8013
3603 8347
3603 9072
3603 10235
3603 19108
3604 4617
3604 5112
3604 10609
3604 18284
3604 19651
3604 22748
3605 3900
3605 4523
3605 6184
3605 9220
3605 10017
3605 10135
3605 14466
3605 15661
3605 18646
3605 19687
3605 21902
3606 7638
3606 20551
3606 20893
3606 21243
3606 23955
3606 24279
3606 24423
3607 23820
3607 24254
3608 17062
3608 17949
3608 20562
3608 22365
3609 19973
3610 4602
3610 6272
3610 7025
3610 7603
3610 12926
3610 18744
3610 19199
3610 19825
3610 22070
3610 23431
3611 5298
3611 7938
3611 11334
3611 12223
3611 13412
3612 5509
3612 14517
3613 3614
3613 3615
3613 3616
3613 3618
3613 6349
3613 6706
3613 8582
3613 8583
3613 22105
3613 22481
3614 3615
3614 3616
3614 3617
3614 6345
3614 14378
3614 22705
3614 23037
3615 3616
3615 6349
3615 6706
3615 8582
3615 8583
3615 18150
3615 22481
3616 6349
3616 8583
3616 19915
3616 21236
3616 21238
3616 22105
3616 22481
3617 3618
3617 6345
3617 8582
3617 8583
3617 21238
3617 23037
3618 8583
3618 19915
3618 21236
3618 21238
3618 22105
3618 23037
3619 11616
3619 11880
3619 17597
3619 19050
3619 22905
3620 18169
3620 20989
3620 23589
3621 4838
3621 8417
3621 8848
3621 18413
3622 8826
3622 16394
3622 17616
3623 4239
3623 7045
3623 7679
3623 10608
3623 11861
3623 12409
3623 15933
3623 17623
3623 17632
3623 18405
3624 7668
3624 12047
3624 12393
3625 9694
3625 10037
3625 18685
3626 3925
3626 4095
3626 8294
3628 10679
3628 17394
3628 21843
3629 4970
3629 7297
3629 8054
3629 14865
3629 15203
3630 6188
3630 17587
3631 17765
3631 18846
3631 19586
3632 7698
3632 8553
3632 16583
3632 17090
3632 20114
3632 20271
3633 4451
3633 9664
3633 10540
3633 12830
3633 16636
3633 19481
3634 5889
3634 9115
3634 18561
3635 4946
3635 10543
3635 11498
3635 22727
3635 23971
3635 23996
3636 19604
3637 5295
3637 5379
3637 16514
3637 17802
3637 19719
3637 23058
3638 6999
3638 7192
3638 17509
3638 23154
3639 3841
3639 5115
3639 17899
3639 20057
3639 23811
3639 23929
3640 4720
3640 10808
3640 20100
3640 24205
3641 17480
3641 23943
3642 4720
3642 20100
3642 24061
3643 4117
3643 8932
3643 11013
3643 19150
3644 7069
3644 10954
3644 11013
3644 19150
3645 7942
3645 12897
3645 15818
3645 22716
3646 12523
3646 12943
3646 18886
3647 4336
3647 14858
3648 14842
3649 3650
3649 19501
3649 20072
3650 4764
3650 19501
3650 20072
3650 23498
3651 3791
3651 4954
3651 8326
3652 10960
3652 16580
3652 19957
3652 23242
3653 4931
3653 12571
3653 15777
3653 18199
3654 4896
3654 6533
3654 8102
3655 16517
3655 19318
3656 6597
3656 9027
3656 10414
3656 10857
3656 11117
3657 4099
3657 6141
3657 6549
3657 6910
3657 6997
3657 9844
3657 10446
3657 12112
3657 13318
3657 16965
3657 18701
3657 18818
3657 20149
3657 20961
3657 22642
3658 4248
3658 8773
3658 9487
3658 12187
3658 13957
3659 10853
3659 11499
3661 10991
3661 12114
3661 12260
3661 14830
3661 16602
3661 18798
3662 20882
3662 21399
3663 10391
3663 17649
3664 11714
3664 15629
3664 22510
3665 16054
3665 18516
3665 19033
3666 8597
3666 18953
3666 19250
3667 3868
3667 12025
3667 18544
3667 20876
3667 21949
3668 10159
3668 17157
3669 9393
3669 17851
3669 19566
3670 5754
3670 9389
3670 14187
3670 21581
3670 21591
3671 4648
3671 5316
3671 8737
3671 19995
3672 10550
3672 12830
3672 16636
3672 17383
3673 4732
3673 6962
3673 7528
3673 8640
3673 10966
3673 16662
3673 19657
3673 23273
3674 4485
3674 15066
3674 16001
3674 17918
3675 4680
3675 5993
3675 9637
3675 15790
3675 18520
3676 4791
3676 13993
3677 7619
3677 10930
3677 17786
3678 8330
3678 16430
3679 8491
3679 8774
3679 16502
3680 6823
3680 11697
3680 14191
3681 13519
3681 14641
3682 4351
3682 4510
3682 6960
3682 10657
3682 14797
3682 15162
3682 18125
3682 21526
3682 23267
3683 6604
3683 12097
3683 14298
3683 19258
3683 22510
3684 4465
3684 22701
3684 22757
3685 13176
3685 17651
3685 18421
3685 23212
3686 7849
3686 8481
3686 23630
3686 24358
3686 24469
3687 7569
3687 7721
3687 24120
3688 6794
3688 24191
3688 24194
3689 14113
3689 15104
3689 16157
3689 21690
3690 3727
3690 4309
3690 4773
3690 5890
3690 6149
3690 6934
3690 11260
3690 13227
3690 13648
3690 18740
3690 19144
3690 19723
3690 21963
3691 4935
3691 12512
3691 20243
3692 7641
3692 24079
3693 7246
3693 9871
3693 12972
3693 19075
3693 21770
3694 7235
3694 11133
3694 15095
3694 20574
3695 14247
3695 18278
3696 8503
3696 12951
3696 12953
3696 12955
3696 15645
3697 9933
3697 11836
3697 12416
3697 21351
3699 5592
3699 5981
3699 6540
3699 12876
3699 14648
3699 14649
3699 17081
3699 18328
3700 5025
3700 15547
3700 15563
3701 4580
3701 7479
3702 5051
3702 5728
3702 6587
3702 9280
3702 9825
3702 10088
3702 10679
3702 17394
3702 18215
3702 21842
3702 23665
3702 23666
3702 23701
3702 23783
3702 24444
3703 5763
3703 6977
3703 24239
3703 24269
3704 4701
3704 15135
3704 20768
3705 4506
3705 8524
3705 15210
3705 17806
3705 20558
3706 4105
3706 8864
3706 17737
3706 21496
3707 11885
3708 5896
3708 11010
3708 12135
3709 4719
3709 7931
3709 8392
3709 16769
3709 17530
3709 18547
3710 9251
3711 12251
3711 23209
3711 23632
3712 3713
3712 3714
3712 9021
3712 11184
3712 11646
3712 12341
3712 17588
3712 23110
3712 24027
3712 24108
3712 24209
3712 24356
3713 3715
3713 11646
3713 12341
3713 17588
3713 23661
3713 23816
3713 24027
3714 3715
3714 11184
3714 12271
3715 9021
3715 11646
3715 12341
3715 17588
3715 23110
3715 23661
3715 24027
3715 24108
3715 24356
3716 15610
3716 17606
3716 19611
3717 13295
3717 21181
3717 23084
3718 8554
3718 11911
3719 9211
3719 9961
3719 10171
3719 21253
3719 23753
3719 24203
3719 24226
3719 24229
3720 11255
3720 12201
3720 16599
3720 17555
3720 17928
3720 20833
3721 4137
3721 4825
3721 18549
3721 21739
3722 4540
3722 7000
3723 3749
3723 4226
3723 19382
3723 22352
3724 10893
3724 17305
3725 9559
3725 14459
3725 18454
3726 6046
3726 15930
3726 20831
3727 8019
3727 8615
3727 11627
3727 19997
3728 21971
3729 14321
3729 18459
3729 23369
3730 7350
3730 7351
3730 18348
3730 21544
3730 21642
3731 7268
3731 10390
3731 15168
3731 19442
3731 23059
3732 7382
3732 8092
3732 8143
3732 8199
3732 10418
3732 11253
3732 11575
3732 22508
3732 22741
3732 23842
3732 23912
3732 24376
3732 24415
3733 5275
3733 8517
3733 23966
3734 6104
3734 9998
3734 10165
3734 18300
3734 18301
3734 22836
3735 5594
3735 6615
3735 7092
3735 15868
3735 20341
3735 20389
3736 5191
3736 9116
3736 21029
3736 22365
3737 4509
3738 9585
3738 13470
3738 22188
3739 4012
3739 5298
3739 9084
3739 11334
3739 12223
3739 17221
3740 9785
3740 13455
3740 13684
3740 16294
3741 14306
3741 16164
3741 21856
3741 23888
3742 11894
3742 22918
3743 6438
3743 11763
3743 18178
3743 19497
3743 23541
3744 5941
3744 6089
3744 10452
3744 11468
3744 12846
3744 18088
3744 19557
3745 6194
3745 12275
3745 17937
3745 20651
3745 21324
3746 3890
3746 5874
3746 21210
3746 22866
3746 23820
3747 7285
3747 10816
3747 11414
3747 13143
3747 18098
3748 10610
3748 16162
3749 8078
3749 8891
3749 10811
3749 11663
3749 12769
3749 13284
3749 14802
3749 15718
3749 19109
3749 19382
3749 21334
3749 22657
3750 5239
3750 19134
3750 22784
3751 4888
3751 6805
3751 8368
3751 12939
3752 6964
3752 20242
3753 8515
3753 23515
3754 5320
3754 7577
3754 10120
3754 17094
3755 6169
3755 10404
3755 17610
3755 24024
3755 24147
3756 14601
3756 17857
3756 19051
3756 20075
3756 22391
3757 10129
3757 11247
3757 12333
3757 15177
3757 19601
3757 20093
3758 15615
3759 4069
3759 9823
3759 14336
3759 16647
3760 10665
3760 14569
3760 14944
3760 18102
3760 18453
3760 19906
3760 20199
3760 20461
3760 22167
3761 5501
3761 18692
3761 22068
3762 4008
3762 6354
3762 8391
3762 10135
3762 19687
3763 5696
3763 19040
3763 20355
3763 20356
3764 4516
3764 4671
3764 5355
3764 6473
3764 11570
3764 14022
3764 14565
3764 15502
3764 16245
3764 20452
3764 21481
3765 13040
3765 13597
3765 13632
3765 18649
3765 23375
3766 12101
3766 18223
3766 19597
3767 8736
3767 8774
3767 10753
3767 16314
3768 4999
3768 5077
3768 9216
3768 16326
3768 18624
3768 19162
3768 22546
3769 15606
3769 18631
3769 22365
3770 10704
3770 10845
3770 16004
3770 18585
3770 22363
3771 4424
3771 4426
3771 4433
3772 11910
3772 20409
3773 8356
3773 9425
3773 12897
3773 16016
3773 22086
3774 11266
3774 14523
3774 14781
3774 15780
3774 17602
3774 20471
3774 21962
3775 4430
3775 4432
3775 4433
3776 7488
3776 16469
3777 4426
3777 4431
3777 4432
3777 9982
3778 13581
3778 21112
3779 4952
3779 11931
3779 12176
3779 16141
3779 17218
3779 20524
3779 23770
3779 23972
3779 24273
3780 5194
3781 9913
3781 19009
3781 19811
3781 21886
3782 5189
3782 5508
3782 6430
3782 9715
3782 10107
3782 10797
3782 10841
3782 10972
3782 12460
3782 15667
3782 16806
3782 17339
3782 17903
3782 18352
3782 18708
3782 19087
3782 20252
3783 4846
3783 5255
3783 11469
3783 12130
3783 12540
3783 19406
3784 4609
3784 16827
3784 23329
3785 6302
3785 6364
3785 14935
3785 17178
3785 18473
3785 21525
3786 11214
3786 12211
3786 12620
3786 19113
3787 4355
3787 5092
3787 5500
3787 5738
3787 5746
3787 6363
3787 7178
3787 9240
3787 11182
3787 11943
3787 12022
3787 12230
3787 13267
3787 13842
3787 14250
3787 14991
3787 19267
3787 19297
3787 19326
3787 20336
3787 20644
3787 21448
3787 21531
3787 22090
3787 22963
3788 4490
3788 4615
3788 5731
3788 6456
3788 9508
3788 9960
3788 11692
3788 19844
3788 22743
3789 7107
3789 8393
3790 6526
3790 12088
3790 16341
3790 16733
3790 21385
3791 13051
3791 20439
3792 4595
3792 8781
3793 12620
3793 16506
3793 21781
3793 22156
3794 11209
3794 20417
3795 8860
3795 11637
3795 13392
3795 17753
3796 6193
3796 17287
3796 20209
3796 21415
3797 4129
3797 7171
3797 13716
3797 14776
3797 22934
3798 4293
3798 8134
3798 12551
3799 4117
3799 7521
3800 21150
3801 5892
3801 17067
3802 6312
3802 8745
3802 10933
3802 17743
3802 22144
3802 23609
3803 5473
3803 8959
3803 10298
3803 21335
3804 16076
3804 16300
3805 8761
3805 9322
3805 12941
3805 13685
3805 20255
3805 21666
3806 23784
3806 24285
3807 4200
3807 5070
3807 23550
3808 4049
3808 8407
3808 18308
3808 19595
3808 23761
3809 8696
3809 21556
3810 4629
3810 9092
3810 18702
3810 20680
3811 8714
3811 22738
3812 4732
3812 8640
3812 8688
3812 14272
3812 23273
3813 9518
3813 24076
3813 24169
3814 6719
3814 22904
3815 8149
3815 12675
3815 15774
3815 24352
3816 4294
3816 5204
3816 11328
3816 15828
3816 17894
3816 18796
3817 13857
3817 16891
3817 19832
3817 23318
3818 4389
3818 6372
3818 8197
3818 19313
3819 4402
3819 19923
3820 5059
3820 10893
3820 12797
3820 16213
3821 10056
3821 16546
3821 20918
3822 10018
3822 10678
3822 12561
3822 22894
3823 12772
3823 23476
3824 4853
3824 5308
3824 8182
3824 13441
3824 13776
3824 16736
3824 22435
3825 5665
3825 7328
3825 9054
3825 11821
3825 16484
3825 18996
3825 20922
3825 23328
3826 3853
3826 6887
3826 12132
3826 14693
3826 22518
3827 9386
3827 10087
3827 22350
3828 4307
3828 7292
3828 12719
3828 20338
3829 4672
3829 11682
3830 6303
3830 11139
3830 16076
3831 15680
3831 16363
3832 5572
3832 8442
3832 8839
3833 8338
3833 8818
3833 10065
3833 11431
3833 14505
3833 15542
3833 15765
3833 18931
3833 19985
3833 20195
3833 22668
3833 22843
3833 23231
3834 7269
3834 8791
3834 18151
3835 7045
3835 10238
3835 10608
3835 15730
3835 15933
3835 21717
3836 5577
3836 6915
3836 8835
3836 10078
3836 10697
3836 12143
3836 13614
3836 14667
3836 16507
3836 16992
3836 18252
3836 19349
3836 22354
3836 22490
3837 4466
3837 13500
3837 14048
3837 17893
3837 19788
3837 22851
3838 6426
3838 15329
3839 10825
3839 10879
3839 11173
3839 13091
3839 21813
3840 13870
3840 20714
3840 23200
3840 23369
3841 15928
3841 18241
3842 4148
3842 5435
3842 11456
3842 15586
3843 7965
3843 18035
3844 23784
3844 24135
3845 4106
3845 10911
3845 12987
3845 19822
3846 5398
3846 6439
3846 10647
3846 20783
3847 7362
3847 8593
3847 23731
3847 24459
3848 20000
3849 11823
3849 13511
3849 15984
3849 18809
3850 11217
3850 17680
3851 10303
3851 11214
3851 16853
3852 7124
3852 19298
3853 6887
3853 8028
3853 12031
3853 14693
3853 23572
3854 4402
3854 8716
3855 9620
3855 24176
3855 24196
3856 10034
3856 20624
3856 23589
3857 5890
3857 13648
3857 18740
3857 19723
3858 6067
3858 9543
3858 12959
3858 13122
3858 14467
3858 17342
3858 22847
3859 7524
3859 9258
3859 14087
3859 14557
3859 14626
3860 4324
3860 7501
3860 15770
3860 16474
3860 17971
3860 19303
3861 4056
3861 10365
3861 10369
3861 10371
3861 24260
3862 10625
3862 10795
3862 14577
3862 18631
3862 22365
3863 7965
3863 10836
3863 22338
3864 6461
3864 6559
3864 9072
3864 18889
3864 20795
3865 12296
3865 20330
3866 4550
3866 10004
3866 16102
3866 18358
3867 5110
3867 13515
3867 18066
3868 18706
3868 20571
3868 20747
3869 9171
3869 23823
3869 24303
3869 24339
3870 6719
3870 10571
3871 11055
3871 14819
3871 17704
3871 18574
3871 21918
3872 4480
3872 8930
3872 24083
3873 18921
3874 5244
3874 15023
3874 18240
3875 4512
3875 4699
3875 7012
3875 7778
3875 8477
3875 9622
3875 14311
3875 16506
3875 18801
3875 19216
3875 23176
3876 4754
3876 11248
3876 12851
3877 6670
3877 10419
3877 23837
3877 24286
3878 10009
3878 12848
3878 16083
3879 12461
3879 19709
3879 22757
3880 5580
3880 5973
3880 8200
3880 9099
3880 10750
3880 14198
3880 17384
3880 17912
3880 20293
3880 21985
3880 22081
3880 23327
3881 4327
3881 6813
3881 8903
3881 17211
3881 21791
3881 22681
3882 8030
3882 10237
3883 4210
3883 23305
3883 23809
3883 24394
3884 5328
3884 20376
3884 22287
3886 5070
3886 7271
3886 9506
3886 14971
3886 23550
3887 6370
3887 6588
3887 6646
3887 8502
3887 8562
3887 8798
3887 9524
3887 10568
3887 10601
3887 10937
3887 12814
3887 14532
3887 15184
3887 16794
3887 17340
3887 17414
3887 18249
3887 18331
3887 22092
3888 21245
3889 10593
3889 17559
3889 20188
3889 21428
3890 5874
3890 18720
3890 21832
3891 19914
3892 5212
3892 8914
3892 11136
3892 14134
3892 19819
3893 4661
3893 9982
3893 10695
3894 17992
3895 4670
3895 10325
3896 7072
3896 10913
3896 17719
3897 5918
3897 10789
3897 11742
3897 15382
3897 15754
3897 20557
3897 20953
3897 21839
3897 23285
3897 23703
3898 5064
3898 9560
3899 8523
3899 17122
3899 18954
3899 20974
3900 6354
3900 19687
3900 21902
3901 4305
3901 4556
3901 7594
3901 8020
3901 11252
3901 15105
3901 16579
3902 7427
3902 20436
3902 23041
3903 7984
3903 12169
3903 12173
3904 10250
3904 14496
3904 22315
3905 8395
3905 12167
3905 21844
3906 5315
3906 9265
3906 9694
3906 12667
3907 4988
3907 8867
3907 15434
3907 18077
3907 19731
3907 19770
3908 18880
3908 20065
3908 21365
3909 5093
3909 12866
3909 16926
3909 21804
3910 5847
3910 16591
3911 8230
3911 10258
3911 16739
3911 22916
3912 4567
3912 5684
3912 10481
3912 13128
3912 19339
3913 5307
3913 7444
3913 12030
3913 22243
3914 9599
3914 11364
3914 13775
3914 14716
3915 13507
3915 18967
3916 12434
3916 19878
3917 12057
3917 14927
3917 16952
3917 21458
3918 4571
3918 4796
3918 8205
3918 18535
3918 19096
3919 7135
3919 12007
3919 18614
3919 23778
3919 23946
3919 24038
3920 10902
3920 11969
3920 12115
3921 8383
3921 22650
3922 6756
3922 10560
3922 21188
3922 22817
3923 24423
3924 5201
3924 10390
3924 11129
3925 8294
3925 9917
3926 20146
3926 22285
3926 23094
3926 23416
3927 13324
3928 15991
3928 17687
3929 11959
3929 12501
3929 18319
3930 4506
3930 8524
3930 14193
3930 15210
3930 22614
3931 7857
3931 8276
3931 10339
3931 16106
3931 16107
3932 12571
3932 22140
3933 15988
3934 5870
3934 14590
3934 15470
3935 13523
3935 17054
3936 4402
3936 13870
3937 8145
3937 19298
3937 22051
3938 5085
3938 7393
3938 7482
3938 13363
3939 4356
3939 4613
3939 8608
3939 9864
3940 4756
3940 10029
3940 12465
3940 14081
3940 21406
3940 22775
3940 23033
3941 8484
3941 17874
3941 19405
3942 12523
3942 14168
3942 18886
3943 8225
3943 19767
3943 21102
3944 4550
3944 10004
3944 20554
3945 5178
3945 24074
3945 24078
3945 24393
3946 6131
3946 7489
3946 8494
3946 12420
3946 12765
3946 12873
3946 13288
3946 16350
3946 16555
3946 17707
3946 19132
3946 20253
3946 20659
3946 22256
3946 23255
3947 7852
3947 13539
3947 13826
3947 17156
3947 19739
3947 22835
3948 4561
3948 4743
3948 5489
3948 5528
3948 6409
3948 7844
3948 7983
3948 8753
3948 8784
3948 9432
3948 9529
3948 10626
3948 10848
3948 11476
3948 12819
3948 12842
3948 14097
3948 14392
3948 15212
3948 15958
3948 16344
3948 16407
3948 16457
3948 16478
3948 16811
3948 17589
3948 17674
3948 17746
3948 17966
3948 18642
3948 18784
3948 19022
3948 19839
3948 20693
3948 20891
3948 21223
3948 21685
3948 22329
3948 22388
3949 5078
3949 7697
3949 9677
3949 9749
3949 9890
3949 10659
3949 13939
3949 20429
3949 21082
3949 21405
3950 7862
3950 22037
3951 5994
3951 8507
3951 9374
3951 11846
3951 13533
3951 14283
3951 18797
3951 19873
3951 22210
3951 22987
3951 23799
3952 10427
3952 11435
3952 13785
3952 15600
3952 19856
3952 21039
3953 6223
3953 8476
3953 13393
3953 17117
3953 17205
3953 22958
3954 4563
3954 13731
3954 21356
3955 3997
3955 8758
3955 13473
3956 3957
3956 5512
3956 11819
3956 16342
3956 21761
3957 5531
3957 11237
3957 12914
3957 16844
3957 20484
3958 4724
3958 13728
3958 15952
3958 17984
3958 22193
3959 5578
3959 7108
3959 13479
3960 4357
3960 7177
3961 7807
3961 9549
3961 10661
3961 10723
3961 16538
3962 9160
3962 9314
3962 13716
3963 4702
3963 6396
3963 6527
3963 11494
3963 13932
3964 5574
3964 7905
3964 11080
3964 11481
3964 12109
3964 13512
3964 13920
3964 14346
3964 15275
3964 15358
3964 16415
3964 17182
3964 19654
3964 22148
3964 22582
3965 10349
3965 10796
3965 15613
3966 4385
3966 5781
3966 18983
3966 23766
3967 5958
3967 8321
3967 8710
3967 9147
3967 10056
3967 10466
3967 19661
3967 21155
3967 21689
3967 21870
3967 22588
3968 4911
3968 23915
3969 12166
3969 16747
3969 18218
3969 22899
3969 23089
3970 14989
3970 15967
3970 23094
3971 11764
3971 18275
3971 21320
3972 6847
3972 7733
3972 9532
3972 10487
3972 16701
3972 19677
3972 22369
3973 6596
3973 8343
3973 9493
3973 9769
3973 20954
3974 5482
3974 6512
3974 6896
3974 7301
3974 22405
3975 5695
3975 17431
3975 23835
3976 6287
3976 8137
3976 24397
3977 4902
3977 21854
3978 9866
3978 17299
3978 17508
3978 17985
3979 9208
3979 12930
3979 13418
3979 13435
3979 18001
3979 18170
3979 23214
3980 7486
3980 8862
3980 23025
3981 15018
3981 20306
3982 8957
3982 10157
3982 10479
3982 12608
3982 18232
3982 18777
3982 21426
3982 22866
3983 21030
3984 11057
3984 12289
3984 24176
3984 24225
3985 5809
3985 8297
3985 16817
3985 23542
3986 6950
3986 14419
3986 19393
3986 21269
3987 6022
3987 8026
3987 16428
3987 18127
3987 21614
3988 6568
3988 6838
3988 12579
3988 15588
3988 18306
3989 6079
3989 6169
3989 20725
3989 23962
3990 17305
3991 3993
3991 5095
3991 6011
3991 9308
3991 9772
3991 10453
3991 11192
3991 11948
3991 13043
3991 13723
3991 14019
3991 14033
3991 14094
3991 14863
3991 15082
3991 17646
3991 18046
3991 20792
3991 21216
3991 21713
3991 21735
3992 4077
3992 4378
3992 4681
3992 5190
3992 7068
3992 7967
3992 10914
3992 16736
3992 17272
3992 17923
3992 18515
3992 20956
3992 21141
3992 21190
3992 21770
3992 23101
3992 23179
3994 4615
3994 5490
3994 8113
3995 12888
3996 13371
3996 13536
3996 19355
3997 10336
3997 12762
3997 13473
3997 16830
3997 17813
3997 22172
3997 23608
3998 9285
3998 12027
3998 19082
3998 19931
3999 8431
3999 8682
3999 9989
3999 10066
3999 11341
3999 11810
3999 22616
3999 23408
4000 7298
4000 22819
4001 5215
4001 13195
4001 15071
4001 18537
4002 11291
4002 11514
4002 22940
4003 4243
4003 5925
4003 6473
4003 18121
4003 22393
4004 7324
4004 13094
4004 20186
4005 6112
4005 13139
4005 22049
4006 8563
4006 10906
4006 11162
4006 24465
4007 5240
4008 6184
4008 6354
4008 10017
4008 10267
4008 14466
4008 18646
4008 19687
4008 20741
4008 21902
4009 9053
4009 23358
4010 5624
4010 6053
4010 7196
4010 9321
4010 14709
4011 4499
4011 5606
4011 6028
4011 7498
4011 8436
4011 8866
4011 9045
4011 9490
4011 9719
4011 10090
4011 10850
4011 11305
4011 11363
4011 15100
4011 15725
4011 16333
4011 17123
4011 19425
4011 20943
4011 21549
4011 21983
4011 22349
4012 4460
4012 11334
4012 12223
4012 17221
4013 24176
4013 24225
4014 4731
4014 5292
4014 9971
4014 13969
4014 15707
4014 16781
4014 18550
4014 19637
4015 8198
4015 10303
4015 10960
4015 13081
4016 13504
4016 17553
4016 17744
4016 21803
4017 5815
4017 19515
4017 20103
4018 7450
4018 9360
4019 12827
4019 14465
4019 15439
4019 16751
4019 22930
4020 9598
4020 21838
4020 22999
4021 15538
4021 20718
4021 21894
4022 16166
4022 20306
4023 14877
4023 23369
4024 7674
4024 14554
4024 17432
4024 19789
4025 8574
4026 12957
4026 13802
4026 14375
4026 16029
4026 17678
4026 20572
4027 6632
4027 18631
4028 7731
4028 17186
4029 9875
4029 14653
4029 19113
4030 5277
4030 12804
4030 17808
4030 24071
4031 8610
4032 6492
4032 8930
4032 24083
4033 4750
4033 4882
4033 5304
4033 10242
4033 20890
4033 24395
4034 9360
4034 10426
4034 19398
4034 20719
4035 5549
4035 9598
4035 15311
4036 4509
4036 15997
4037 6438
4037 8989
4037 10011
4037 15794
4037 16285
4037 20397
4038 11467
4038 15135
4038 20768
4040 6296
4040 11738
4040 23188
4040 23311
4040 24349
4041 7977
4041 18332
4041 21556
4041 21640
4042 6328
4042 11624
4042 11688
4043 9870
4043 16095
4043 19170
4043 21019
4044 6404
4044 6405
4044 24021
4045 18290
4045 19289
4045 20297
4045 21850
4046 14094
4046 17397
4046 21735
4046 23083
4047 6403
4047 24284
4048 4058
4049 10332
4049 19237
4050 17163
4050 18166
4050 23492
4051 5134
4051 10366
4051 16498
4051 23725
4052 4054
4052 4056
4052 14064
4052 19245
4052 22410
4052 23445
4052 23679
4052 24260
4053 5152
4053 10369
4053 10372
4054 10370
4054 10372
4054 12446
4054 14064
4054 14947
4054 15081
4054 19245
4054 19246
4054 22687
4055 22410
4055 23679
4055 24260
4056 5152
4056 10259
4056 10365
4056 10369
4056 10371
4056 11322
4056 12446
4056 20810
4056 22779
4057 4059
4057 13313
4057 21208
4058 4060
4058 6689
4058 13313
4059 4061
4059 6689
4060 13313
4060 21208
4060 22720
4061 8236
4061 13313
4061 14881
4061 18953
4061 22720
4062 20866
4063 6081
4063 7075
4063 12974
4063 13837
4063 15076
4064 4293
4064 9626
4064 12551
4064 24452
4065 5298
4065 7938
4065 12223
4065 14526
4066 16076
4066 16300
4067 4762
4068 7364
4068 14857
4068 17996
4068 20771
4069 4086
4069 8324
4069 9663
4069 9823
4069 9898
4069 10803
4069 11423
4069 11705
4069 12246
4069 13517
4069 14336
4069 14498
4069 16647
4069 17255
4069 18761
4069 19917
4069 20938
4069 21733
4069 23454
4070 12897
4070 17025
4071 22816
4072 9287
4072 9870
4072 13448
4072 16095
4073 4550
4073 10004
4073 20554
4073 20866
4074 4644
4074 18350
4074 19319
4075 10652
4075 11369
4075 16734
4075 20992
4076 9422
4077 4378
4077 6027
4078 9416
4079 5071
4079 6107
4079 6750
4079 10314
4080 13077
4080 13582
4080 15259
4080 16980
4080 22556
4080 22691
4081 6328
4081 10159
4081 21067
4082 4180
4082 5131
4082 6728
4082 7511
4082 9125
4082 10264
4082 11583
4082 11707
4082 12473
4082 22696
4083 9151
4083 10939
4083 11656
4083 16422
4083 19862
4083 20687
4083 20688
4083 20689
4084 4636
4084 5720
4084 6719
4084 9224
4084 12348
4084 12880
4084 18707
4084 19524
4084 21428
4084 21884
4084 23269
4084 23595
4085 18372
4086 14498
4087 5857
4087 8722
4087 17086
4087 18089
4088 7529
4088 10357
4088 10735
4088 13629
4088 19921
4089 12324
4089 12365
4089 20593
4090 4784
4090 4799
4090 7512
4090 12579
4090 17878
4091 8249
4091 8452
4091 9355
4091 15043
4092 9086
4092 13588
4092 13639
4092 14566
4092 21408
4093 11025
4093 23982
4094 8059
4094 15329
4094 22795
4095 9917
4096 4402
4096 8857
4096 13870
4096 18166
4097 4680
4097 20847
4097 23515
4098 13918
4098 14234
4098 21849
4099 6141
4099 9844
4099 10574
4099 14640
4100 10501
4100 23932
4100 24216
4101 15300
4101 17280
4101 17480
4101 17531
4102 22281
4102 23284
4103 5923
4103 13601
4103 14395
4103 15428
4103 16737
4103 19064
4103 20632
4104 8710
4104 11103
4104 15658
4104 18964
4105 8288
4105 8865
4105 9927
4105 12970
4105 15616
4105 17736
4105 17737
4105 21176
4105 21496
4105 21877
4106 7209
4107 6782
4107 13266
4107 15217
4107 17738
4107 19947
4107 21360
4107 22009
4108 7422
4108 17263
4109 4283
4109 12892
4109 19122
4109 22297
4110 13250
4110 20651
4111 4293
4111 12551
4111 23938
4112 7212
4112 8134
4112 24414
4113 7139
4113 9041
4113 11020
4113 14145
4114 9975
4114 15240
4115 5051
4115 8379
4115 10088
4115 10423
4115 10433
4115 11750
4115 20702
4116 10914
4116 14154
4116 21616
4117 7521
4117 11013
4117 13307
4117 16616
4117 17069
4117 17223
4117 18767
4117 22142
4117 22245
4117 23714
4117 24182
4117 24383
4117 24409
4117 24473
4118 16805
4118 21209
4118 22315
4119 18548
4119 22852
4120 7846
4120 7908
4120 13965
4121 14973
4121 23138
4122 4930
4122 7284
4122 10760
4122 23888
4123 7100
4123 9551
4123 19066
4123 20417
4124 6643
4124 12557
4124 24206
4125 10806
4125 13008
4125 16291
4126 7588
4126 18732
4127 7757
4127 9800
4127 12791
4127 17285
4127 18126
4127 18405
4128 4970
4128 13962
4128 18932
4129 9314
4129 9631
4129 10633
4129 13716
4129 14776
4129 17615
4129 18903
4129 22934
4130 9167
4130 9310
4130 9388
4130 15841
4130 18498
4130 20798
4131 4396
4131 8330
4131 13254
4131 17522
4131 18344
4132 5532
4132 14099
4132 20924
4132 23352
4133 23689
4133 24266
4134 4232
4134 5313
4134 6416
4134 9734
4134 13086
4134 17849
4134 19352
4135 9577
4135 14909
4135 16296
4135 18095
4135 18272
4135 19385
4136 5678
4136 6385
4136 6489
4136 7041
4136 7119
4136 7816
4136 9097
4136 14912
4136 17053
4136 18876
4136 20265
4136 20406
4137 5423
4137 5516
4137 6967
4137 14452
4137 21677
4138 7598
4138 12336
4138 14570
4139 9835
4139 15376
4139 19729
4139 22125
4140 7038
4140 8570
4141 9833
4141 14325
4141 14326
4142 16791
4142 22110
4142 22488
4142 23054
4143 9035
4143 12037
4143 12429
4143 16867
4144 21274
4145 10613
4145 13933
4145 18631
4146 12276
4146 16537
4146 21874
4146 22597
4147 4863
4147 14264
4147 20800
4148 4258
4148 5435
4148 12213
4148 15586
4148 19441
4148 22751
4149 8383
4149 16933
4149 22473
4150 12516
4150 21257
4151 16624
4151 16768
4151 17447
4151 18632
4152 13870
4152 20107
4153 5743
4153 6167
4153 7764
4153 8144
4154 14486
4154 18900
4154 22053
4155 7977
4155 21556
4156 13291
4156 17528
4156 17585
4156 19565
4157 4816
4157 6534
4157 19148
4157 23369
4158 5889
4158 9115
4159 18054
4159 23497
4160 13416
4160 22729
4161 5593
4161 5810
4161 7764
4162 5553
4162 12120
4162 13210
4162 15648
4163 7626
4163 23375
4164 7090
4164 10642
4164 14850
4164 24335
4165 5328
4166 11966
4167 5549
4167 9217
4167 16565
4167 21838
4167 22999
4168 5181
4168 5957
4168 18995
4168 19408
4168 21017
4168 23959
4168 24029
4168 24225
4169 12000
4169 12898
4169 19310
4170 10644
4170 10986
4170 11617
4170 12864
4170 13864
4170 14210
4170 21437
4171 6704
4171 8564
4171 17804
4171 20526
4172 12549
4172 20216
4172 21624
4173 5099
4173 14225
4173 19063
4174 6067
4174 8290
4175 7266
4175 21783
4176 8169
4176 19103
4176 20328
4176 22532
4177 7871
4177 9626
4177 11297
4177 24452
4178 9880
4178 13207
4178 15360
4179 8439
4179 8655
4179 9192
4179 11686
4179 13130
4179 17793
4180 7511
4180 10264
4180 22696
4181 5186
4181 6862
4181 9241
4181 22178
4182 8082
4182 10034
4183 9242
4183 10880
4184 9220
4184 19687
4185 6358
4185 9270
4185 9271
4186 12202
4186 23970
4186 24434
4186 24460
4187 6994
4187 13176
4187 16719
4187 18421
4187 18938
4187 23212
4188 9190
4188 21371
4188 23987
4188 24112
4189 5459
4189 7184
4189 23503
4189 24299
4190 8062
4190 11795
4190 16771
4190 21688
4191 5025
4191 13286
4191 15092
4191 16248
4191 17266
4192 4426
4192 21496
4192 23564
4193 7815
4193 9694
4193 18918
4193 21152
4194 5228
4194 6125
4194 6644
4194 7719
4194 11630
4194 11826
4194 12560
4194 14035
4194 14329
4194 15320
4194 16079
4194 18152
4194 20321
4195 6830
4195 7525
4195 7831
4195 9503
4195 10631
4195 12033
4195 13170
4196 11056
4196 12047
4196 15201
4196 22298
4197 6092
4197 12693
4198 6328
4198 10159
4198 11624
4198 11688
4198 20812
4199 5994
4199 8507
4200 7271
4201 12007
4201 23701
4201 24072
4201 24444
4202 9034
4202 11233
4202 14133
4202 14932
4202 19035
4203 5191
4203 7089
4205 4903
4205 10393
4205 11069
4205 11780
4205 20955
4206 9285
4206 19931
4206 20098
4206 23076
4207 4662
4207 4941
4207 5541
4207 5843
4207 6004
4207 6432
4207 10762
4207 12740
4207 16948
4207 16981
4207 17248
4207 19377
4207 19722
4207 20110
4207 23457
4208 17946
4208 20996
4209 12303
4209 14486
4209 18900
4210 5257
4210 5589
4210 8880
4211 11446
4211 17895
4212 5820
4212 23380
4213 8026
4213 11199
4213 17687
4213 21593
4214 9815
4214 10245
4214 22904
4215 8070
4215 8135
4215 20550
4215 20716
4216 4850
4216 8231
4216 9639
4216 15913
4216 20963
4217 8616
4217 9495
4217 12720
4218 11100
4218 16571
4218 18679
4218 19428
4219 7284
4219 10760
4219 23888
4220 6745
4220 10048
4220 10682
4220 14027
4220 21630
4220 21825
4220 22067
4220 23277
4220 23301
4221 8079
4221 10189
4221 17652
4221 19287
4221 21670
4222 7888
4222 8156
4222 12391
4222 13166
4222 18781
4223 5277
4223 8309
4223 12345
4223 19065
4223 24071
4224 8133
4224 13602
4224 18423
4225 16527
4225 24163
4226 10942
4226 14804
4226 19382
4226 22352
4227 14141
4227 20503
4228 8173
4228 23028
4229 4505
4229 17794
4229 17809
4230 11291
4230 19166
4231 8056
4231 9115
4231 16143
4231 21106
4232 6416
4232 9734
4232 13537
4232 17849
4233 5680
4233 13391
4234 14405
4234 15646
4235 4284
4235 4345
4235 4401
4235 4558
4235 13137
4235 13246
4235 15531
4235 16126
4235 18043
4235 19518
4235 19911
4235 20664
4236 7231
4236 12652
4236 20245
4236 21135
4236 21353
4236 22797
4236 23333
4237 8148
4237 18914
4237 19165
4237 21656
4238 6420
4238 7244
4238 11495
4238 11496
4238 19608
4239 7679
4239 10608
4239 17632
4239 18672
4239 22769
4239 23528
4240 6458
4240 9489
4240 14831
4241 4242
4241 7376
4241 12248
4241 13026
4241 13027
4241 13923
4241 20395
4242 7376
4242 13026
4242 13027
4242 18922
4242 20395
4243 5925
4243 6473
4243 10563
4243 14565
4243 15897
4243 16245
4243 17044
4243 20182
4243 21481
4244 6444
4244 7624
4244 9288
4244 13779
4244 16559
4244 17326
4244 17373
4244 17482
4244 18500
4244 20042
4244 23436
4245 4886
4245 23899
4245 23900
4246 13119
4246 16572
4246 18248
4246 18759
4246 19080
4247 5912
4247 7000
4247 8474
4247 10347
4247 13181
4247 22849
4248 8773
4248 13957
4249 18954
4250 5543
4250 9876
4250 10168
4250 11991
4250 16075
4250 16077
4250 17840
4251 5230
4252 12988
4252 17398
4253 8120
4253 9698
4253 11586
4253 11654
4253 12895
4253 13109
4253 14884
4253 15240
4253 15650
4253 20473
4253 20838
4253 21910
4253 22689
4254 4637
4254 10004
4255 9679
4255 13340
4255 23938
4255 24102
4256 10500
4256 11149
4256 22285
4256 23623
4257 4886
4257 7149
4257 24067
4257 24361
4258 10912
4258 19025
4258 19441
4258 22751
4259 7529
4259 15167
4259 19921
4260 12303
4260 12735
4260 12897
4261 4614
4262 11658
4262 16433
4262 23306
4262 23326
4263 11545
4263 18984
4264 5320
4264 7577
4264 10120
4264 17094
4265 14553
4265 18219
4265 22543
4266 10725
4266 11251
4266 17868
4267 5371
4267 6495
4267 7816
4267 13218
4267 18876
4268 4616
4268 23796
4268 24303
4269 4368
4269 5391
4269 5487
4269 8760
4269 11111
4269 14558
4269 17197
4269 17913
4269 20957
4269 22767
4270 8709
4270 9951
4270 10879
4270 11173
4270 18377
4270 22326
4271 5252
4271 7465
4271 11456
4271 15054
4271 16902
4271 20158
4272 21656
4272 23465
4273 15615
4273 17698
4273 20537
4274 14297
4275 6415
4275 19403
4276 20896
4277 6847
4277 7122
4277 16724
4277 19498
4277 22223
4278 12495
4278 14642
4278 16309
4278 17268
4278 22535
4279 18462
4279 19768
4279 23729
4280 5532
4280 21256
4280 23352
4281 5757
4281 10322
4281 18168
4281 18814
4282 4487
4282 4715
4282 6450
4282 10956
4282 13321
4282 14484
4282 22296
4283 12737
4283 22297
4284 4345
4284 5659
4284 9436
4284 13246
4284 14174
4284 15531
4284 20643
4284 21934
4285 8100
4285 16486
4285 17243
4286 4289
4286 9221
4286 21432
4286 21778
4286 23857
4286 24098
4286 24345
4287 12284
4287 12451
4287 20820
4287 22870
4288 6318
4288 7544
4288 12270
4288 23665
4288 23671
4288 23765
4288 23872
4288 23970
4289 11477
4289 12615
4289 13325
4289 20392
4289 21778
4289 22201
4289 22382
4289 22441
4289 23017
4289 24098
4290 4291
4290 14269
4290 19457
4290 24427
4291 24164
4292 4525
4292 7398
4292 9180
4292 14454
4292 16766
4292 21032
4292 22884
4292 23969
4292 24474
4293 6052
4293 6120
4293 7212
4293 7412
4293 7871
4293 8093
4293 8134
4293 9626
4293 10400
4293 10515
4293 11297
4293 11452
4293 13191
4293 14007
4293 20712
4293 21841
4293 24134
4293 24452
4293 24486
4294 11328
4294 18796
4295 7712
4295 10106
4295 19855
4296 6226
4296 14124
4296 15142
4296 16294
4296 21285
4297 5634
4297 10206
4297 14418
4297 14890
4297 23749
4298 10005
4298 19399
4299 13171
4299 14986
4299 17544
4300 9366
4300 10425
4300 10557
4300 23542
4301 8895
4301 9807
4301 21831
4301 24031
4301 24094
4301 24439
4302 6328
4302 23053
4303 6471
4303 7296
4303 11987
4304 7619
4304 7761
4304 17786
4305 4556
4305 15052
4306 15121
4306 16819
4306 19834
4307 5033
4307 12391
4307 12719
4307 13166
4307 14874
4307 18398
4307 18418
4307 18781
4307 18861
4307 22093
4307 23149
4308 6848
4308 14332
4308 18736
4309 5890
4309 9213
4310 6093
4310 7344
4310 7976
4310 9630
4310 9921
4310 12100
4310 19758
4310 21278
4310 23023
4311 4507
4311 7862
4311 10283
4311 12407
4311 18228
4313 5553
4313 11619
4313 15648
4314 10762
4314 16948
4314 17248
4314 20110
4315 4624
4315 4643
4315 5757
4315 10826
4315 13396
4315 14150
4316 19304
4316 19305
4317 4361
4317 6094
4317 9637
4318 11869
4318 12162
4318 21818
4318 23914
4319 4544
4320 4361
4320 6094
4321 4361
4322 4680
4322 9637
4322 17189
4322 17190
4322 17428
4322 19056
4322 20848
4322 22118
4323 8909
4324 7501
4324 15770
4324 17971
4325 13119
4325 16572
4325 18248
4325 19080
4326 12356
4326 18286
4326 18375
4326 18998
4327 8782
4327 20361
4328 7864
4328 12263
4328 22313
4329 11060
4329 12763
4329 15327
4329 16374
4329 18339
4329 22660
4330 9038
4330 9866
4330 11861
4331 5251
4331 5776
4331 20008
4331 20650
4331 21681
4332 5889
4332 7073
4332 7356
4332 17071
4332 21455
4333 5543
4333 17842
4333 19710
4334 7409
4334 10532
4334 11459
4334 17366
4335 19318
4335 20107
4335 21658
4336 13685
4336 14858
4337 11144
4337 11516
4337 14090
4337 14689
4337 15086
4337 15087
4337 20763
4337 23268
4338 5213
4338 8557
4339 7047
4339 22858
4339 23103
4340 9085
4340 23726
4340 24030
4341 15145
4341 19381
4342 7705
4342 9315
4342 20573
4343 6401
4343 23735
4344 8042
4344 9851
4344 10971
4344 11034
4344 13971
4344 17765
4344 21187
4345 4558
4345 13246
4345 15531
4346 8930
4346 9211
4346 23949
4347 5141
4347 5142
4347 5263
4347 5957
4347 6100
4347 6139
4347 7056
4347 7405
4347 10212
4347 10286
4347 12247
4347 13705
4347 13706
4347 17574
4347 18533
4347 21573
4347 22161
4347 22711
4347 23068
4347 23617
4347 23618
4347 23669
4347 23750
4347 23822
4347 24213
4347 24344
4347 24371
4347 24402
4347 24456
4348 6944
4348 14751
4349 4776
4349 14486
4349 15516
4350 6098
4350 6868
4350 13882
4350 14724
4350 20495
4351 4510
4351 6960
4351 14797
4352 5317
4352 9002
4352 16591
4352 17756
4353 18317
4353 18978
4353 19799
4353 23262
4354 6389
4354 9512
4354 24359
4354 24393
4355 5213
4356 8608
4356 10405
4356 12081
4356 13677
4357 4740
4357 7177
4357 23653
4358 13758
4358 15947
4358 21297
4358 22234
4358 22463
4359 4886
4359 12043
4359 24378
4360 5197
4360 16194
4360 18631
4360 22365
4361 8829
4361 20004
4362 5124
4362 5341
4362 5900
4362 11264
4362 15422
4363 23728
4363 24225
4364 4417
4364 4933
4364 7491
4364 8216
4364 18878
4364 22839
4364 24012
4364 24328
4364 24355
4364 24446
4364 24449
4364 24450
4364 24489
4365 11120
4365 14094
4365 15174
4365 16754
4365 21735
4366 4911
4366 23915
4366 24004
4367 19772
4368 5391
4368 8760
4369 5329
4369 12580
4369 14373
4369 19842
4369 20066
4369 22253
4370 4613
4370 20476
4371 16501
4371 17913
4372 6282
4372 16615
4372 17331
4372 18201
4372 20845
4372 21580
4373 5558
4373 13301
4373 13875
4373 15834
4373 21229
4374 4529
4374 11077
4374 13365
4375 15689
4375 19509
4375 20657
4376 6146
4376 6169
4376 8909
4376 24392
4377 6401
4377 23812
4378 6051
4378 8023
4378 21770
4379 7010
4379 7596
4379 9446
4379 10091
4379 10183
4379 11648
4379 12775
4379 14209
4379 16261
4379 17915
4379 18260
4379 19294
4379 21836
4380 6213
4380 8362
4380 12272
4380 23428
4381 5198
4381 17360
4382 8766
4382 16528
4382 17501
4382 18514
4382 19484
4383 5127
4383 9786
4383 13617
4383 15569
4383 16907
4383 20702
4383 21173
4383 22235
4384 9261
4384 15988
4384 18379
4384 18837
4384 22943
4385 8180
4385 13148
4385 21911
4386 5889
4386 7559
4386 9115
4387 11782
4387 12219
4387 22048
4388 6222
4388 14554
4388 17432
4389 6372
4389 8197
4389 16346
4389 19313
4389 20767
4390 15315
4391 11413
4391 12531
4391 22339
4392 5083
4392 5730
4392 8386
4392 9352
4392 21704
4393 5889
4393 6035
4393 7581
4393 13427
4393 20744
4393 22091
4394 6034
4394 11295
4394 16191
4395 4797
4395 5631
4395 6854
4395 7400
4395 9347
4395 10003
4395 10710
4395 15008
4395 17121
4395 17639
4395 17667
4395 21231
4395 23754
4396 6657
4396 17386
4396 17447
4396 18632
4396 19364
4397 6543
4397 7558
4398 20107
4399 8082
4399 9175
4399 14159
4399 21988
4400 4841
4401 7072
4401 19911
4402 4618
4402 4683
4402 4735
4402 5250
4402 5278
4402 5312
4402 5705
4402 5725
4402 5817
4402 5872
4402 5878
4402 5883
4402 5898
4402 6152
4402 6472
4402 6976
4402 7725
4402 7971
4402 8364
4402 8623
4402 8857
4402 9139
4402 9300
4402 9309
4402 9397
4402 9802
4402 9916
4402 10112
4402 10210
4402 10226
4402 10439
4402 10686
4402 10915
4402 11353
4402 11536
4402 11726
4402 11767
4402 11982
4402 12346
4402 12373
4402 12529
4402 12697
4402 13216
4402 13244
4402 13544
4402 13870
4402 13949
4402 14151
4402 14328
4402 14335
4402 14617
4402 14701
4402 14877
4402 14910
4402 14977
4402 15351
4402 15499
4402 15559
4402 15636
4402 16081
4402 16330
4402 17125
4402 17138
4402 17275
4402 17371
4402 17503
4402 17957
4402 17967
4402 18134
4402 18523
4402 19105
4402 19288
4402 19336
4402 19371
4402 19387
4402 19527
4402 19852
4402 20061
4402 20206
4402 20438
4402 20464
4402 20610
4402 20656
4402 20681
4402 21510
4402 21578
4402 21602
4402 21662
4402 21990
4402 22127
4402 22373
4402 22432
4402 22725
4402 23091
4402 23143
4402 23200
4402 23232
4402 23359
4402 23369
4402 23392
4402 23540
4403 5395
4403 8030
4403 10025
4403 14376
4403 20304
4404 8528
4404 9766
4404 21034
4404 23138
4405 5392
4405 6584
4405 8014
4405 9681
4405 12600
4405 12934
4405 13508
4405 15785
4405 17550
4405 21801
4405 23148
4406 4466
4406 10878
4406 12044
4406 14048
4406 18992
4406 20380
4407 9647
4407 16975
4408 14670
4408 21257
4409 9630
4410 6297
4410 12195
4410 13956
4410 19311
4410 19703
4410 21629
4411 9042
4411 22403
4411 22852
4412 7977
4412 10053
4412 18898
4413 22592
4413 22904
4414 9569
4414 21673
4415 5177
4415 8299
4415 9158
4416 15738
4416 21077
4416 21308
4417 24447
4417 24449
4418 12729
4418 15182
4419 14136
4419 19803
4420 15527
4420 20258
4421 13623
4421 18234
4422 10740
4422 10934
4422 23312
4422 24400
4423 4431
4423 4432
4423 4433
4424 4425
4424 4426
4424 4430
4424 4432
4424 4433
4424 4434
4425 4431
4425 4432
4425 4433
4426 4429
4426 4432
4426 4433
4426 5458
4426 5950
4426 9577
4426 19925
4427 13605
4427 22212
4428 10893
4428 17992
4429 4432
4429 9982
4429 23244
4430 4433
4431 4433
4431 6340
4431 19925
4432 4433
4432 4434
4432 5950
4432 6340
4432 15631
4433 4434
4433 5533
4433 6340
4433 9982
4433 10179
4433 10859
4433 15123
4433 19925
4435 4713
4435 9555
4435 22529
4436 5197
4436 7671
4436 13641
4436 13844
4436 15208
4436 18287
4436 18382
4436 20941
4436 21412
4436 23852
4437 5737
4437 8978
4437 10291
4437 11195
4437 17220
4438 9554
4438 11365
4438 13339
4440 12290
4440 23781
4440 24084
4440 24225
4441 23786
4441 23999
4441 24053
4442 7654
4442 12146
4442 16204
4442 17351
4442 18656
4443 8440
4443 10409
4443 16175
4443 18571
4443 20584
4443 23131
4444 6311
4444 9731
4444 9732
4444 10099
4444 11657
4444 12921
4444 13514
4445 11233
4445 16947
4445 20608
4446 7913
4446 8019
4446 17630
4446 21047
4446 21681
4446 21820
4447 4448
4447 7474
4447 12238
4448 7220
4448 7474
4448 10801
4448 11591
4448 12238
4448 13089
4448 13721
4448 13799
4448 16017
4448 19112
4448 19756
4448 20066
4449 5587
4449 22237
4450 7663
4450 11412
4450 12999
4450 16316
4451 10550
4451 12830
4451 16636
4451 17383
4452 7095
4452 11847
4452 21929
4453 4455
4453 12705
4453 16837
4453 20775
4454 12705
4454 20358
4455 5535
4455 5536
4455 20358
4456 5562
4456 16836
4456 18823
4456 18824
4456 18825
4457 7243
4457 13234
4457 18822
4457 22133
4458 6055
4458 6237
4458 10905
4458 24055
4458 24433
4459 20897
4459 24326
4460 7938
4460 12223
4460 16402
4460 17221
4461 5646
4461 9491
4461 13385
4462 4790
4462 8786
4462 10916
4462 12731
4462 13594
4462 18222
4462 20710
4462 23616
4463 5088
4463 12924
4463 15803
4463 18262
4464 5724
4464 9828
4464 13959
4464 17910
4465 5113
4465 5353
4465 6504
4465 6623
4465 9146
4465 11920
4465 12738
4465 22757
4465 23237
4466 8166
4467 8857
4467 9300
4467 21673
4468 11488
4468 13624
4468 14310
4468 20887
4468 24090
4469 6930
4469 12303
4469 18900
4470 5083
4470 6029
4470 7108
4470 11605
4471 10846
4471 14797
4471 18078
4472 12726
4473 6067
4474 7008
4475 6402
4475 8387
4475 11255
4476 6996
4476 12971
4476 20137
4477 5399
4477 8601
4477 11628
4477 12826
4477 15996
4478 4826
4478 16612
4479 8828
4479 17820
4479 18287
4479 18631
4479 19564
4479 21270
4479 22365
4480 7772
4480 24083
4481 5529
4481 6867
4481 18321
4481 21920
4481 24016
4481 24452
4482 4895
4482 13722
4483 5593
4483 10064
4483 15357
4483 19638
4483 20454
4484 17935
4485 5793
4485 7875
4485 9002
4485 11342
4485 11371
4485 12279
4485 13150
4485 13429
4485 14741
4485 15066
4485 16001
4485 17078
4485 17402
4485 17647
4485 17763
4485 17796
4485 17810
4485 17918
4485 22511
4486 6014
4486 11531
4486 16276
4486 21551
4487 6462
4487 8699
4487 9665
4487 9857
4487 11827
4487 13000
4487 13912
4487 14484
4487 20368
4487 21445
4488 5729
4488 21658
4488 22216
4489 5802
4489 7346
4489 7347
4489 7348
4489 7349
4489 18347
4489 22593
4489 23166
4490 4615
4490 6261
4490 7889
4490 11330
4490 22743
4491 7311
4491 9100
4491 17687
4491 21593
4492 9513
4492 15096
4492 17391
4492 19536
4492 22807
4493 8804
4493 24158
4494 4701
4494 11847
4494 14152
4494 21929
4495 6171
4495 6234
4495 17333
4495 18852
4496 5501
4497 5213
4497 5746
4497 13267
4498 4940
4498 5902
4498 15604
4498 18282
4499 10090
4499 15100
4499 22349
4500 21576
4501 6181
4501 10385
4501 12444
4501 13104
4501 14356
4501 14500
4501 14574
4501 17004
4501 18785
4501 21595
4501 23040
4502 5776
4502 20650
4502 21681
4503 12714
4504 12922
4504 14826
4504 17698
4504 20868
4505 9105
4505 16436
4505 17809
4506 8524
4506 14193
4506 20558
4506 22614
4507 10283
4507 13889
4508 16871
4508 17704
4509 6153
4509 7436
4509 8203
4509 10320
4509 10637
4509 10676
4509 13049
4509 13463
4509 15455
4509 16631
4509 20286
4509 20449
4509 23644
4510 7776
4510 10657
4510 15162
4510 23267
4511 6824
4511 7281
4511 12021
4512 14311
4513 5863
4513 10751
4513 11354
4513 15335
4513 16020
4513 19746
4513 20230
4513 20911
4513 21930
4513 22341
4513 23181
4514 14692
4515 10121
4516 6473
4516 14565
4516 17044
4517 14688
4517 15679
4517 22557
4518 6515
4518 10614
4518 17625
4518 18821
4518 19811
4519 9575
4520 5616
4520 5801
4520 6583
4520 9768
4520 14504
4520 18406
4520 19039
4521 19674
4522 13870
4522 16535
4522 20107
4523 7051
4523 8337
4523 9220
4524 6508
4524 7893
4524 9829
4524 11882
4524 17149
4524 19063
4524 23411
4525 24339
4526 12845
4526 13702
4526 15310
4527 12454
4527 13538
4528 5046
4528 6171
4528 8054
4528 8250
4528 12468
4528 14051
4528 15576
4528 16824
4529 11634
4529 14075
4529 19717
4529 23242
4530 9866
4530 17299
4530 17508
4530 17985
4531 5085
4531 6468
4531 19588
4531 23811
4532 8780
4532 15072
4532 17649
4532 20115
4533 23856
4533 24113
4533 24114
4533 24115
4533 24426
4534 10041
4534 13738
4534 14433
4534 15471
4534 22059
4534 22969
4535 4866
4535 20093
4535 20207
4536 11357
4536 18375
4536 18998
4537 6926
4537 13465
4537 21560
4538 5436
4538 5804
4538 5905
4538 17277
4538 21702
4539 8091
4539 11555
4539 12421
4539 16653
4539 17605
4539 19888
4539 20372
4539 21754
4540 7000
4540 8689
4540 9000
4540 9995
4540 10835
4540 12301
4540 12792
4540 13001
4540 13181
4540 13378
4540 14657
4540 15109
4540 18930
4540 19273
4540 22849
4540 23547
4540 23898
4541 6737
4541 7502
4541 8128
4541 16490
4541 18974
4541 22281
4541 23526
4542 21020
4543 5654
4543 6383
4543 10639
4543 10712
4543 14290
4543 14463
4543 17620
4543 19260
4543 20696
4543 21391
4544 12202
4544 17295
4545 5510
4545 14612
4545 15437
4545 18742
4545 20261
4546 10627
4546 19431
4546 21090
4547 4549
4547 13571
4548 10004
4548 16416
4548 18355
4548 19040
4549 13571
4549 14288
4549 15114
4550 6709
4550 7359
4550 8813
4550 9859
4550 10702
4550 11087
4550 14476
4550 14552
4550 19434
4550 20554
4550 20857
4550 20866
4550 22671
4551 6259
4551 9571
4551 12075
4551 19180
4551 19370
4552 6100
4552 8529
4552 17192
4552 23952
4552 24271
4553 5491
4553 7102
4553 13821
4553 15363
4553 15726
4553 22381
4553 23289
4554 8868
4554 19705
4554 24221
4555 4883
4555 23928
4555 24078
4556 5745
4556 7592
4556 8020
4556 8591
4556 8871
4556 11252
4556 14412
4556 14970
4556 15105
4556 15398
4556 15729
4556 16155
4556 16385
4556 16579
4556 22578
4556 22820
4557 8800
4557 14585
4557 21593
4558 13246
4559 6581
4559 9037
4559 9865
4560 5823
4560 10576
4560 13468
4560 15612
4560 23387
4561 4743
4561 9693
4561 19022
4561 21834
4562 5177
4562 8299
4562 9482
4562 10565
4562 20552
4563 8518
4563 19060
4563 20786
4563 21337
4563 21644
4564 11906
4564 19201
4564 20002
4564 21108
4565 9827
4565 15890
4565 19215
4566 5290
4566 7888
4566 21760
4567 10481
4567 13128
4567 15128
4567 19339
4568 5205
4568 15734
4568 18253
4569 5256
4569 5916
4569 18006
4570 5582
4570 10903
4570 19489
4571 9820
4571 16432
4571 19096
4571 23034
4572 10893
4572 17305
4573 20018
4573 20022
4573 20026
4573 20028
4573 20030
4573 20031
4573 20032
4574 4866
4574 5018
4574 5313
4574 6023
4574 18255
4575 9388
4575 20798
4576 20771
4576 22894
4577 6883
4577 12966
4577 17211
4578 17566
4578 23258
4579 12587
4579 17819
4579 19669
4580 5416
4580 9273
4580 9274
4580 11115
4580 22693
4580 24187
4581 5667
4581 5951
4581 6281
4581 8091
4581 11555
4581 12856
4581 17502
4581 21754
4582 11702
4582 13903
4582 17365
4582 18994
4582 23056
4583 7000
4583 10347
4583 13181
4583 22849
4584 6853
4584 8213
4584 13557
4584 17462
4585 7888
4585 8156
4585 12391
4585 13166
4586 14658
4586 15817
4587 6260
4587 10561
4588 4935
4588 8019
4588 8611
4588 18732
4589 12213
4589 14778
4589 15054
4590 11778
4590 20342
4590 23440
4591 12437
4592 4593
4593 14231
4593 20856
4593 23338
4594 20856
4594 23338
4595 9207
4595 12790
4595 19640
4596 5648
4596 8166
4596 13500
4596 14048
4596 17893
4597 9827
4597 16510
4598 23704
4599 10192
4599 11378
4599 14518
4599 22080
4600 5436
4600 5905
4601 10470
4601 12214
4601 13988
4602 9120
4602 13489
4602 17117
4602 22478
4603 5439
4603 12723
4603 14706
4603 15239
4604 11761
4604 12188
4604 12604
4604 14990
4604 19077
4604 19417
4604 21509
4604 22882
4605 17179
4605 22904
4606 7055
4606 7288
4606 8185
4606 11096
4606 14006
4607 10512
4608 8539
4608 23317
4609 16812
4609 21414
4610 6769
4610 10125
4610 11156
4610 13814
4610 14780
4610 16896
4610 22824
4611 8417
4611 12145
4611 13701
4611 18413
4612 12730
4612 13603
4612 14953
4613 8118
4613 8608
4613 9864
4613 10405
4613 12081
4613 15341
4613 20476
4614 7743
4614 18720
4614 24254
4614 24284
4615 5413
4615 5617
4615 5731
4615 6456
4615 9508
4615 9960
4615 11330
4615 11692
4615 18165
4615 18840
4615 19844
4616 9180
4616 11979
4616 15138
4616 22331
4616 23795
4616 24303
4616 24484
4617 16875
4617 18284
4617 20250
4617 22748
4617 24220
4618 15351
4619 4634
4619 6722
4619 6774
4619 7142
4619 7823
4619 10142
4619 10328
4619 11398
4619 13440
4619 13906
4619 15060
4619 15176
4619 19374
4619 20998
4619 21272
4619 22346
4619 22789
4619 23597
4620 8019
4620 13227
4620 19997
4620 21199
4621 4878
4621 7769
4621 14837
4621 21486
4621 23056
4622 12666
4622 16427
4622 22416
4622 22624
4623 22465
4624 5757
4624 14347
4625 14538
4625 19576
4625 21556
4626 6111
4626 7768
4626 23912
4626 23992
4627 7804
4627 7814
4627 18059
4627 18485
4627 23224
4628 7804
4628 7814
4628 13763
4628 23224
4628 23226
4629 12879
4629 18996
4629 19318
4630 9417
4630 20569
4631 11112
4631 12034
4631 13311
4631 22629
4632 6513
4632 15040
4632 15400
4632 16259
4633 8869
4633 18376
4634 7784
4634 10716
4634 13440
4635 6355
4635 17883
4635 20678
4635 21999
4635 22231
4636 6719
4636 12348
4637 10004
4638 4639
4638 9920
4638 10194
4638 15086
4638 15087
4638 17103
4638 21296
4639 15086
4639 15087
4640 10294
4640 13365
4640 22176
4641 5654
4641 8159
4641 13155
4641 19260
4641 21975
4642 18998
4642 23100
4643 13270
4643 15584
4643 19110
4644 11093
4644 14002
4644 18350
4645 9114
4645 9321
4645 23281
4646 5107
4646 10269
4646 13426
4646 16327
4647 11236
4647 13292
4647 15980
4648 9869
4648 14132
4649 5102
4649 13281
4649 16072
4649 22505
4649 23204
4650 5102
4650 5104
4650 16072
4650 17943
4650 18107
4650 20324
4650 20432
4650 23204
4651 20152
4651 23407
4652 6719
4652 10245
4652 18908
4652 19590
4653 5418
4653 12614
4653 14546
4653 23870
4653 24124
4653 24414
4654 8528
4654 18061
4654 21234
4655 16944
4655 17513
4655 18436
4655 20456
4656 5045
4656 7820
4656 8072
4656 10776
4656 15077
4656 22692
4656 22854
4657 9126
4657 11902
4657 15183
4657 15940
4657 22379
4658 8656
4658 9408
4658 9412
4658 21955
4659 23913
4659 24062
4660 14049
4660 15061
4661 7877
4661 9577
4661 13373
4661 14154
4661 14292
4661 19257
4661 21154
4661 21352
4662 5541
4663 16961
4663 17698
4664 9847
4664 12262
4664 18843
4664 22816
4665 6850
4665 8049
4665 16545
4665 17845
4665 18774
4665 19149
4665 20142
4665 22686
4665 23594
4666 19973
4666 20566
4667 8631
4667 12633
4667 17028
4668 6163
4668 7064
4668 7439
4668 20976
4668 22659
4669 6096
4669 18663
4669 18807
4669 23223
4670 10325
4670 16982
4670 18309
4670 22160
4671 6473
4671 14565
4671 15502
4671 16245
4672 21326
4673 5553
4673 11619
4673 15126
4673 15648
4674 4958
4674 5133
4674 12635
4674 14705
4674 22942
4675 4821
4675 5380
4675 14345
4675 19248
4676 6530
4676 9814
4676 17162
4677 10762
4677 17248
4678 11507
4678 15278
4679 6857
4679 7790
4679 7909
4679 16310
4679 16894
4680 5280
4680 7611
4680 8515
4680 8830
4680 9637
4680 9695
4680 10044
4680 11963
4680 13032
4680 13074
4680 13668
4680 14263
4680 15568
4680 16850
4680 17189
4680 17370
4680 17428
4680 17599
4680 17611
4680 18057
4680 18373
4680 18374
4680 18591
4680 18620
4680 19056
4680 19171
4680 19172
4680 19173
4680 19174
4680 19556
4680 20140
4681 8023
4681 9798
4681 21190
4682 9777
4682 17249
4682 18369
4683 13870
4683 19986
4684 13472
4685 21780
4685 22996
4686 11699
4686 12742
4686 14853
4686 16394
4687 14059
4687 15844
4688 13275
4688 14059
4688 14902
4688 14903
4688 15844
4688 19956
4689 9211
4689 24297
4689 24457
4690 5805
4690 8290
4690 16340
4690 22138
4691 7456
4691 14670
4691 21257
4691 21660
4692 7237
4692 13023
4693 9886
4693 14621
4693 17583
4693 22890
4694 5790
4694 8358
4694 16226
4694 17260
4695 9447
4695 9920
4695 17118
4695 21294
4695 22364
4695 22366
4695 22367
4695 23371
4696 9644
4696 15057
4696 17012
4696 22457
4697 5688
4697 7042
4697 10058
4697 18504
4697 20694
4697 21698
4698 9650
4698 10119
4698 13838
4698 14009
4698 15019
4698 15316
4699 9380
4699 14311
4699 16506
4699 17882
4699 18801
4699 19216
4700 9585
4700 13470
4700 18114
4701 4843
4701 5433
4701 5847
4701 6151
4701 7095
4701 7942
4701 9061
4701 9421
4701 9611
4701 9996
4701 10116
4701 10132
4701 10218
4701 10707
4701 11817
4701 12897
4701 13372
4701 14152
4701 14959
4701 15818
4701 16005
4701 16467
4701 16969
4701 17410
4701 17885
4701 18567
4701 18919
4701 18960
4701 20383
4701 20674
4701 20757
4701 21226
4701 21450
4701 21732
4701 22716
4701 22756
4701 23574
4702 6527
4702 11494
4703 10061
4703 10234
4703 12196
4703 16109
4703 16609
4703 20294
4703 21080
4703 21855
4704 7743
4704 24284
4705 5875
4705 11704
4705 16285
4706 6284
4706 7205
4706 9046
4706 13129
4706 15756
4707 4708
4707 5837
4707 7640
4707 24166
4708 4709
4708 23802
4708 24309
4709 5837
4709 7218
4709 24279
4709 24309
4710 5187
4710 6090
4710 6333
4710 24007
4711 10795
4711 11621
4711 14577
4711 18631
4712 6714
4712 10639
4712 10712
4712 10775
4712 13155
4712 15493
4712 15727
4712 17838
4712 18016
4712 21975
4713 8176
4713 9843
4713 10951
4713 17068
4713 21222
4713 22529
4714 17216
4714 17602
4714 19889
4715 5632
4715 13354
4715 22296
4716 5394
4716 14514
4716 22021
4717 7184
4717 23503
4717 24299
4718 7184
4718 23503
4718 24177
4718 24299
4719 7593
4719 16769
4719 17713
4719 18547
4720 6723
4720 8150
4720 13783
4720 14197
4720 15367
4720 20100
4720 22392
4720 23950
4720 24061
4720 24205
4720 24410
4721 4883
4721 23928
4722 4723
4723 6788
4723 12179
4724 5839
4724 9074
4724 12347
4724 13513
4724 14654
4724 14979
4724 15388
4724 17984
4724 20594
4724 20852
4724 22062
4724 22150
4724 23253
4725 9611
4726 5063
4726 14833
4726 18962
4727 7651
4727 10046
4727 23878
4728 22097
4728 22914
4729 7789
4729 8290
4729 10743
4730 10503
4730 15306
4730 22735
4730 22904
4731 16942
4731 18550
4731 19637
4732 7732
4732 19071
4732 23273
4733 6530
4733 12989
4733 17162
4734 8458
4734 9560
4734 13879
4734 17887
4735 16192
4735 16476
4735 16631
4735 18939
4735 21736
4736 6697
4736 14104
4736 16835
4737 9286
4737 16355
4737 18954
4738 8607
4738 15256
4738 19478
4738 24432
4739 10051
4739 13880
4740 7177
4740 7200
4741 5841
4741 5884
4741 6832
4741 23772
4742 8034
4742 14651
4742 15130
4743 5489
4743 7844
4744 7980
4744 15134
4744 18594
4744 19554
4745 5544
4745 13603
4746 9316
4746 10958
4746 17764
4747 7113
4747 7401
4747 8686
4747 18402
4748 5328
4749 14369
4749 15300
4749 17480
4749 22475
4749 23943
4750 9739
4750 14390
4751 13706
4751 13891
4751 24167
4751 24459
4752 10571
4752 20667
4753 8272
4753 12789
4753 19308
4754 4986
4754 8124
4754 8416
4754 10706
4754 11194
4754 11455
4754 22384
4755 5191
4755 5317
4755 23413
4756 10029
4756 10115
4756 10252
4756 11309
4756 12465
4756 13829
4756 14276
4756 16120
4756 21171
4756 22492
4756 22775
4756 22874
4757 5510
4757 7505
4757 8165
4757 13613
4758 8750
4758 11611
4758 12700
4758 15683
4758 17415
4758 19147
4758 21623
4758 22941
4759 11134
4759 23857
4759 24241
4760 8684
4760 11078
4760 11739
4760 17159
4760 17176
4760 22609
4762 5036
4762 5232
4762 6628
4762 9154
4762 11350
4762 12206
4762 12643
4762 13076
4762 13095
4762 13674
4762 13964
4762 19115
4762 19502
4762 20192
4762 21397
4762 21924
4762 23447
4763 11134
4763 23856
4763 23954
4763 24424
4764 19501
4764 20072
4766 9920
4766 22364
4766 22367
4767 5464
4767 16921
4768 6254
4768 6577
4768 13920
4769 9053
4769 12926
4769 17361
4770 7401
4770 8686
4770 18991
4771 6178
4771 10520
4771 15810
4771 15979
4771 16923
4771 23690
4772 5302
4772 6860
4772 12497
4773 8019
4773 8615
4773 19997
4774 6401
4774 11842
4774 23735
4775 12749
4775 16630
4775 22371
4776 9441
4776 15318
4777 11981
4777 12538
4777 13984
4777 17821
4777 19016
4777 19045
4777 20023
4778 10080
4778 11157
4778 14318
4778 21401
4778 23126
4779 24076
4780 6665
4780 12356
4781 7130
4782 5541
4782 17248
4783 9471
4783 13870
4783 21085
4784 12579
4784 19347
4785 12289
4785 24225
4786 5653
4786 8657
4786 10705
4786 15995
4786 21958
4787 9920
4787 17118
4787 23371
4788 7619
4788 7761
4788 11804
4788 17786
4788 22334
4789 5349
4789 5505
4789 6110
4789 10998
4789 13111
4789 14135
4789 15552
4789 20164
4789 21425
4789 21922
4789 23070
4790 6038
4790 6172
4790 7813
4790 8786
4790 8832
4790 8946
4790 10483
4790 10805
4790 10916
4790 11250
4790 12731
4790 13594
4790 13696
4790 15386
4790 17345
4790 17781
4790 18222
4790 18711
4790 18795
4790 20710
4790 21233
4790 21686
4790 23616
4791 12405
4791 13993
4791 23423
4792 7929
4792 11058
4792 12003
4792 12020
4792 13520
4792 14069
4792 14786
4792 16186
4792 18815
4792 19222
4792 20260
4792 22120
4793 7151
4793 7172
4793 8990
4793 9246
4793 12597
4793 19211
4793 19619
4793 20726
4793 20825
4793 21725
4794 8223
4794 8531
4794 20591
4795 10689
4795 23691
4796 8855
4796 10068
4796 12913
4796 16432
4796 16968
4796 19096
4797 17639
4797 21254
4798 4804
4799 6190
4799 12579
4799 16646
4799 16661
4799 17878
4799 19347
4800 23615
4801 5327
4801 5968
4801 8916
4801 9539
4801 14148
4801 16350
4801 22825
4802 13639
4802 16585
4803 9100
4803 11861
4803 12633
4804 4806
4804 4807
4805 4809
4806 5980
4806 16642
4806 21378
4807 5592
4807 5980
4807 6540
4807 14248
4807 15778
4807 16642
4807 19448
4807 20469
4807 21378
4807 22241
4807 23222
4808 14248
4808 21378
4809 7934
4809 13183
4809 13873
4809 14647
4809 14650
4809 14988
4809 15013
4809 15452
4809 15594
4809 18274
4809 20102
4809 22316
4809 22317
4809 22524
4810 5592
4810 14648
4810 14649
4810 15778
4811 5059
4811 10893
4811 12797
4812 7180
4812 22894
4813 8039
4813 8123
4813 9016
4813 11082
4813 11672
4813 21303
4813 22644
4813 22653
4813 23168
4814 13907
4814 23292
4815 6857
4815 7909
4815 14860
4815 16310
4815 19827
4816 6534
4816 7586
4816 11376
4816 11541
4816 24479
4817 5344
4817 13135
4817 23321
4817 23804
4818 6179
4818 16926
4818 19141
4818 21804
4818 22017
4819 20903
4819 21952
4819 24178
4820 4990
4820 11261
4820 17843
4820 21145
4821 5380
4821 6338
4821 7402
4821 9339
4821 9889
4821 10089
4821 10173
4821 10195
4821 11301
4821 11528
4821 12858
4821 13458
4821 14374
4821 15299
4821 18687
4821 19281
4821 21769
4821 21779
4821 22573
4821 22815
4821 23849
4822 5377
4822 9263
4822 11121
4822 12956
4822 13272
4823 11047
4823 21530
4823 23276
4824 5913
4824 6920
4824 17225
4824 19506
4825 5516
4825 21677
4825 21739
4826 4830
4826 8111
4826 9925
4826 14249
4826 15582
4826 15649
4826 16612
4826 17526
4826 19535
4826 20842
4826 21634
4826 23386
4827 6067
4827 8290
4827 13122
4828 10614
4828 18821
4828 19811
4829 12243
4829 21309
4830 16612
4831 6980
4831 24138
4832 11210
4833 5001
4833 18474
4833 23424
4834 7426
4835 6992
4835 7993
4835 11387
4836 9193
4836 18192
4836 18254
4836 19552
4837 7879
4837 24177
4837 24322
4838 8417
4838 8848
4838 10329
4838 18263
4838 20586
4839 4888
4839 12939
4840 18028
4841 8863
4841 9737
4841 10622
4841 10623
4841 14740
4841 15243
4841 15955
4841 16177
4842 19353
4842 21344
4843 7585
4843 8147
4844 8668
4844 12905
4844 21636
4845 5935
4845 8918
4845 9932
4845 10602
4845 11311
4845 12226
4845 17207
4845 17417
4845 18677
4845 22226
4845 23544
4846 10045
4846 19406
4846 19999
4847 7815
4847 9694
4847 13251
4847 14309
4847 16772
4847 18918
4847 21015
4847 21152
4847 21719
4847 23153
4848 9874
4848 10018
4848 22894
4849 12735
4850 8231
4850 9639
4850 13333
4850 15913
4850 20963
4851 6233
4851 7117
4851 13200
4851 15351
4851 20924
4852 7647
4852 8050
4852 8834
4852 9938
4852 9983
4852 10324
4852 11908
4852 12277
4852 12800
4852 13943
4852 23960
4852 24304
4852 24305
4852 24333
4853 13441
4853 14387
4853 20585
4853 22435
4853 23081
4854 5732
4854 6666
4854 19552
4854 21289
4855 9868
4855 12507
4856 5784
4856 13725
4856 16439
4856 19720
4857 10476
4857 14621
4857 23002
4858 13364
4858 17353
4858 17860
4858 18943
4859 9726
4859 10246
4859 14196
4859 17341
4859 19272
4860 6007
4860 6286
4860 24157
4861 7622
4861 19332
4861 23683
4862 9215
4862 24379
4863 9936
4863 14264
4864 9469
4864 11331
4864 13102
4864 21666
4864 23521
4865 6155
4865 7468
4865 7469
4865 8806
4865 16524
4866 5018
4866 5313
4866 6023
4866 11803
4866 15606
4866 16803
4866 18238
4866 18255
4866 20093
4867 6805
4867 8368
4867 12939
4867 15748
4867 18389
4869 5724
4869 9828
4869 13153
4869 13959
4869 17910
4870 8681
4870 12679
4870 20404
4871 6459
4871 9075
4871 10780
4871 12711
4871 19225
4871 22749
4871 22891
4872 11504
4872 16578
4872 19026
4872 23769
4873 5970
4873 21107
4874 11224
4874 11636
4874 15152
4874 18399
4874 18494
4874 20564
4875 7418
4875 11676
4875 15796
4875 18835
4875 20246
4875 20962
4875 22933
4876 24032
4876 24328
4876 24446
4877 10018
4877 20771
4878 7769
4878 23056
4879 11811
4879 17361
4879 21438
4880 11428
4880 12618
4880 16203
4880 22043
4880 24248
4881 4883
4881 6978
4881 24154
4882 9739
4882 14098
4882 14390
4882 15694
4882 20685
4882 24003
4882 24395
4883 7918
4883 9182
4883 9235
4883 22238
4883 23698
4883 23855
4883 23928
4883 24064
4883 24154
4884 13273
4884 22741
4885 12079
4885 19745
4885 21437
4886 5818
4886 6858
4886 9374
4886 12043
4886 22509
4886 23899
4886 24252
4887 7029
4887 9225
4887 13014
4887 18051
4887 21674
4888 15143
4888 18389
4889 11957
4889 14808
4889 22044
4890 11634
4890 13365
4890 22176
4891 18723
4891 22906
4891 23681
4892 15868
4892 18193
4893 5309
4893 5446
4893 6246
4893 12931
4893 13494
4893 14877
4893 16509
4893 21057
4894 5632
4894 6450
4894 7554
4894 13354
4894 22296
4895 11131
4895 12600
4896 5339
4896 6533
4896 7211
4896 11112
4897 11302
4897 12232
4897 13048
4897 20513
4898 8138
4898 13055
4898 17719
4898 21441
4899 8202
4899 9338
4899 12900
4899 13665
4899 17259
4900 10751
4900 12138
4900 15335
4900 20230
4901 5279
4901 8097
4901 13353
4901 21194
4902 6089
4902 9187
4902 10529
4902 12746
4902 17479
4902 21854
4902 23508
4903 7353
4903 11780
4903 11890
4903 20231
4904 16768
4904 17447
4904 18632
4904 20973
4905 5369
4905 8638
4905 9353
4905 14339
4905 15403
4906 5005
4906 19346
4907 12010
4907 24202
4907 24340
4908 5181
4908 11444
4908 23952
4909 20237
4909 20266
4909 22589
4910 6052
4910 6558
4910 8137
4910 9273
4910 10224
4910 10650
4910 13191
4910 19282
4910 24429
4911 6389
4911 8083
4911 10585
4911 23799
4911 23915
4911 24026
4911 24243
4911 24372
4912 6043
4912 13305
4912 14904
4912 15886
4912 16912
4913 12897
4914 24421
4915 7871
4915 23713
4915 24292
4916 8330
4916 8789
4916 9973
4917 5616
4917 17596
4918 18998
4918 23100
4919 6917
4919 18256
4920 7037
4920 9111
4920 13472
4920 21493
4921 8534
4921 16458
4922 8534
4922 10103
4922 11321
4922 16458
4922 20359
4923 8211
4923 10232
4923 11319
4923 21201
4923 23026
4924 8718
4924 8929
4924 9200
4924 10765
4924 11629
4924 13275
4924 17492
4924 17688
4924 18778
4924 18985
4924 23506
4925 7486
4925 8717
4925 20254
4926 10465
4926 14122
4926 20639
4927 12159
4928 15641
4928 15642
4928 15643
4928 15644
4928 15647
4929 5723
4929 12378
4929 13132
4929 17525
4929 17896
4929 18855
4930 5542
4930 5584
4930 7284
4930 8672
4930 10885
4930 16418
4930 16654
4930 18587
4930 19541
4930 23102
4931 12571
4931 17830
4931 22140
4932 10680
4932 18828
4933 24355
4933 24450
4934 8026
4934 21614
4935 5515
4935 6961
4935 7291
4935 7847
4935 7864
4935 8611
4935 9028
4935 9092
4935 9509
4935 9790
4935 9924
4935 10078
4935 10097
4935 10697
4935 11316
4935 11568
4935 11695
4935 11708
4935 11728
4935 12104
4935 12143
4935 12263
4935 12322
4935 12799
4935 13167
4935 13356
4935 13614
4935 13670
4935 13732
4935 14223
4935 14667
4935 14673
4935 15504
4935 16507
4935 16828
4935 16992
4935 17785
4935 18086
4935 18385
4935 19318
4935 19997
4935 21746
4935 22064
4935 22313
4935 22354
4935 22490
4935 22542
4935 22606
4935 23438
4936 11446
4936 18502
4936 18521
4936 20699
4936 23912
4936 24436
4937 5121
4937 8221
4937 16220
4937 21880
4938 5902
4938 18282
4938 20896
4939 11523
4939 12519
4939 17911
4941 10762
4941 16948
4941 17248
4941 20110
4942 7756
4942 11049
4942 13368
4942 17276
4942 20596
4942 23490
4942 23538
4943 5939
4943 9068
4943 12182
4943 17281
4943 18791
4943 20546
4943 21379
4943 22018
4944 8714
4944 9672
4944 10759
4944 20531
4944 22344
4945 5277
4945 24071
4946 6624
4947 11861
4947 15991
4947 17687
4948 15087
4948 22431
4949 9053
4949 16650
4949 23358
4950 5759
4950 9420
4950 12838
4950 20948
4951 8062
4951 11795
4951 16771
4951 21688
4951 23243
4952 11931
4952 12176
4952 23803
4953 6188
4953 20646
4954 8226
4954 9370
4955 8656
4955 9011
4955 9531
4955 16708
4955 22179
4956 6799
4956 11348
4956 15257
4956 21906
4957 7125
4957 10447
4957 12001
4957 21295
4958 12635
4958 14705
4958 22942
4959 8426
4959 8546
4959 9550
4959 10706
4959 11951
4959 14275
4959 19517
4959 22283
4959 23147
4960 7712
4960 19855
4961 6045
4961 15805
4961 17234
4961 21398
4962 7504
4962 13655
4962 16606
4963 6231
4963 11002
4963 12674
4963 23266
4964 5964
4964 13347
4964 14518
4964 22770
4965 12046
4965 13295
4966 7565
4966 9237
4966 16952
4966 22747
4967 11047
4967 15987
4967 17050
4967 23230
4968 8930
4968 12175
4968 23721
4968 24034
4968 24083
4969 5995
4969 6719
4970 7297
4971 21245
4971 21683
4972 6347
4972 7027
4972 11045
4972 12454
4972 13538
4972 16905
4972 17847
4972 18590
4972 19548
4972 20492
4972 20504
4972 22094
4972 23545
4973 20218
4974 14877
4975 7827
4975 15238
4975 17560
4975 22555
4975 22828
4976 12510
4976 22010
4976 23510
4977 11134
4977 23854
4977 23856
4977 23954
4978 5561
4978 9354
4978 15285
4979 8204
4979 10503
4979 19824
4979 22904
4980 13617
4980 15569
4980 20702
4981 4982
4981 7221
4981 24282
4982 6158
4982 7221
4982 10785
4982 16225
4982 21099
4983 8857
4983 10555
4983 13870
4984 14266
4985 9923
4985 11636
4985 13697
4985 14460
4985 15784
4985 16757
4985 18494
4985 19464
4985 22911
4986 8124
4986 11248
4986 12851
4987 8019
4987 21681
4987 21820
4988 19770
4988 21923
4989 16768
4990 13243
4990 14773
4990 15898
4991 5879
4991 21650
4992 5063
4992 7198
4993 21556
4994 16278
4994 17438
4994 22713
4995 5174
4995 6555
4995 20219
4996 9591
4996 12903
4996 12905
4996 21636
4997 5277
4997 23787
4997 23915
4998 5882
4998 12372
4998 12459
4998 13018
4998 21476
5000 5505
5000 6566
5000 20164
5001 7744
5001 11170
5001 18474
5001 19850
5001 21659
5001 22466
5002 5486
5002 22786
5003 5636
5003 10030
5003 17521
5004 13054
5004 14548
5005 8664
5005 14238
5005 18217
5005 23246
5006 11540
5006 17541
5007 8290
5007 13122
5007 22138
5008 23301
5009 5099
5010 12523
5010 12943
5010 18886
5011 8067
5011 9476
5011 11894
5011 16678
5011 18042
5011 18492
5011 22159
5012 7434
5012 18415
5013 7733
5013 12580
5013 14556
5014 7464
5014 13335
5015 6729
5015 8472
5015 8727
5015 10420
5015 10931
5015 11067
5015 16228
5015 16617
5015 19143
5015 21186
5016 7215
5016 12977
5016 17538
5016 20089
5017 17472
5017 21635
5017 22315
5018 9378
5018 11962
5018 15497
5018 18255
5018 18660
5018 19967
5018 20093
5019 7587
5019 16455
5019 19040
5020 7355
5020 15156
5021 10411
5021 15696
5021 17494
5021 23653
5022 8297
5022 10049
5022 18160
5022 23542
5023 11165
5023 14245
5023 20995
5023 22761
5023 22831
5024 11165
5024 11172
5024 14245
5024 20995
5024 22761
5024 22831
5025 13286
5025 15092
5025 15547
5025 15563
5025 16248
5025 17266
5025 24306
5027 6984
5027 11448
5027 23439
5028 12303
5028 18900
5028 22053
5029 24054
5030 5031
5030 5561
5030 13154
5030 22520
5031 5561
5031 9716
5031 11035
5031 13154
5031 15285
5032 8946
5032 13045
5032 13696
5032 14302
5032 18441
5032 18711
5032 20058
5032 20921
5033 7292
5033 9132
5033 18861
5034 5811
5034 9741
5035 6520
5035 11127
5035 12299
5035 17105
5036 21805
5037 6719
5037 10245
5037 10571
5037 18908
5038 5177
5038 8299
5039 5701
5039 7987
5039 11063
5040 18846
5040 19586
5041 21455
5042 6135
5042 10026
5042 13448
5042 19125
5043 8055
5043 8604
5043 10571
5043 19227
5043 20096
5044 11545
5044 19043
5044 19712
5045 22088
5046 9252
5046 17333
5046 18852
5046 22222
5047 7362
5047 13172
5047 23798
5047 24416
5048 5318
5048 5319
5048 8538
5048 10225
5048 13729
5048 18038
5048 19213
5048 19494
5048 20210
5048 20916
5048 21069
5048 21368
5048 22500
5049 16054
5049 18031
5049 18147
5049 20510
5050 9174
5050 9656
5050 9703
5050 11203
5050 17077
5051 6132
5051 9825
5052 10152
5052 17851
5052 17951
5053 6823
5053 11697
5053 14191
5053 21358
5054 5171
5054 5470
5054 7451
5054 8512
5054 8688
5054 10779
5054 15589
5054 18982
5054 19465
5054 21006
5054 21361
5055 9112
5055 14023
5056 21865
5057 6187
5057 7182
5057 14674
5057 16473
5057 23780
5057 23862
5057 24460
5058 8414
5058 23862
5059 5368
5059 7907
5059 10893
5059 11185
5059 11779
5059 14115
5059 14312
5059 15125
5059 15372
5059 15937
5059 19573
5059 19650
5059 20184
5059 22287
5059 22549
5060 5185
5060 5996
5060 15653
5060 16655
5061 17214
5061 22056
5061 22709
5062 8231
5062 9639
5062 20963
5062 21117
5063 5340
5063 5521
5063 6792
5063 6945
5063 7394
5063 7406
5063 8084
5063 8112
5063 8353
5063 9052
5063 9429
5063 9463
5063 9822
5063 10564
5063 10833
5063 10953
5063 12342
5063 12508
5063 13123
5063 13256
5063 13380
5063 13852
5063 14079
5063 14199
5063 14208
5063 14561
5063 14833
5063 15752
5063 16640
5063 16793
5063 17456
5063 17536
5063 18049
5063 18230
5063 18327
5063 18422
5063 18962
5063 19055
5063 19359
5063 20617
5063 20704
5063 21075
5063 21128
5063 21276
5063 22418
5063 23858
5064 5951
5064 8458
5064 11555
5064 13879
5065 7972
5065 16561
5066 13333
5066 13747
5066 20132
5066 22259
5067 23970
5067 24403
5067 24485
5068 8520
5068 12105
5068 13326
5068 19735
5068 20849
5068 21138
5068 23484
5069 14579
5069 17147
5070 7271
5070 23550
5071 6750
5071 10314
5071 17133
5071 17635
5072 7274
5072 12576
5072 13480
5072 17556
5073 11602
5073 15013
5073 15594
5073 21293
5074 11790
5074 21944
5074 21989
5075 5918
5075 13532
5076 6156
5076 9498
5076 14102
5076 15292
5076 22734
5078 9749
5078 10659
5078 13939
5078 21405
5079 6790
5079 11750
5079 16786
5079 16787
5079 20702
5080 11980
5080 22238
5080 23928
5080 24078
5083 5730
5083 6029
5083 6248
5083 9352
5083 11605
5083 12447
5083 20308
5084 9085
5084 22443
5084 23726
5084 24030
5085 6150
5085 6866
5085 7482
5085 9142
5085 9472
5085 24482
5086 6964
5086 9596
5086 12150
5086 17009
5086 19543
5086 20014
5086 20242
5086 21604
5086 23505
5087 8654
5087 10150
5087 10999
5088 5129
5088 6352
5088 8419
5088 10941
5088 11390
5088 12924
5088 12927
5088 13659
5088 14629
5088 15803
5088 17048
5088 17424
5088 17540
5089 8405
5089 16851
5090 14823
5090 15626
5090 22099
5091 10095
5091 12778
5092 5213
5092 5746
5092 8557
5092 13267
5092 19326
5093 9450
5093 12866
5093 16926
5093 19413
5094 5805
5094 8290
5094 9934
5094 22138
5095 14033
5095 15571
5095 15787
5095 15907
5095 18090
5095 18637
5095 18741
5095 19354
5095 19653
5095 22395
5095 22605
5095 22754
5096 6211
5096 9149
5096 18159
5096 23933
5097 8757
5097 11219
5097 13626
5097 16639
5097 19376
5098 12488
5098 16334
5098 19218
5098 19236
5099 6674
5099 14974
5099 16133
5100 11489
5101 5795
5101 9607
5101 12047
5101 12193
5101 15201
5102 5104
5102 15294
5102 15456
5102 16072
5102 17308
5102 17310
5102 17803
5102 17960
5102 17964
5102 18107
5102 20067
5102 23204
5102 23340
5103 7690
5103 7977
5103 21556
5104 16072
5104 17312
5104 17936
5104 17943
5104 17964
5104 18107
5104 20067
5105 10169
5105 19953
5106 7141
5106 8222
5106 8486
5106 12395
5106 16713
5106 22685
5107 7683
5107 9172
5107 9824
5107 10269
5107 16641
5107 20050
5107 21292
5107 22227
5108 8221
5109 8213
5109 8306
5109 23467
5110 12152
5110 12216
5110 13488
5110 13515
5110 15786
5110 16949
5110 17311
5110 17935
5110 22872
5111 12551
5111 21841
5112 16875
5112 19651
5112 20250
5112 22748
5112 24220
5113 9146
5113 10191
5113 22701
5113 22757
5113 23237
5114 6092
5114 8163
5114 12693
5114 13036
5114 13131
5114 15337
5114 23290
5115 15928
5115 18241
5116 6493
5116 10005
5117 13610
5117 15974
5117 16800
5117 16933
5117 20734
5117 21517
5117 22473
5118 12233
5118 13491
5118 15262
5119 9691
5119 11214
5119 12620
5120 7184
5120 7670
5120 9336
5120 11063
5121 8103
5121 8221
5122 8341
5122 18293
5122 18425
5123 9168
5123 10295
5123 18623
5123 22414
5124 7388
5124 10060
5124 14522
5124 15422
5124 15769
5124 22884
5124 23425
5124 24005
5125 6903
5125 9781
5125 11366
5126 9536
5126 24164
5126 24427
5127 13617
5127 13740
5128 6881
5128 17207
5129 6455
5129 18214
5129 21527
5130 7296
5130 8248
5130 13598
5130 16281
5130 16652
5130 20362
5130 21359
5130 23558
5131 10264
5131 11583
5131 12473
5132 5328
5132 6538
5132 18998
5132 22005
5132 22116
5133 12635
5134 8080
5134 10366
5134 10373
5134 12525
5134 15153
5134 16215
5134 16498
5134 18351
5134 19245
5135 22662
5136 11650
5136 12533
5136 15230
5136 16076
5137 5283
5137 7888
5137 13166
5138 17405
5139 6335
5139 11676
5139 12479
5140 6789
5140 24167
5140 24213
5141 6789
5141 23891
5141 24167
5142 6789
5142 7225
5142 7919
5142 8409
5142 10085
5142 13705
5142 13706
5142 13891
5142 22924
5142 23838
5142 23891
5142 24167
5142 24213
5142 24249
5142 24308
5143 13883
5143 20543
5144 21939
5144 21940
5145 9410
5145 22377
5146 8270
5146 11373
5146 20303
5147 6551
5147 22822
5148 8132
5148 12722
5148 14680
5148 20389
5149 12897
5149 15818
5150 14122
5150 18499
5151 5316
5151 11747
5151 19995
5152 10047
5152 10365
5152 10371
5152 15081
5152 24260
5153 13827
5153 14737
5154 6171
5154 7750
5154 23326
5155 9913
5155 12786
5155 17625
5155 18821
5156 9386
5156 22170
5157 10397
5157 18910
5158 5205
5158 11935
5158 20503
5159 10687
5159 11806
5159 17866
5160 9421
5160 21929
5161 6180
5161 10025
5161 13885
5161 20138
5161 23579
5162 11564
5162 16977
5162 19028
5162 20599
5163 5563
5163 17351
5164 22806
5164 22962
5164 23473
5165 5166
5165 5838
5165 6232
5165 11134
5165 23856
5165 23954
5165 24424
5165 24426
5166 6232
5166 11324
5166 11325
5166 23856
5167 5916
5167 6515
5167 7535
5167 12786
5168 17305
5169 5753
5169 6561
5169 10494
5169 12660
5169 12933
5169 13892
5169 16500
5169 16854
5170 15440
5170 17270
5171 7451
5171 8688
5171 20136
5171 21361
5172 7972
5172 9096
5173 11347
5173 13645
5173 22343
5174 6555
5174 6780
5174 9516
5174 10426
5174 10721
5174 18157
5174 20219
5175 8171
5175 14681
5175 14686
5176 5180
5176 10418
5176 23966
5176 23968
5177 6686
5177 8299
5177 9158
5177 9415
5177 9482
5177 9915
5177 12065
5177 13054
5177 13063
5177 13090
5177 16534
5177 16788
5177 17609
5177 18118
5177 20666
5177 21382
5177 21893
5177 23260
5178 5180
5178 8199
5179 5275
5179 23735
5179 24154
5180 5372
5180 8517
5180 10418
5180 11349
5180 23966
5180 23968
5181 18533
5181 23619
5181 23719
5182 5200
5182 9706
5182 13250
5183 15605
5184 6348
5184 7530
5184 15605
5185 5996
5185 6608
5185 15653
5185 19078
5186 9241
5186 22178
5187 6088
5187 11155
5187 12975
5187 16434
5187 18650
5187 20900
5188 6437
5188 7353
5188 7413
5188 9707
5188 9855
5188 10534
5188 10592
5188 11520
5188 11856
5188 14268
5188 14597
5188 15812
5188 16112
5188 16461
5188 17232
5188 17756
5188 17787
5188 21538
5189 10107
5189 10972
5189 23023
5190 21770
5191 5317
5191 6467
5191 6632
5191 7089
5191 8535
5191 8886
5191 9116
5191 9298
5191 10181
5191 10528
5191 10799
5191 11730
5191 12909
5191 12962
5191 13478
5191 13818
5191 14175
5191 14365
5191 15206
5191 16823
5191 18071
5191 18194
5191 18631
5191 19544
5191 19846
5191 20304
5191 20892
5191 21029
5191 21219
5191 22365
5191 23620
5192 6826
5192 8261
5192 13114
5192 14088
5192 19205
5193 6007
5193 8400
5193 21844
5193 24157
5194 8378
5194 11720
5194 14516
5194 15222
5194 17998
5194 23576
5195 11684
5195 17749
5196 10735
5196 11592
5196 13629
5196 19921
5197 6129
5197 6162
5197 6632
5197 9239
5197 9547
5197 10799
5197 11594
5197 13553
5197 16149
5197 16194
5197 16823
5197 17096
5197 17376
5197 18391
5197 19846
5197 20718
5197 20892
5197 21956
5197 22308
5197 22365
5197 22530
5197 23216
5197 23620
5199 15419
5200 13250
5200 21980
5201 6382
5201 6438
5201 9685
5201 18178
5202 11678
5203 6586
5203 7527
5203 9193
5203 12357
5203 13561
5203 22174
5204 11328
5204 15828
5204 17894
5204 18796
5205 6680
5205 7520
5205 8950
5205 11935
5205 12154
5205 12306
5205 12350
5205 14141
5205 14736
5205 15611
5205 15676
5205 15749
5205 16588
5205 18392
5206 5526
5206 8835
5206 17785
5207 10353
5207 16238
5207 18477
5207 19949
5207 22832
5208 6092
5208 13036
5208 18699
5209 21224
5209 21800
5209 23511
5210 5939
5210 7799
5210 13489
5210 18389
5210 19231
5211 16354
5211 19319
5212 7484
5212 11136
5212 14134
5212 16146
5212 16480
5212 20616
5212 21001
5213 5500
5213 6363
5213 8557
5213 9240
5213 11046
5213 11182
5213 11909
5213 11943
5213 13267
5213 13842
5213 14250
5213 14991
5213 20644
5213 21448
5213 22090
5213 22963
5214 7903
5214 9615
5214 13105
5214 13196
5214 13593
5214 15086
5214 18537
5214 23399
5215 9615
5215 13105
5215 18537
5215 23399
5216 23654
5216 24324
5217 12117
5217 15637
5217 18474
5217 19850
5218 19418
5218 19926
5218 22975
5219 15488
5219 17824
5220 8885
5220 9625
5220 22988
5221 5881
5221 19597
5221 21490
5222 23720
5222 24164
5222 24427
5223 5632
5223 7554
5223 7989
5223 10118
5223 11680
5223 13354
5223 14295
5223 15325
5223 15915
5223 16377
5223 17429
5223 21706
5223 22296
5224 6282
5224 16615
5224 18201
5224 20845
5224 21814
5225 22543
5226 5611
5226 13171
5226 14986
5226 20939
5227 11896
5227 13055
5227 17719
5227 20905
5228 7719
5228 10133
5228 11630
5229 7251
5229 7783
5229 11113
5229 12364
5229 14855
5229 18372
5229 19312
5229 20499
5229 22166
5229 22531
5229 22665
5229 22722
5229 22995
5230 5798
5230 6249
5230 18900
5230 21230
5230 22083
5230 22506
5231 10739
5231 23132
5231 23297
5232 13495
5233 20669
5233 23981
5233 24480
5234 10046
5234 24146
5234 24160
5234 24310
5235 6401
5235 20944
5235 23960
5235 24337
5236 5639
5236 10671
5236 11758
5237 17650
5237 17697
5237 23475
5238 5691
5238 11596
5238 19414
5238 23612
5238 24037
5239 19134
5239 22332
5240 8016
5240 10828
5240 12581
5240 15767
5240 15879
5240 17423
5240 18647
5240 18668
5240 19275
5240 19979
5240 20907
5240 22487
5240 22648
5240 23777
5240 23786
5240 23999
5240 24052
5240 24053
5240 24082
5240 24471
5241 10397
5241 18910
5242 8347
5242 9072
5242 9458
5242 9778
5243 16349
5243 21786
5243 23167
5244 6510
5244 12129
5244 12592
5244 13084
5244 14616
5244 14892
5244 15023
5244 17169
5244 17771
5244 18229
5244 18280
5244 19919
5245 12336
5245 17000
5246 12479
5246 14222
5246 15020
5246 16761
5247 19052
5248 12400
5248 18851
5248 19164
5248 21103
5248 21104
5249 8533
5249 9902
5249 15737
5249 16424
5249 20880
5250 10056
5250 10586
5250 20595
5251 5776
5251 21681
5252 7465
5252 15054
5253 8357
5253 16190
5254 9969
5254 20878
5255 5753
5255 6561
5255 8029
5255 10494
5255 12540
5255 12933
5255 16500
5255 17261
5256 12339
5257 5589
5257 8880
5257 9563
5257 23305
5257 24351
5257 24394
5257 24466
5258 19190
5259 18844
5260 14978
5260 18333
5260 23400
5260 24087
5261 6469
5261 12266
5261 15770
5261 18235
5261 19269
5261 21132
5261 23172
5262 11248
5262 20166
5263 8493
5263 23952
5263 24476
5264 5921
5264 9402
5264 23661
5264 24334
5265 9638
5265 10604
5265 11861
5265 21113
5266 6870
5266 8238
5266 9515
5266 24325
5267 5809
5267 10425
5267 15415
5267 22310
5268 5328
5268 6388
5268 18286
5268 22116
5269 6095
5269 20489
5269 21564
5269 23542
5270 7665
5270 12479
5270 15147
5272 7661
5272 8471
5272 10646
5272 11453
5272 23075
5272 23964
5272 24478
5273 6803
5273 14888
5273 16562
5274 6514
5274 10861
5274 18536
5275 8199
5275 10847
5275 11296
5275 13342
5275 17982
5275 22534
5275 23235
5275 23765
5276 15178
5276 19065
5276 23874
5277 6888
5277 8309
5277 9113
5277 12345
5277 19493
5277 23787
5277 23874
5277 24071
5278 19361
5278 23369
5279 13353
5279 14074
5279 23905
5279 23906
5280 8515
5280 17611
5280 20847
5280 23515
5281 8792
5281 22595
5281 23390
5281 23931
5282 15597
5282 17926
5283 7888
5283 10070
5283 11866
5283 11921
5283 15404
5283 16848
5283 18365
5283 21760
5283 21883
5283 22978
5284 8736
5284 8774
5284 10753
5284 12232
5284 24239
5285 5764
5285 6163
5285 7439
5285 16529
5285 19733
5285 22659
5285 22750
5286 5514
5286 10701
5286 20019
5286 20020
5286 20021
5287 18059
5287 18484
5287 23226
5288 7651
5288 10046
5288 24310
5289 8837
5289 12119
5289 15032
5289 20165
5290 7888
5290 10070
5290 11921
5290 15404
5290 16709
5290 16848
5290 17026
5290 18556
5290 21760
5290 21883
5290 22413
5291 6027
5291 8233
5291 8893
5291 8970
5291 18829
5291 20412
5291 21643
5291 21916
5291 22328
5292 15707
5292 16942
5292 18550
5293 6311
5293 14204
5294 10950
5295 9238
5296 14573
5296 21181
5296 22885
5297 9882
5297 10458
5298 7938
5298 9609
5298 10588
5298 11639
5298 12223
5298 12448
5298 12487
5298 12558
5298 13412
5298 14399
5298 16402
5298 16525
5298 17087
5298 17221
5298 20560
5298 21887
5298 24491
5299 6401
5299 11842
5299 23735
5299 24425
5300 19973
5300 21594
5301 14329
5302 10628
5302 13083
5303 9040
5303 12571
5303 17830
5304 9739
5304 14098
5304 24395
5305 6851
5305 7078
5305 9123
5305 17016
5305 18601
5305 19019
5305 20762
5306 12433
5306 20597
5306 23162
5307 14003
5307 20052
5308 13776
5308 16736
5309 12101
5309 23369
5310 10993
5311 11019
5311 16635
5311 20565
5311 23415
5312 13870
5313 6416
5313 9725
5313 9919
5313 9947
5313 10986
5313 18238
5313 20207
5314 5854
5314 7639
5314 7640
5314 23876
5315 6068
5315 7800
5315 9265
5315 10596
5315 12948
5315 15080
5315 16401
5315 17557
5315 17881
5315 21214
5316 8737
5316 11747
5317 9239
5317 13818
5317 14597
5317 15301
5317 18071
5317 18631
5317 21273
5318 19239
5318 20916
5319 17334
5320 10120
5320 16312
5320 17094
5320 22857
5320 23032
5321 10341
5321 11380
5321 11437
5321 21700
5322 6758
5322 8947
5322 13207
5322 13487
5322 15360
5323 7105
5323 10695
5323 15567
5323 22460
5324 10370
5324 10372
5324 19245
5324 23679
5325 7888
5325 8156
5325 8457
5325 18781
5326 9003
5326 17818
5326 21722
5327 7489
5327 8916
5327 13288
5327 16350
5327 19132
5328 5752
5328 6388
5328 6629
5328 7162
5328 7392
5328 7547
5328 7907
5328 9165
5328 9356
5328 9578
5328 9759
5328 10355
5328 10478
5328 10594
5328 10605
5328 10948
5328 11185
5328 11460
5328 11779
5328 11835
5328 12422
5328 12602
5328 12797
5328 13012
5328 13469
5328 13741
5328 14425
5328 14618
5328 15186
5328 15441
5328 15469
5328 15551
5328 15632
5328 15964
5328 16213
5328 16348
5328 16677
5328 17135
5328 17321
5328 17571
5328 17805
5328 17992
5328 18009
5328 18108
5328 19049
5328 19177
5328 19320
5328 20183
5328 20184
5328 20240
5328 20508
5328 20947
5328 21967
5328 22116
5328 22327
5328 22383
5328 23049
5328 23320
5328 23517
5329 14373
5329 19112
5330 9872
5330 10358
5330 20771
5331 5853
5331 13087
5331 13542
5331 16580
5332 18880
5333 18414
5333 21317
5333 24407
5334 10593
5334 21740
5335 23252
5336 13162
5336 18843
5337 5820
5337 14924
5337 16946
5337 22203
5338 7827
5338 11955
5338 15238
5338 17560
5338 22555
5339 21576
5340 6407
5340 7198
5340 12508
5340 13123
5340 14833
5340 15350
5340 17217
5340 17456
5340 18422
5340 21276
5340 21809
5340 22418
5341 8700
5341 11264
5341 20059
5342 5343
5342 5345
5342 6765
5342 24379
5343 5345
5343 6765
5344 13135
5344 23069
5344 23321
5344 23804
5344 24144
5345 9215
5345 9530
5345 24379
5346 11946
5346 14286
5346 17206
5347 12056
5347 18222
5348 15601
5348 19914
5349 6742
5349 8853
5349 18177
5350 5351
5350 8311
5351 8311
5351 9080
5351 9690
5351 11635
5351 13192
5351 15701
5351 18941
5351 20832
5351 22158
5351 23107
5351 23806
5351 24418
5351 24419
5352 9337
5352 9690
5352 11635
5352 13437
5352 14055
5352 15069
5352 15701
5352 23806
5352 23902
5352 24169
5353 6504
5353 22701
5353 22757
5354 8033
5354 9922
5354 10175
5354 11506
5355 5471
5355 9765
5355 17044
5356 11682
5356 17172
5356 17273
5356 18467
5356 21326
5357 10893
5358 7932
5359 6640
5359 9612
5359 9613
5359 9792
5359 12419
5359 14988
5359 16280
5360 8908
5360 10877
5360 13428
5360 14633
5360 18196
5360 22114
5360 22375
5360 22703
5361 15189
5361 20972
5362 9414
5362 15424
5363 9183
5363 19031
5364 23671
5364 23765
5364 24017
5365 8346
5365 13962
5365 17464
5366 7450
5366 12699
5366 17047
5367 11911
5367 14757
5367 20697
5368 22287
5369 10434
5370 8527
5370 15926
5370 21134
5371 9173
5371 15871
5371 16208
5372 12043
5372 22522
5372 24001
5372 24022
5372 24252
5373 5691
5373 7442
5373 11596
5374 8574
5374 11130
5374 15615
5375 6714
5375 12099
5375 19432
5375 20696
5376 13272
5376 14451
5377 7771
5377 8777
5377 9965
5377 13005
5377 20248
5378 8413
5378 11513
5379 16514
5380 6338
5380 7007
5380 7061
5380 9339
5380 9562
5380 9889
5380 10089
5380 10173
5380 10981
5380 11301
5380 11528
5380 12054
5380 12858
5380 13458
5380 13929
5380 14471
5380 15299
5380 17245
5380 18190
5380 19248
5380 19281
5380 21769
5380 21779
5380 22132
5380 22573
5380 22815
5380 23310
5380 23849
5381 9505
5381 22023
5381 23591
5382 7646
5382 7873
5382 18001
5382 23072
5383 20856
5384 8479
5384 10663
5384 11592
5384 15167
5384 17963
5384 20447
5384 22809
5385 11531
5385 16276
5385 21551
5386 5532
5386 19908
5386 21256
5387 6711
5387 14400
5387 16021
5387 16908
5387 18867
5388 8290
5388 13122
5388 22138
5389 9211
5389 10640
5389 22419
5390 8990
5390 11530
5390 14584
5390 20545
5391 5487
5391 12656
5391 14558
5391 17913
5391 20270
5391 20957
5391 21996
5392 17550
5393 5893
5393 10117
5393 20645
5393 22055
5394 14070
5394 14934
5395 14376
5395 18911
5395 19959
5396 16536
5396 20176
5396 22184
5396 22540
5396 22812
5397 6438
5397 18178
5397 21515
5398 8452
5398 10647
5398 20783
5398 23415
5399 11120
5399 11628
5399 12826
5399 14094
5399 15174
5399 15996
5399 16380
5400 7031
5400 12496
5400 16177
5401 6326
5401 6758
5401 8947
5401 9262
5401 10333
5401 13207
5401 13487
5401 15360
5401 17954
5401 18868
5402 8274
5402 10814
5402 15144
5402 17875
5403 15031
5403 19537
5403 19796
5403 21341
5403 22936
5404 11366
5405 8930
5405 23820
5405 24284
5406 5889
5406 8576
5406 9115
5406 13427
5407 17735
5407 17862
5407 19744
5408 7888
5408 13166
5408 14874
5408 18781
5409 5432
5409 7449
5409 7786
5409 11625
5409 13343
5409 20382
5410 8017
5410 14833
5410 15350
5410 20704
5411 8574
5411 17676
5412 8064
5412 9224
5412 10485
5412 19824
5413 5490
5413 7889
5413 8113
5413 18165
5414 6539
5414 6928
5414 8369
5414 9513
5414 12244
5414 14271
5414 19536
5414 21577
5414 21585
5414 22417
5414 22807
5415 7580
5415 15450
5415 16492
5415 23170
5416 11115
5417 5418
5417 5419
5417 5954
5417 6342
5418 5419
5418 5954
5418 14546
5418 24124
5419 5954
5419 12614
5419 24124
5420 5555
5420 6360
5420 6551
5420 7716
5420 9507
5420 9702
5420 9735
5420 11610
5420 14411
5420 15083
5420 15747
5420 19547
5420 19939
5420 20713
5420 21614
5420 23250
5421 8563
5421 10906
5421 24320
5422 11746
5422 24177
5422 24239
5423 5516
5423 18549
5423 21677
5424 7072
5424 13055
5424 17719
5424 19911
5424 21441
5425 8328
5425 8522
5425 14206
5425 14531
5426 13189
5426 18282
5427 18918
5427 19134
5427 22332
5427 22784
5428 5702
5428 16302
5429 6458
5429 7187
5430 5452
5430 6931
5430 7993
5430 9376
5430 11387
5430 14559
5430 18751
5431 13976
5431 18395
5432 7786
5432 12015
5433 12897
5433 18567
5434 5479
5434 7021
5434 18806
5434 21362
5435 10912
5435 19025
5435 22751
5436 5905
5436 19185
5437 7567
5437 18694
5438 10344
5438 15170
5438 19492
5439 14706
5440 6297
5440 16512
5441 8875
5441 10100
5441 15344
5441 21618
5442 11416
5442 12537
5442 14340
5442 17422
5442 18416
5443 7640
5443 24079
5444 12074
5444 13451
5444 13962
5444 15720
5445 6630
5445 9863
5445 10600
5445 14320
5445 16753
5445 18530
5445 19046
5446 10245
5446 10571
5446 22841
5447 12269
5447 12512
5447 15654
5448 9821
5449 9100
5449 11861
5449 12633
5450 11118
5450 11196
5450 11214
5450 12620
5450 12774
5450 13367
5450 13704
5450 23011
5451 9874
5451 13983
5451 21339
5452 6931
5452 7993
5452 9376
5453 17687
5453 21593
5454 14321
5454 18459
5454 23369
5454 24109
5455 8990
5455 11530
5455 14584
5455 19452
5456 10163
5456 22318
5457 6367
5457 16022
5457 24035
5457 24231
5458 9982
5459 11839
5459 24177
5460 20152
5460 22654
5460 23407
5461 5809
5462 5463
5462 6502
5462 17032
5463 15621
5463 17032
5463 19663
5464 9458
5464 15548
5464 17101
5464 21852
5465 6198
5465 8630
5465 10587
5465 12934
5465 14690
5465 16335
5465 17061
5465 18912
5465 23610
5466 10367
5466 15580
5466 18808
5467 8026
5467 9100
5467 10604
5467 12620
5468 8019
5469 6441
5469 10147
5469 11233
5469 12564
5469 16159
5469 17128
5469 18465
5469 23402
5470 7451
5470 8688
5470 14272
5470 18982
5471 9100
5471 10604
5471 11861
5472 5907
5472 6965
5472 16207
5473 21335
5474 19318
5474 20107
5474 21658
5475 6395
5475 9608
5475 15324
5475 16909
5476 10274
5476 12506
5477 15059
5477 19691
5477 19886
5478 18419
5479 9461
5479 14908
5479 18806
5479 19567
5480 13884
5480 15392
5480 22904
5481 10016
5481 19606
5481 20966
5482 10593
5482 16774
5483 8564
5483 12617
5483 18834
5484 7942
5484 22193
5485 7552
5485 10027
5485 17603
5486 5497
5486 6838
5486 10975
5486 11146
5486 12330
5486 14609
5486 19111
5486 21144
5487 17913
5488 10463
5488 14602
5488 20277
5489 9529
5489 19022
5490 6261
5490 7889
5490 18840
5491 15363
5491 18175
5491 19053
5491 22381
5492 9501
5492 13620
5492 17363
5493 9285
5493 19931
5493 20723
5495 9780
5495 14978
5495 18333
5495 23400
5495 23887
5496 8245
5496 8551
5496 13316
5496 17566
5496 19506
5496 20071
5497 21144
5497 22036
5497 22786
5498 5820
5498 15988
5498 22203
5499 7669
5499 7876
5499 10608
5499 23528
5500 13842
5501 6537
5501 8366
5501 8685
5501 9257
5501 10003
5501 15008
5501 16622
5501 17667
5501 18455
5501 18692
5501 19140
5501 20677
5501 23038
5502 7990
5502 8977
5502 13867
5502 17163
5502 18166
5502 20377
5502 20714
5502 23492
5503 21114
5503 22103
5504 12610
5504 16263
5504 16264
5504 18158
5504 19646
5505 6742
5505 10998
5505 11068
5505 13752
5505 13766
5505 14579
5505 15552
5505 19522
5505 19785
5505 20490
5505 20780
5505 20958
5505 21425
5505 23070
5506 17323
5507 12722
5507 15868
5507 19191
5507 22246
5508 6430
5508 7673
5508 9715
5508 10107
5508 10972
5508 16806
5508 17903
5508 18708
5509 11694
5509 13287
5510 8165
5510 10921
5510 13613
5510 16876
5510 22269
5511 8726
5511 12847
5511 15840
5511 21593
5511 21614
5511 22262
5511 22302
5511 22445
5512 11819
5512 16304
5512 19304
5513 8909
5514 20019
5514 20020
5514 20021
5516 6552
5516 14282
5516 14452
5516 21677
5516 22042
5517 9670
5517 15423
5517 16156
5517 22040
5518 11808
5518 16211
5519 9009
5519 24390
5519 24391
5520 8038
5520 11908
5520 20503
5520 20570
5521 14079
5521 18962
5522 13235
5522 14294
5523 7367
5523 8543
5523 12973
5523 13112
5523 13672
5523 13881
5523 14324
5523 15392
5523 15607
5523 15983
5523 17155
5523 21567
5524 7644
5524 14975
5524 18153
5525 7640
5526 5637
5526 5862
5526 6250
5526 7714
5526 8675
5526 8933
5526 9841
5526 9885
5526 10777
5526 11050
5526 11480
5526 11910
5526 12293
5526 12548
5526 13436
5526 13651
5526 14180
5526 17088
5526 17305
5526 17586
5526 17645
5526 18015
5526 20061
5526 20212
5526 22065
5526 22646
5526 22862
5526 23771
5527 7256
5527 9942
5527 10359
5527 10475
5527 19240
5527 19744
5528 11476
5528 12819
5528 15445
5528 19022
5528 22388
5529 24016
5529 24043
5530 10330
5530 16029
5530 17072
5530 19955
5530 20451
5530 20572
5530 21074
5530 23513
5531 10275
5531 11237
5531 16844
5531 20484
5532 10509
5532 11138
5532 14581
5532 15628
5532 19908
5532 20924
5533 9577
5533 15123
5533 15631
5533 19925
5533 21562
5533 23244
5534 21083
5534 21496
5534 22242
5535 6346
5535 20056
5536 6346
5536 6885
5536 20056
5537 6571
5537 11529
5537 13910
5537 19942
5538 6838
5538 12579
5538 15588
5539 18050
5539 20732
5539 22391
5540 13226
5540 15988
5540 19367
5541 5843
5541 6004
5541 6869
5541 16981
5541 20110
5541 23457
5542 5584
5542 5820
5542 7130
5542 7284
5542 10885
5542 12493
5542 13424
5542 14622
5542 14698
5542 15711
5542 16418
5542 22974
5543 8993
5543 9876
5543 10168
5543 10170
5543 15390
5543 16074
5543 16075
5544 13603
5544 14953
5544 19761
5545 6097
5545 7063
5545 7708
5545 8155
5545 8821
5545 14962
5545 15584
5545 17174
5545 18231
5545 20559
5545 23604
5546 7254
5546 7336
5546 19358
5546 22442
5547 9569
5547 17419
5548 6979
5548 7608
5548 8961
5548 10988
5548 11028
5548 16376
5548 19402
5548 23706
5548 24271
5549 9598
5549 12653
5549 15311
5549 15379
5549 21838
5550 9039
5550 12076
5551 5913
5551 18890
5551 21183
5551 22163
5551 22360
5552 8857
5552 21487
5552 22948
5553 5604
5553 5766
5553 6702
5553 6798
5553 7941
5553 9705
5553 10028
5553 10102
5553 11619
5553 11668
5553 11930
5553 13636
5553 14940
5553 16176
5553 17642
5553 18680
5553 19145
5553 20291
5553 20491
5553 20797
5553 21189
5553 21325
5553 22130
5553 22208
5554 5969
5554 11841
5555 10063
5555 10531
5555 11610
5555 15747
5555 21556
5555 22922
5556 23899
5556 24067
5557 17311
5558 8865
5558 13301
5558 13873
5558 13874
5558 13877
5558 15834
5558 15837
5558 15838
5558 21176
5558 21496
5558 21877
5558 22098
5559 6438
5559 8794
5559 10860
5560 10150
5560 11816
5560 17380
5560 19152
5560 20960
5560 21153
5560 23282
5561 6487
5561 6595
5561 9354
5561 11036
5561 15285
5561 21914
5561 22520
5562 13234
5562 16836
5562 18822
5562 18823
5562 18825
5562 22133
5563 5985
5563 8372
5563 14034
5563 15809
5563 19196
5563 19956
5563 21079
5563 21943
5563 22232
5563 23530
5564 14270
5564 16541
5564 23047
5566 16541
5566 23047
5567 12351
5568 6589
5568 6592
5568 15295
5568 16200
5568 17313
5568 17315
5568 17316
5568 17319
5568 19870
5569 8306
5570 5571
5570 5572
5570 8840
5570 8843
5570 10343
5571 8841
5571 8844
5571 10343
5571 12524
5572 8442
5572 8840
5572 8844
5572 10343
5572 12524
5572 18478
5573 6591
5573 13809
5573 16197
5573 16201
5573 19876
5574 6254
5575 19305
5575 20316
5575 20317
5576 7766
5577 6915
5577 17305
5578 13479
5578 13509
5578 17359
5578 21401
5579 6222
5579 10035
5579 14554
5580 21061
5580 22675
5582 10903
5582 19489
5583 7288
5583 11394
5583 11944
5583 22264
5584 7811
5584 10760
5584 15519
5585 22852
5586 5588
5586 6611
5586 8857
5586 12676
5586 15065
5586 16475
5586 19801
5586 21179
5586 22948
5587 14066
5588 6611
5588 8857
5588 9089
5588 12811
5588 15065
5588 16475
5588 18209
5588 18836
5588 21179
5588 21487
5589 8880
5589 9563
5589 24351
5589 24394
5590 8413
5590 21009
5591 10307
5591 13289
5591 15131
5591 16982
5591 17254
5592 6540
5592 15640
5592 19448
5592 21083
5593 7664
5593 7861
5593 8144
5593 16566
5594 18193
5594 19191
5595 8054
5595 14051
5595 14865
5595 19139
5595 21147
5596 5945
5596 15806
5596 18557
5596 20018
5596 20031
5596 20032
5597 6067
5597 8336
5597 9543
5597 17662
5597 22138
5598 7457
5598 12308
5598 12521
5598 17970
5598 19598
5600 8605
5600 9564
5600 16388
5600 18194
5600 18721
5601 13628
5601 13892
5601 23509
5602 11870
5602 11911
5602 14671
5602 23438
5603 5902
5603 15604
5604 11619
5605 11757
5605 11838
5605 12828
5606 7498
5606 10090
5607 23940
5607 24422
5608 15567
5608 20451
5608 22998
5609 10853
5609 11569
5609 20660
5610 14496
5610 22315
5611 13171
5611 14986
5611 17544
5612 6044
5612 7272
5612 7648
5612 16765
5613 15997
5613 16631
5614 10413
5614 19872
5615 24363
5616 6583
5616 9768
5616 12573
5616 14504
5617 7889
5617 8113
5617 18165
5618 11473
5618 16173
5619 5693
5619 7163
5619 7748
5619 12082
5619 12083
5619 23896
5619 24148
5619 24387
5620 7327
5620 11966
5620 22074
5621 6655
5621 8537
5621 8661
5621 10571
5621 12561
5621 19227
5621 19845
5622 7296
5622 21359
5622 23558
5623 9289
5624 9321
5624 23281
5625 6922
5625 18189
5625 20404
5625 22551
5626 15246
5626 18764
5626 20764
5626 22007
5627 9455
5627 13841
5627 14679
5627 15811
5627 21355
5627 21724
5628 5710
5628 12002
5628 12004
5629 11704
5629 22330
5630 6354
5630 18646
5630 19687
5631 18692
5631 21254
5632 6450
5632 7554
5632 13354
5632 21706
5632 22296
5633 7977
5634 10082
5634 12381
5634 14890
5634 19562
5634 23749
5635 9018
5635 17298
5635 22696
5636 14844
5636 15823
5636 17440
5636 17521
5636 18162
5636 19898
5637 18782
5638 10838
5638 11486
5638 18034
5639 16331
5639 16943
5639 17151
5639 21161
5640 8245
5640 8551
5640 19506
5641 8000
5641 10470
5641 12286
5641 12897
5642 8306
5642 18580
5643 12071
5643 15283
5643 23159
5644 7432
5644 17115
5644 18813
5644 19066
5644 19508
5644 20417
5644 21058
5645 7042
5645 7159
5645 12882
5645 15182
5646 6380
5646 8966
5646 9623
5646 10852
5646 12721
5646 13667
5646 15639
5646 16928
5646 18110
5646 18792
5646 21959
5646 22312
5646 23218
5647 15264
5647 15795
5647 18831
5647 19636
5647 21109
5648 17893
5649 12101
5649 14030
5649 18223
5649 20343
5650 11302
5650 18325
5650 22333
5650 23712
5651 8968
5651 12372
5651 12459
5651 12601
5651 17201
5651 21476
5652 7618
5652 22123
5653 8657
5653 10705
5653 15995
5653 21958
5653 22195
5654 12099
5654 16785
5654 20696
5655 14372
5655 17033
5655 18696
5655 21242
5656 9387
5656 10303
5656 13656
5656 22347
5657 8750
5657 11611
5657 12700
5657 17415
5657 21623
5658 6679
5658 7687
5658 14282
5658 17141
5659 9436
5659 15531
5659 21934
5660 10597
5660 14299
5660 14919
5661 9024
5661 9200
5661 13923
5661 22570
5662 7818
5662 7819
5662 7821
5662 7822
5662 12067
5663 15437
5663 20261
5664 10952
5664 12071
5665 11821
5665 17436
5665 19903
5666 9703
5666 10368
5666 14261
5666 18885
5667 5951
5667 11555
5667 17605
5668 11027
5668 13133
5668 13630
5668 15163
5668 20422
5668 22533
5669 8670
5669 11942
5669 11973
5669 16338
5669 19793
5669 20727
5670 7175
5670 19560
5671 17981
5671 19834
5671 21408
5672 19727
5672 20345
5672 22791
5673 12333
5673 20093
5674 11577
5674 11838
5674 14951
5675 14602
5675 23297
5676 6985
5676 9599
5676 10431
5676 11364
5676 14716
5676 15035
5676 15225
5676 21960
5677 6133
5677 12084
5677 18782
5678 18876
5679 5826
5679 5849
5679 7110
5679 8470
5679 14509
5679 15911
5680 9439
5680 13391
5680 13780
5680 13977
5681 7807
5681 9549
5681 13298
5681 16370
5681 16538
5681 19582
5682 7218
5682 23802
5685 5973
5685 8200
5685 17384
5686 12010
5686 24201
5686 24202
5686 24464
5687 12523
5688 15627
5688 18504
5688 21698
5689 7823
5689 19582
5690 6008
5690 12208
5690 13525
5690 15635
5690 22935
5691 6013
5691 7442
5691 8327
5691 9082
5691 9144
5691 10375
5691 11596
5691 12315
5691 19414
5691 23612
5691 23988
5691 23998
5691 24037
5692 6306
5692 9620
5692 14279
5692 15319
5692 15560
5692 22877
5692 24363
5693 23896
5693 24028
5694 11307
5694 12595
5694 19059
5694 21759
5694 22306
5695 5697
5695 8963
5695 11143
5695 11453
5695 18167
5695 23835
5695 24008
5695 24375
5696 18355
5696 20355
5696 20356
5696 21583
5697 11143
5697 11453
5697 23075
5697 23835
5697 24375
5697 24478
5698 6853
5698 8213
5698 13557
5698 17462
5699 8930
5699 24083
5699 24173
5700 7828
5700 9048
5700 14708
5700 19341
5700 20711
5701 7087
5701 9336
5701 11063
5701 17931
5703 12079
5703 15145
5703 16293
5703 20063
5704 6057
5704 6609
5704 7792
5704 15719
5704 20073
5704 22273
5705 13870
5705 14482
5705 19986
5706 6056
5706 7497
5706 8892
5706 12892
5706 14287
5706 20479
5707 7397
5707 12438
5707 22763
5708 24283
5708 24403
5709 11491
5709 14326
5709 15304
5710 11220
5710 13961
5711 7743
5711 23820
5711 24284
5712 6493
5713 9063
5713 15812
5714 5792
5714 7230
5714 7668
5714 9607
5714 12047
5714 15201
5714 16913
5714 19397
5714 20320
5714 20332
5715 20882
5716 12140
5716 13696
5716 17781
5716 20921
5716 22516
5717 5741
5717 11425
5717 15041
5717 16254
5718 9238
5718 17802
5720 6719
5720 9815
5720 12348
5721 6144
5721 6825
5721 14136
5721 14251
5721 18158
5721 18580
5721 18656
5721 19808
5721 20430
5722 6144
5722 18580
5723 12378
5723 13132
5723 14477
5723 15010
5723 17525
5723 17896
5723 18008
5723 21982
5724 8922
5724 9828
5724 13153
5725 15351
5727 8543
5728 23997
5728 24072
5728 24313
5729 7319
5729 8785
5729 16818
5729 22216
5730 7415
5730 8386
5730 9352
5730 12447
5730 16825
5731 11692
5731 22743
5732 9969
5732 15129
5732 17055
5733 9329
5733 9691
5733 14363
5733 15991
5734 9896
5734 11667
5734 23633
5734 24284
5734 24365
5735 7001
5735 7197
5735 16777
5736 10529
5736 12746
5736 23508
5737 7176
5737 8978
5737 17220
5739 21508
5739 21721
5740 8471
5740 23964
5741 13573
5741 13576
5741 15041
5741 16254
5741 17362
5741 17901
5741 20088
5742 11782
5742 12219
5742 22048
5743 7764
5743 11851
5743 14047
5744 8800
5744 14585
5744 21614
5745 8937
5745 10410
5745 22820
5746 6363
5746 8557
5746 11226
5746 11909
5746 11943
5746 12022
5746 13842
5746 14991
5746 19267
5746 19297
5746 19326
5746 22090
5746 22963
5747 7915
5747 16722
5747 17515
5748 13141
5748 18189
5748 18674
5749 12597
5749 13663
5749 14177
5749 20220
5750 14714
5750 19576
5751 8507
5751 9374
5753 21162
5754 8303
5754 9389
5754 14187
5754 21581
5754 21591
5755 5916
5755 19811
5756 15440
5756 17270
5756 20649
5756 23067
5757 11289
5757 14347
5757 19940
5757 22193
5758 11661
5758 12771
5758 18694
5759 13909
5759 22288
5760 15739
5760 22879
5761 6052
5761 8137
5761 10650
5762 12476
5762 22701
5762 23345
5763 8160
5763 24109
5763 24239
5763 24269
5764 6163
5764 6816
5764 7439
5764 22659
5764 22750
5765 10325
5765 16982
5766 11619
5766 15126
5766 15648
5766 17642
5767 10129
5767 12333
5767 14185
5767 19601
5768 9914
5768 21652
5769 9394
5769 9548
5769 14751
5769 19224
5770 8706
5770 14998
5770 17864
5770 19757
5771 7237
5771 10075
5771 10196
5771 13023
5772 6435
5772 15902
5772 17136
5772 17916
5772 18137
5772 18859
5773 7794
5773 15434
5773 18077
5774 12309
5774 13387
5774 13519
5774 20642
5774 20840
5774 20950
5775 15171
5775 17449
5775 18975
5775 19091
5776 17989
5776 18364
5776 20650
5777 12813
5777 16501
5778 7401
5778 11790
5778 18688
5778 21507
5779 5780
5779 5782
5779 8254
5779 12908
5779 12910
5779 12995
5779 15249
5779 16297
5779 18355
5779 20554
5780 10067
5780 19040
5781 16406
5781 19407
5782 6897
5782 8254
5782 11739
5782 23036
5782 23474
5783 13208
5783 15755
5784 13724
5785 12691
5785 13974
5785 17798
5785 19824
5785 20853
5786 7193
5786 8959
5786 10298
5786 13062
5786 21610
5787 6503
5787 10002
5787 13376
5787 17774
5787 17775
5787 18788
5787 18789
5787 18892
5787 19804
5788 10935
5788 13660
5788 20862
5789 7972
5789 17857
5790 6206
5790 7270
5790 22678
5791 8957
5791 15870
5791 16130
5791 23316
5792 5795
5792 7668
5792 12047
5792 14368
5792 15709
5793 12470
5793 17763
5794 20008
5794 20650
5794 21681
5795 6137
5795 6474
5795 7230
5795 8170
5795 9910
5795 10737
5795 10818
5795 11056
5795 12049
5795 12193
5795 12209
5795 12354
5795 12414
5795 13070
5795 15501
5795 15709
5795 16142
5795 16356
5795 16913
5795 16925
5795 17938
5795 19219
5795 19577
5795 19627
5795 20332
5795 20728
5795 21192
5795 21588
5795 22089
5795 23023
5795 23060
5796 6166
5796 6834
5796 7972
5796 9096
5796 9326
5796 20075
5797 5915
5797 10871
5797 21356
5797 23475
5798 6930
5798 9129
5798 9728
5798 11003
5798 11040
5798 11263
5798 12367
5798 12808
5798 13223
5798 13402
5798 13548
5798 13611
5798 13720
5798 14638
5798 15229
5798 16643
5798 17144
5798 17537
5798 17658
5798 17745
5798 18010
5798 18579
5798 18734
5798 18832
5798 19550
5798 20064
5798 21230
5798 22053
5798 22714
5798 23272
5798 23831
5799 11550
5799 23732
5799 23921
5800 6565
5800 13360
5800 13534
5800 23240
5801 11166
5801 14504
5802 7346
5802 17351
5803 13913
5803 17439
5803 20851
5803 21817
5804 13719
5804 23219
5805 11868
5805 13122
5805 22138
5806 7931
5806 10717
5806 17530
5806 17713
5806 20282
5807 7853
5807 14331
5807 15491
5807 20458
5808 8369
5808 13188
5808 15245
5808 18191
5809 6329
5809 7435
5809 7443
5809 7548
5809 8138
5809 8297
5809 8463
5809 8590
5809 9366
5809 9573
5809 10049
5809 10484
5809 10899
5809 12298
5809 12612
5809 12701
5809 12736
5809 13937
5809 14085
5809 16744
5809 17731
5809 18160
5809 18360
5809 19011
5809 20126
5809 20205
5809 21322
5809 22525
5810 7357
5810 7764
5810 8144
5810 8888
5810 10064
5810 10900
5810 14047
5810 16775
5810 21266
5811 10172
5811 12763
5811 19630
5812 5970
5812 21107
5813 7165
5813 7166
5813 10460
5813 12456
5813 12841
5813 22985
5813 23362
5813 23471
5813 24396
5814 16433
5814 23052
5814 23306
5814 23326
5815 19515
5815 23045
5816 12437
5816 12438
5816 18343
5816 20131
5817 13870
5817 19923
5818 6761
5818 8628
5818 12043
5818 18592
5818 20725
5818 24059
5818 24155
5818 24270
5818 24378
5819 17075
5819 18111
5819 21207
5819 23229
5820 6480
5820 6880
5820 7084
5820 7192
5820 7313
5820 7811
5820 8101
5820 9067
5820 9260
5820 9937
5820 10280
5820 11925
5820 12343
5820 12431
5820 12493
5820 12783
5820 13634
5820 15215
5820 15877
5820 15878
5820 16698
5820 16730
5820 17390
5820 17411
5820 17509
5820 17627
5820 19101
5820 19616
5820 20222
5820 22954
5821 11002
5821 11930
5821 23196
5821 23266
5822 7107
5822 8393
5822 19266
5823 11634
5823 13365
5823 23387
5824 17305
5825 23417
5825 24024
5826 13011
5828 17978
5828 22780
5828 22962
5829 7026
5829 18631
5829 20313
5829 22292
5829 22365
5830 22949
5831 10272
5831 13959
5831 14555
5832 10431
5832 15035
5833 16017
5833 20569
5833 23330
5833 23523
5834 12276
5834 22597
5835 7170
5835 21879
5835 22237
5836 11100
5836 11946
5836 13242
5836 22979
5837 24309
5838 6232
5838 11324
5839 13513
5839 14979
5839 20852
5840 8558
5840 8885
5840 8984
5840 9625
5840 10658
5840 11881
5840 13531
5840 21734
5841 6832
5841 23772
5841 23797
5842 5918
5842 10563
5842 13532
5842 15897
5842 20182
5842 20194
5842 23703
5843 13164
5843 17248
5843 20110
5844 12303
5844 15735
5844 16275
5844 17498
5845 10757
5845 15951
5845 19696
5845 20275
5846 17042
5846 18543
5846 20985
5846 22193
5847 7868
5847 16969
5847 20674
5848 6254
5848 6577
5848 15358
5849 7110
5849 8470
5849 14509
5850 14642
5850 16309
5850 17268
5850 22535
5851 9040
5851 17830
5852 12776
5852 14333
5853 5918
5853 13532
5854 7597
5854 23802
5855 5870
5855 19674
5856 11213
5856 12742
5856 16394
5857 6303
5857 11139
5857 12533
5857 16076
5858 12726
5858 16634
5858 20518
5859 23719
5859 23952
5860 11092
5860 23670
5861 8846
5861 11153
5861 13400
5861 18950
5861 19784
5862 8579
5862 18015
5863 12138
5863 19746
5863 20230
5863 20911
5863 21930
5864 7186
5864 15617
5864 16290
5864 18362
5865 8385
5865 8438
5865 12745
5866 12692
5866 18702
5867 16223
5867 22676
5867 23258
5868 12509
5868 14880
5868 15866
5869 11959
5869 13200
5869 16867
5870 8767
5870 11709
5870 15078
5870 15470
5870 18004
5870 22154
5871 16669
5871 21721
5872 13870
5872 23492
5873 21181
5873 22885
5874 13322
5874 21832
5875 11704
5875 13160
5875 16285
5876 11986
5876 14852
5876 15734
5876 19131
5877 7552
5877 14817
5877 17603
5879 6112
5879 14585
5879 15687
5879 21650
5880 7616
5880 10176
5880 12994
5880 13664
5880 16355
5880 21149
5880 22100
5881 14142
5881 20121
5881 21490
5882 8968
5882 12459
5882 12601
5882 21476
5883 10935
5883 23369
5884 23772
5884 23797
5885 5886
5885 5887
5885 6917
5885 14472
5885 20480
5886 5887
5886 6917
5887 6917
5887 14472
5887 17968
5888 7533
5888 8427
5888 17653
5888 20545
5888 22998
5889 5930
5889 6815
5889 7040
5889 7073
5889 7356
5889 7559
5889 8056
5889 8473
5889 8576
5889 8690
5889 9008
5889 10321
5889 12320
5889 13427
5889 13596
5889 14541
5889 17640
5889 18561
5889 19261
5889 20744
5889 21106
5889 23294
5890 6149
5890 6934
5890 9213
5890 10987
5890 15155
5890 18740
5890 19723
5890 19891
5890 22134
5891 10313
5891 10316
5891 11123
5891 12588
5891 14067
5891 19989
5891 20256
5892 8666
5892 8667
5893 10117
5893 10897
5893 22055
5894 14590
5894 15470
5894 19674
5895 6546
5895 11228
5895 14494
5895 15093
5895 21857
5896 11941
5896 12135
5897 13492
5897 22988
5898 7990
5898 17163
5899 14997
5899 19840
5899 20625
5899 21529
5899 22082
5900 6633
5900 6634
5900 24005
5901 10182
5901 12386
5901 12457
5902 6651
5902 10318
5902 12012
5902 13189
5902 14829
5902 18282
5902 20896
5902 21860
5903 6947
5903 7437
5903 9229
5903 10317
5903 11374
5903 11443
5903 13075
5903 17601
5903 21711
5903 21908
5904 5916
5905 20969
5906 10571
5906 12348
5906 20667
5907 6965
5907 8483
5907 14719
5907 16207
5907 18853
5907 21524
5908 9875
5908 14653
5909 13760
5909 21269
5910 23908
5910 24146
5910 24160
5910 24310
5911 24160
5911 24310
5912 7000
5912 13181
5912 22849
5913 8209
5913 8245
5913 9230
5913 13948
5913 16971
5913 17225
5913 18896
5913 19506
5913 20071
5913 21010
5914 7365
5914 11514
5914 12450
5914 13314
5914 13695
5914 14167
5914 14835
5914 19603
5914 19894
5915 6550
5915 10522
5915 10871
5915 17650
5915 20869
5915 21356
5915 23475
5916 6515
5916 7315
5916 9750
5916 9913
5916 10946
5916 11677
5916 12133
5916 12339
5916 12786
5916 15483
5916 16633
5916 17625
5916 17855
5916 18006
5916 18821
5916 19089
5916 19533
5916 19599
5916 19811
5916 19977
5916 21731
5917 10762
5917 17248
5918 6616
5918 8003
5918 8352
5918 8859
5918 9128
5918 9289
5918 12698
5918 13542
5918 15754
5918 16082
5918 16815
5918 18121
5918 18460
5918 20557
5918 21839
5918 22603
5918 23285
5919 12109
5919 15358
5920 10820
5920 18745
5920 19603
5921 23661
5921 23981
5921 24257
5922 9244
5922 9245
5922 16985
5922 19114
5923 13601
5923 15428
5923 16737
5924 9745
5924 19061
5924 22261
5924 23648
5924 24159
5925 16245
5925 17044
5926 9325
5926 15350
5927 18335
5927 20298
5927 20665
5928 9364
5928 13564
5929 13297
5929 13922
5929 23363
5930 6451
5930 18298
5930 18854
5931 6297
5931 16512
5931 22164
5932 6840
5932 8790
5933 11311
5933 17207
5933 17417
5934 7984
5934 24041
5934 24152
5934 24428
5935 9962
5935 14916
5935 15764
5935 16567
5935 20106
5936 8797
5936 20879
5937 16429
5938 6597
5938 9027
5938 10414
5938 14037
5939 18791
5939 20546
5940 9394
5940 13622
5940 14751
5940 18440
5940 18665
5940 19224
5941 8625
5941 10452
5941 12192
5941 12846
5941 17738
5941 20784
5941 23441
5942 13364
5942 17860
5942 18943
5942 19927
5943 13555
5943 15532
5943 23016
5944 9929
5944 12951
5944 12953
5944 12955
5944 14381
5944 17250
5945 20024
5946 7995
5946 10166
5946 21011
5946 23459
5947 9196
5947 13241
5947 13279
5947 20402
5947 22624
5948 6081
5948 11335
5948 13837
5949 13334
5949 15107
5950 9982
5951 6281
5951 8091
5951 9331
5951 9830
5951 12707
5951 12856
5951 17605
5951 19136
5951 20035
5952 6292
5952 15399
5952 21257
5953 10167
5953 11459
5953 22680
5954 24124
5955 7769
5955 20082
5955 23056
5956 6541
5956 10222
5956 12113
5956 12596
5957 12042
5957 23627
5957 24213
5957 24456
5958 13199
5958 18524
5958 19661
5959 6285
5959 9188
5959 16948
5959 17248
5959 18076
5960 6353
5960 8721
5960 16099
5960 19066
5960 20417
5960 20982
5960 21178
5960 21305
5961 7993
5961 15527
5962 13175
5962 18610
5962 19094
5962 19154
5963 9209
5963 13334
5963 15107
5963 16976
5963 20123
5964 9492
5964 13347
5964 15751
5964 16397
5964 22124
5964 22770
5965 13082
5965 14128
5965 20229
5966 13785
5966 15431
5966 15600
5966 18363
5966 19856
5966 20771
5966 21039
5967 14981
5967 16495
5968 8916
5968 12420
5968 17768
5968 20979
5968 23255
5969 9369
5969 11850
5969 19991
5970 19043
5970 20658
5970 21107
5971 10696
5971 19421
5971 19450
5972 8290
5972 10199
5972 13122
5973 8403
5973 10750
5973 11773
5973 13209
5973 16343
5973 17384
5973 18359
5973 20190
5973 21474
5973 22081
5973 22938
5973 23327
5973 23524
5974 7623
5974 8069
5974 13909
5974 19970
5975 6068
5975 9265
5975 10756
5975 12390
5975 14440
5975 14478
5975 21214
5976 6793
5976 15354
5976 16973
5977 9519
5977 9723
5977 24076
5977 24169
5978 23756
5978 24076
5978 24169
5979 9979
5979 10354
5979 11243
5979 14170
5979 18315
5980 14248
5981 17080
5981 17081
5981 21456
5981 21699
5982 9754
5982 9755
5982 11472
5982 17007
5982 20427
5983 6199
5983 10451
5983 19444
5983 24145
5984 21511
5985 6746
5985 7797
5985 14120
5986 11057
5986 12289
5986 12290
5986 24176
5987 10401
5987 19455
5988 10804
5988 11238
5988 12358
5988 12360
5988 22126
5989 12723
5989 14706
5990 11169
5991 8493
5992 12675
5992 15774
5992 17702
5992 19167
5993 10905
5993 11230
5993 11665
5993 19173
5994 6076
5994 6079
5994 8507
5994 22987
5994 23799
5995 6516
5995 7787
5995 16751
5995 21263
5996 15653
5996 19076
5997 8266
5997 9206
5997 17447
5997 18632
5998 10037
5998 18685
5999 15265
6000 7842
6000 14954
6000 15242
6000 15757
6000 18380
6000 20177
6000 20884
6000 22571
6001 12716
6001 15845
6001 20228
6002 6140
6002 10335
6002 11841
6003 8163
6003 12693
6004 12740
6004 16948
6005 17992
6006 9497
6006 11959
6006 15828
6007 6286
6007 8400
6007 8521
6007 10884
6008 12616
6008 19554
6008 22935
6009 6785
6009 7120
6009 14782
6009 17791
6010 7013
6010 8177
6010 9100
6012 21551
6013 23988
6013 24037
6014 11531
6014 16196
6014 21060
6015 7154
6015 11492
6015 12725
6015 14966
6017 11492
6017 12725
6017 14699
6017 14966
6017 16840
6018 8212
6018 10227
6018 22764
6019 10340
6019 15348
6019 15801
6019 23410
6020 14219
6020 15055
6020 15873
6020 18746
6021 7684
6021 23864
6021 24168
6022 12102
6022 21640
6023 11803
6023 15497
6023 18255
6023 18660
6023 22712
6023 22842
6024 11698
6024 23709
6024 23779
6025 12806
6025 13289
6025 17594
6025 18622
6026 7471
6026 11242
6027 11950
6027 13430
6027 22803
6028 20943
6028 22349
6028 23238
6029 6248
6030 11581
6030 11582
6030 14905
6030 15895
6030 16683
6030 16685
6030 16686
6030 16695
6030 16696
6030 23134
6032 12454
6032 17847
6033 7450
6033 11681
6033 12272
6033 17047
6034 6465
6034 7419
6034 11295
6034 12094
6034 14032
6034 18790
6034 20465
6034 20590
6035 9115
6035 21106
6036 7157
6036 11433
6036 17079
6036 17243
6036 22821
6037 10678
6037 12892
6037 22894
6038 10805
6038 12731
6039 9152
6039 11428
6039 23827
6039 24248
6040 6478
6040 9254
6040 14305
6040 14661
6040 17030
6040 19563
6040 21926
6041 8413
6041 11513
6041 18870
6041 22913
6042 19973
6042 20566
6043 7589
6043 15889
6043 16685
6043 16695
6043 16696
6043 23134
6044 7272
6044 7648
6044 15918
6045 9044
6045 10271
6045 11107
6045 12435
6045 15805
6045 15830
6045 19644
6045 21398
6046 8631
6046 11593
6046 12633
6046 17028
6046 24281
6047 17305
6047 18782
6047 20107
6048 10399
6049 22785
6050 17883
6050 22231
6051 6566
6051 8259
6051 13776
6051 15543
6051 17272
6051 18515
6052 8137
6052 8293
6052 10650
6052 11679
6052 14995
6052 22487
6052 24429
6053 18613
6053 21169
6053 22833
6054 11053
6054 23668
6055 6236
6055 24055
6055 24433
6056 7497
6056 8892
6056 12892
6057 6609
6057 7792
6057 13995
6057 24414
6058 7042
6058 15182
6058 15627
6058 16069
6058 20179
6059 11241
6059 16631
6059 23488
6060 6435
6060 9361
6060 17136
6060 18137
6061 6062
6061 7953
6061 18276
6061 19968
6061 21457
6061 23356
6061 23711
6062 7953
6062 18276
6062 19968
6062 21457
6062 23356
6062 23711
6063 10417
6063 16076
6064 17625
6064 18006
6064 18821
6065 12735
6065 18188
6066 11824
6066 14569
6066 19611
6066 19906
6066 20653
6066 21488
6067 6428
6067 6602
6067 7539
6067 9076
6067 9543
6067 9803
6067 10199
6067 10778
6067 11868
6067 11993
6067 12131
6067 12959
6067 13122
6067 14453
6067 14467
6067 14547
6067 15421
6067 15799
6067 16117
6067 16448
6067 16721
6067 17342
6067 17757
6067 18743
6067 19230
6067 19300
6067 20598
6067 21331
6067 22138
6067 22468
6067 22847
6068 9694
6068 10756
6068 12390
6069 7077
6069 9241
6069 10575
6070 6862
6070 22024
6071 8931
6071 12664
6072 21603
6072 22035
6072 22304
6073 6314
6073 6747
6073 8026
6073 8116
6073 10164
6073 10694
6073 11339
6073 13111
6073 14205
6073 15133
6073 17980
6073 18019
6073 18177
6073 21614
6074 8073
6074 10464
6074 19769
6074 23065
6075 8554
6075 15151
6075 19318
6076 6169
6077 10136
6077 11748
6077 16123
6077 23674
6077 24366
6078 11748
6078 16123
6079 6169
6079 8507
6079 13421
6079 18415
6079 18797
6079 19360
6079 24392
6080 6924
6080 9219
6080 11442
6080 18700
6080 20889
6080 22554
6080 23693
6081 7075
6081 12974
6081 13837
6081 15076
6082 17465
6082 17466
6082 17467
6083 9656
6083 9703
6083 17077
6084 6374
6084 7493
6084 14359
6084 14560
6084 16959
6085 6217
6085 6662
6085 15188
6085 17307
6086 11084
6086 22456
6086 23762
6087 15802
6087 17604
6087 23067
6088 6090
6088 11155
6088 18447
6088 24414
6089 16931
6089 18088
6089 21854
6089 23508
6090 11155
6091 7480
6091 10461
6091 10732
6091 13522
6091 16306
6091 20927
6092 7204
6092 13036
6092 17724
6092 18699
6092 21284
6093 6474
6093 7673
6093 21278
6093 23023
6094 8829
6094 8909
6094 10236
6094 11964
6094 13073
6094 23395
6095 19643
6095 20489
6095 21545
6095 23542
6096 17741
6096 23223
6097 12565
6098 6868
6098 14724
6098 17200
6099 8800
6099 21614
6101 7430
6101 9481
6101 18044
6102 23781
6102 24196
6102 24225
6103 6122
6103 6143
6103 6676
6104 10165
6105 24279
6105 24309
6106 6292
6106 21257
6106 21660
6107 10314
6107 17133
6108 7171
6108 9314
6108 13716
6108 22934
6109 8805
6109 11968
6109 18153
6110 8853
6110 18177
6111 9884
6111 23791
6111 24255
6111 24276
6112 15687
6112 21650
6113 22921
6114 6505
6114 6670
6114 7032
6114 10419
6114 23948
6114 24286
6115 8627
6115 11105
6115 11345
6115 15030
6115 15116
6115 15127
6115 17252
6115 17264
6115 18068
6116 9100
6116 15991
6116 17687
6117 15330
6117 17978
6118 7002
6118 9111
6118 11554
6119 11554
6119 16951
6120 7212
6120 11297
6120 24016
6120 24134
6121 7823
6121 11682
6121 13440
6121 18467
6122 6676
6122 9384
6122 10214
6122 16821
6122 18849
6122 24080
6123 9703
6123 17077
6123 22237
6124 9558
6124 12860
6124 13225
6124 16485
6124 19104
6124 22552
6126 15271
6126 17224
6126 22072
6127 15033
6127 19084
6127 22868
6127 23028
6128 6169
6128 23825
6129 18631
6130 8817
6130 9576
6130 11703
6130 12935
6132 9825
6132 10088
6132 10902
6132 11969
6133 12261
6134 8228
6134 10060
6134 14522
6134 15537
6134 23607
6134 23657
6134 24068
6135 10026
6135 13448
6135 18197
6136 12924
6136 15803
6136 21527
6137 11056
6137 15201
6138 7873
6138 8824
6138 18001
6138 23072
6139 23952
6139 24344
6140 8088
6140 10063
6140 11329
6140 17652
6141 6910
6141 22642
6142 13784
6142 14023
6142 22903
6143 7681
6143 9718
6143 10043
6143 13744
6143 18217
6144 14251
6144 14257
6144 14258
6144 14578
6144 15147
6144 19808
6145 11777
6145 20717
6146 12317
6146 16758
6146 23922
6147 10198
6147 13846
6147 14769
6147 14840
6147 15173
6147 18600
6147 19179
6147 20402
6148 7251
6148 8082
6148 14855
6149 6934
6149 10987
6149 11260
6150 7482
6151 12897
6151 17025
6151 18567
6152 15351
6152 19371
6153 13049
6153 15997
6153 16631
6154 10111
6154 14045
6154 14933
6154 16324
6154 20824
6154 21654
6154 21927
6155 7467
6155 7469
6155 10615
6155 18472
6156 9498
6156 14102
6156 15292
6156 22186
6156 22734
6157 8030
6157 22585
6158 7221
6158 10785
6158 13855
6158 24280
6159 6378
6159 23811
6159 24017
6159 24451
6160 7669
6160 8345
6160 17465
6161 8252
6161 8555
6161 13926
6161 15289
6161 22348
6162 15538
6162 20718
6163 6816
6163 7439
6163 10061
6163 20468
6163 22479
6163 22659
6163 22733
6165 9143
6165 16892
6165 19952
6165 22386
6166 7972
6166 11234
6166 20288
6166 21321
6166 22991
6167 6935
6167 8888
6167 10900
6167 11851
6167 16775
6168 6998
6168 11223
6169 8382
6169 10236
6169 10511
6169 10862
6169 11109
6169 12317
6169 13355
6169 18330
6169 22878
6169 22898
6169 23825
6169 23846
6169 23913
6169 24024
6169 24062
6169 24264
6169 24331
6169 24392
6170 13295
6170 15818
6171 6234
6171 6842
6171 7750
6171 8054
6171 9186
6171 11102
6171 11945
6171 12503
6171 17333
6171 18431
6171 18852
6171 21628
6171 23826
6173 18395
6174 10364
6174 10607
6174 16056
6174 18671
6174 19975
6175 8064
6175 10485
6175 10503
6175 19824
6176 7831
6176 10631
6176 11551
6176 12033
6176 13170
6177 6827
6177 21737
6178 13990
6178 19021
6178 19668
6178 22439
6179 10593
6179 16788
6179 16926
6179 19141
6180 12890
6180 13885
6180 15587
6180 17993
6180 23579
6181 11914
6181 12444
6181 14356
6181 14574
6181 17004
6181 18785
6181 21595
6182 16773
6182 19554
6182 20037
6183 16603
6183 19408
6183 21017
6183 24029
6184 6354
6184 19687
6185 11690
6185 12513
6185 13571
6186 7543
6186 22567
6186 23029
6186 23687
6187 23862
6187 23953
6188 6507
6188 9265
6188 20646
6188 20843
6189 8980
6189 9929
6189 12955
6189 17613
6189 19194
6190 12579
6190 17871
6190 19347
6191 17541
6192 10974
6192 16054
6192 19670
6193 6216
6193 9013
6193 9304
6193 10381
6193 10440
6193 20860
6193 23368
6194 14205
6194 16537
6194 20651
6194 21324
6195 6444
6195 7624
6195 9288
6195 18500
6195 20042
6195 21072
6196 7209
6196 12739
6196 16680
6196 22597
6197 23229
6197 23335
6197 23578
6198 8630
6198 9285
6198 10587
6198 12152
6198 14058
6198 17061
6199 7265
6199 7635
6199 10455
6199 19444
6199 24480
6199 24488
6200 7387
6200 9694
6200 12948
6200 18918
6201 6351
6201 6580
6201 18976
6202 8752
6202 17305
6202 18782
6203 8735
6203 10740
6204 9043
6204 11953
6204 24422
6205 8412
6205 9292
6205 10436
6205 12645
6205 23548
6206 7270
6206 8358
6206 13550
6206 16226
6207 8405
6207 11404
6207 16185
6207 16851
6207 19367
6208 11880
6208 20162
6208 20513
6209 6856
6209 10593
6209 11934
6209 12348
6209 21764
6209 22592
6210 9430
6210 12215
6210 13963
6211 16222
6211 16656
6211 17811
6211 18159
6211 23912
6212 15050
6213 7450
6213 12272
6213 17047
6214 9320
6214 14102
6215 7952
6215 16101
6215 22927
6216 11248
6216 20209
6217 6662
6217 15188
6218 7675
6219 13489
6219 22478
6220 6824
6220 11366
6220 12021
6221 6517
6221 13025
6221 18065
6221 21217
6221 21478
6221 23360
6222 7674
6222 14554
6222 17432
6222 19789
6222 21708
6222 23092
6223 13954
6223 14337
6223 17405
6223 20999
6224 6471
6224 11987
6224 14393
6225 7237
6225 10072
6225 13023
6226 9785
6226 15142
6226 17148
6227 19981
6227 20622
6228 8076
6228 9148
6228 11781
6228 17922
6228 21947
6229 11540
6229 17541
6230 7975
6230 8539
6230 23317
6231 7991
6231 8647
6231 11002
6231 11930
6231 13649
6231 14717
6231 18680
6231 19420
6231 23196
6231 23266
6232 11324
6232 23856
6233 13200
6233 15351
6234 11670
6234 17333
6235 7239
6235 24025
6235 24127
6235 24128
6236 6237
6236 10141
6236 22282
6236 23785
6236 24234
6236 24433
6237 22282
6237 23785
6237 23901
6237 24234
6237 24433
6238 6628
6238 7232
6238 9081
6238 9854
6238 11721
6238 21903
6238 23534
6239 6472
6239 8857
6240 10725
6240 11251
6240 12344
6240 17306
6240 21953
6241 11911
6241 19318
6242 8133
6243 6245
6243 14681
6244 10294
6244 11634
6245 14681
6245 14683
6246 12101
6246 23369
6247 21181
6247 22885
6248 11605
6248 13268
6249 13720
6249 18579
6249 23976
6250 11910
6250 18872
6250 20409
6251 7649
6251 13010
6251 18430
6251 20104
6252 11690
6252 12513
6252 18181
6253 14010
6253 18857
6253 19125
6254 12109
6254 15358
6254 15808
6255 6458
6255 14528
6255 20662
6256 22120
6257 12962
6257 21029
6257 23502
6258 22915
6258 22984
6259 7604
6259 7605
6259 8951
6259 9571
6259 9657
6259 10071
6259 19180
6259 19370
6259 23036
6259 23382
6260 6449
6260 7335
6260 10561
6261 8113
6261 18165
6262 15278
6262 21667
6263 8155
6263 19439
6264 12078
6264 12724
6264 16839
6264 16841
6265 8995
6265 14204
6265 14779
6265 15136
6265 16260
6266 8451
6266 9805
6266 13261
6266 13996
6267 8199
6267 8238
6267 11980
6267 23920
6267 24078
6268 7340
6268 11053
6268 11054
6268 15482
6268 22800
6269 6567
6269 6693
6269 7250
6269 9012
6269 11362
6269 11698
6269 23640
6269 23709
6269 23779
6269 23907
6270 9418
6270 16758
6271 11980
6271 24093
6271 24154
6272 17006
6272 23369
6273 10883
6273 15664
6273 21792
6274 10397
6274 17752
6274 18449
6275 13359
6275 14068
6275 16084
6275 18657
6275 21077
6276 10639
6276 10712
6277 10059
6277 13052
6277 21073
6278 6393
6278 8972
6278 10217
6278 13631
6279 15121
6279 19926
6280 6600
6280 23720
6280 24164
6280 24272
6281 8091
6281 19136
6282 16615
6282 18201
6282 21814
6283 17992
6283 19318
6283 20107
6284 7205
6284 9046
6284 13129
6285 7754
6285 17248
6285 18076
6286 8400
6286 14061
6286 21844
6287 7155
6287 8131
6287 8629
6287 12241
6287 14404
6287 23737
6287 23792
6287 23943
6287 23990
6287 24397
6287 24399
6287 24420
6288 11753
6288 11754
6288 11756
6288 23742
6289 6735
6289 11754
6289 12092
6289 23742
6290 6735
6290 7542
6290 11756
6290 24069
6291 6735
6291 7542
6291 11756
6291 23742
6292 6982
6292 12375
6292 13496
6292 14762
6292 15190
6292 16813
6292 19277
6292 20457
6292 21660
6293 14643
6293 23843
6294 7311
6294 9691
6294 13675
6295 18028
6295 20500
6295 23173
6296 6863
6296 7600
6296 12014
6296 12116
6296 14759
6296 16144
6296 16408
6296 17665
6296 19340
6296 20691
6296 23188
6297 6392
6297 11562
6297 13956
6297 19311
6297 19703
6297 22164
6298 10188
6298 12379
6298 12759
6298 18136
6298 19809
6298 20481
6299 13451
6299 13570
6299 13962
6300 9943
6300 10811
6300 10942
6300 11893
6300 14804
6300 19299
6300 19382
6300 23155
6301 7227
6301 10632
6301 10634
6301 13832
6301 15969
6301 16384
6301 17011
6301 21461
6302 9098
6302 13481
6303 16405
6304 9224
6304 10108
6304 10503
6304 19824
6305 14272
6305 16662
6306 9619
6306 24225
6306 24391
6307 6542
6307 8032
6307 8033
6307 8897
6307 8898
6307 9922
6307 9985
6307 21277
6307 23008
6308 8026
6308 21593
6309 6425
6309 6652
6309 6768
6309 7318
6309 8038
6309 8217
6309 8548
6309 9862
6309 10296
6309 10327
6309 11986
6309 12504
6309 13475
6309 13650
6309 16421
6309 18253
6309 20044
6309 20570
6309 21041
6309 21092
6310 14272
6310 16662
6310 20007
6311 8307
6311 9731
6311 13514
6312 8745
6312 10933
6312 12041
6312 15477
6312 17743
6312 23609
6313 6621
6313 15849
6313 16884
6313 19807
6314 13111
6315 6659
6315 23706
6315 23868
6315 24170
6316 10104
6316 15872
6317 12516
6317 21660
6318 11294
6318 14995
6318 15007
6318 16119
6318 19409
6318 23765
6318 24082
6318 24161
6319 19041
6319 21517
6320 8357
6320 16190
6321 12730
6321 13603
6321 14358
6321 19761
6322 7210
6322 8361
6322 17715
6322 19185
6322 23324
6323 10736
6324 7556
6324 8048
6324 10079
6324 10781
6324 13872
6324 15953
6324 18940
6325 15033
6325 19084
6325 20925
6325 22868
6326 6758
6326 13207
6326 13487
6326 15360
6327 7742
6327 11774
6327 15103
6327 23461
6328 7802
6328 10159
6328 10963
6328 11221
6328 16611
6328 21026
6328 21067
6328 21633
6328 22171
6328 23053
6329 20489
6329 23542
6330 8348
6330 8373
6330 12454
6330 13464
6330 20637
6331 9035
6331 11014
6331 11959
6332 10100
6332 15717
6332 16779
6332 18573
6333 6884
6333 11487
6333 12659
6333 18495
6333 21037
6333 23116
6333 23676
6333 23995
6333 24240
6334 10297
6334 19795
6335 7418
6335 11676
6336 8567
6336 8568
6336 11813
6336 11814
6336 17917
6336 18536
6337 8000
6337 12897
6337 21240
6338 13458
6338 19248
6339 19897
6339 20466
6340 15123
6341 24478
6342 12614
6342 24124
6343 11513
6343 19988
6343 22913
6344 8829
6344 13073
6344 23395
6345 18150
6346 6350
6346 8584
6346 8585
6346 15117
6346 16092
6346 17308
6346 17309
6348 7428
6348 15605
6348 18279
6349 22481
6350 8584
6350 8585
6350 9535
6350 11128
6350 15117
6351 7858
6351 10666
6351 18976
6352 18214
6352 21527
6352 22708
6353 9077
6353 9551
6353 17829
6353 19361
6354 10017
6354 18646
6354 19687
6354 20741
6354 21902
6354 22608
6355 17637
6355 17883
6355 22231
6356 7281
6356 13142
6357 9882
6358 9085
6358 12566
6358 16463
6358 23617
6358 24039
6359 6547
6359 8052
6359 11908
6359 12453
6359 14942
6359 23829
6359 23978
6359 24238
6360 7138
6360 7287
6360 7977
6360 8021
6360 8253
6360 8289
6360 8795
6360 9702
6360 10800
6360 12183
6360 12542
6360 12958
6360 16307
6360 17164
6360 18972
6360 19058
6360 19545
6360 19704
6360 20133
6360 22295
6360 23021
6361 7693
6361 11304
6361 11832
6361 14777
6361 15480
6362 9058
6362 13460
6363 8557
6363 13267
6363 21531
6365 7300
6365 9295
6365 23150
6366 8932
6366 10573
6366 10954
6367 7843
6367 9884
6367 10086
6367 11235
6367 11470
6367 11651
6367 14435
6367 15296
6367 15592
6367 23776
6367 23944
6367 23945
6367 23992
6367 24231
6368 15103
6368 18148
6368 23461
6369 13536
6369 16403
6370 7927
6370 9524
6370 11085
6370 12814
6370 15155
6370 18471
6370 19891
6370 22092
6370 22134
6371 7138
6371 10262
6371 11962
6371 19713
6371 23513
6372 20767
6373 7126
6373 8505
6373 12626
6373 15567
6373 17038
6373 18648
6374 13151
6374 14359
6374 14560
6375 10840
6375 13958
6375 14299
6375 14919
6375 19392
6376 10406
6376 16026
6376 22907
6377 9416
6377 10134
6377 16880
6377 20129
6377 21455
6377 21489
6377 22073
6378 11487
6378 11546
6378 14106
6378 14299
6378 18495
6378 24017
6378 24179
6378 24446
6379 19452
6380 9623
6380 13434
6381 6479
6381 9174
6381 9703
6381 14054
6382 7268
6382 10390
6383 8921
6383 10712
6383 14729
6383 22538
6384 9921
6385 7816
6385 9097
6385 17053
6386 15033
6386 23028
6387 12534
6387 17198
6387 23180
6388 7162
6388 7547
6388 9356
6388 9578
6388 10594
6388 14618
6388 15551
6388 15964
6388 19315
6388 20606
6388 21421
6389 10585
6389 23915
6389 24359
6390 13917
6390 14436
6390 15993
6391 12043
6391 23930
6391 24001
6392 8962
6392 18259
6392 22344
6393 13039
6393 13122
6393 18393
6394 13504
6394 18973
6395 10922
6395 15324
6395 16909
6395 18087
6395 19641
6395 23146
6396 6527
6396 13932
6397 6518
6397 7213
6397 9574
6397 11560
6397 11812
6397 13053
6397 17749
6397 18353
6397 18883
6397 19206
6397 19268
6397 19794
6397 19892
6397 22678
6398 9574
6398 11932
6398 13053
6398 18698
6398 20975
6399 11684
6399 12415
6400 10740
6400 22238
6400 24048
6400 24154
6401 6808
6401 7647
6401 8432
6401 9150
6401 10964
6401 11842
6401 12277
6401 14062
6401 21919
6401 23241
6401 23829
6401 24305
6401 24338
6401 24425
6402 8387
6402 21181
6403 8930
6403 11599
6403 20867
6403 24083
6404 6405
6404 19190
6404 20227
6404 24021
6405 24021
6406 7846
6406 11267
6406 13965
6406 16936
6406 22152
6407 6554
6407 9463
6407 13123
6407 14833
6407 16640
6407 18327
6407 18962
6407 20399
6407 21276
6407 21712
6408 10174
6408 11782
6408 12219
6408 22048
6409 8753
6409 10848
6409 15445
6409 19022
6410 10429
6410 16425
6410 16782
6410 20108
6410 21076
6411 7471
6411 8588
6411 10738
6411 11242
6411 15443
6412 9288
6412 18500
6412 21072
6413 9302
6413 16843
6413 19615
6413 21992
6414 16291
6414 16621
6415 19403
6415 19961
6416 9734
6416 13086
6416 17849
6417 13237
6417 15402
6417 16244
6417 18575
6417 18724
6417 22163
6418 6852
6418 8189
6418 10019
6418 10050
6418 19880
6418 20288
6418 21321
6418 23104
6419 7743
6420 11495
6420 19608
6421 12452
6421 18454
6421 20849
6421 23484
6422 10120
6422 17094
6423 6647
6423 9448
6423 10106
6423 13604
6424 10195
6424 10981
6424 18687
6425 8217
6425 11986
6427 11868
6427 13122
6427 22138
6427 22434
6428 8290
6428 9543
6428 12959
6429 7595
6429 12240
6429 15234
6429 19192
6430 10797
6430 18708
6431 8554
6431 19318
6431 22025
6432 12740
6432 19293
6432 19722
6433 16624
6433 16768
6433 17447
6434 10501
6434 23932
6434 24162
6435 18859
6436 8135
6436 15958
6436 19022
6437 7413
6437 9707
6437 11520
6437 11856
6437 17232
6438 7360
6438 7739
6438 10860
6438 11129
6438 11669
6438 11763
6438 17246
6438 18178
6438 19497
6438 21031
6438 21387
6438 21515
6438 23541
6439 8452
6439 20783
6440 14496
6440 21635
6440 21661
6440 22071
6440 22315
6441 18465
6442 16520
6442 18442
6442 22844
6443 11002
6443 11930
6443 18680
6443 23266
6444 7624
6444 9288
6444 20042
6444 21072
6445 8019
6445 10736
6445 12280
6445 21681
6446 11100
6446 13242
6446 16571
6447 10587
6447 18912
6448 6523
6448 12049
6449 7335
6450 6845
6450 7989
6450 8927
6450 10118
6450 13354
6450 14295
6450 16377
6450 22296
6451 9365
6451 10690
6451 11372
6451 12320
6451 18298
6451 18854
6452 12050
6452 14333
6452 15400
6452 20785
6453 6510
6453 14016
6454 13481
6454 21525
6455 10941
6455 12927
6455 18214
6455 21527
6456 9508
6457 7571
6457 13822
6457 14799
6457 23170
6458 9489
6458 11522
6458 11706
6458 12875
6458 14528
6458 16276
6458 19665
6458 20662
6458 22305
6458 23027
6459 8077
6459 12711
6459 19225
6460 19834
6460 22221
6461 6559
6461 9858
6461 14385
6461 17897
6461 18200
6461 18889
6461 20505
6462 8699
6462 9665
6462 9857
6462 11827
6462 20368
6462 21445
6463 11861
6463 22156
6464 19923
6465 15196
6466 13758
6466 15077
6466 16856
6466 22088
6466 22234
6466 22692
6467 8605
6467 17942
6467 18194
6468 7503
6468 8094
6468 9142
6468 15056
6468 15199
6468 20886
6468 24482
6469 12249
6469 12266
6469 18235
6469 21132
6469 23172
6470 11143
6470 11453
6470 23835
6470 24008
6470 24375
6471 7296
6471 11987
6472 6841
6472 7049
6472 7082
6472 7990
6472 8255
6472 8857
6472 10689
6472 11891
6472 12879
6472 12998
6472 13168
6472 13867
6472 14482
6472 16160
6472 16857
6472 18917
6472 19551
6472 19912
6472 19986
6472 20807
6472 20906
6472 21429
6472 21815
6473 11570
6473 13781
6473 14022
6473 15897
6473 20452
6473 20967
6473 21481
6474 7006
6474 7673
6474 7976
6474 9921
6474 10737
6474 12193
6474 12354
6474 20728
6474 22089
6474 23060
6475 13580
6475 15003
6476 11841
6476 20498
6477 8019
6477 8615
6477 19997
6478 14305
6478 21926
6479 8743
6479 9435
6479 9703
6479 13389
6479 17093
6479 18164
6480 7130
6481 9477
6481 13731
6481 14157
6482 9707
6482 11603
6482 11922
6482 13794
6482 19095
6482 19523
6483 10035
6484 15705
6484 21611
6484 22716
6485 7013
6485 10205
6486 15817
6487 15285
6488 11139
6488 16076
6488 20431
6489 20265
6490 8930
6491 8930
6492 7859
6492 8930
6492 10839
6492 23721
6492 24036
6492 24083
6492 24380
6493 9377
6493 10005
6493 11954
6493 12108
6493 14950
6493 16158
6493 16957
6493 17239
6493 17949
6493 20273
6493 20718
6493 21675
6493 23216
6493 23549
6494 12787
6495 7816
6495 8558
6495 13218
6496 11519
6496 14689
6496 20763
6497 19728
6497 20254
6498 8328
6498 14057
6498 20675
6499 9638
6499 11858
6499 19234
6499 21113
6500 7859
6501 7159
6501 12185
6501 12882
6501 22732
6502 15621
6503 17776
6503 18892
6503 19804
6504 6623
6504 6904
6504 12738
6504 13845
6504 16093
6504 18844
6504 22701
6504 22757
6504 23237
6505 23837
6505 24136
6506 11790
6506 15985
6506 16067
6506 17549
6506 21944
6506 21989
6507 20646
6508 7561
6508 7607
6508 9301
6508 11882
6508 12817
6508 13676
6508 14225
6508 15106
6508 17685
6508 17975
6508 18731
6508 19063
6510 9467
6510 12129
6510 12592
6510 13084
6510 14016
6510 14616
6510 18229
6510 18280
6510 19780
6510 20150
6510 20859
6510 22929
6511 9323
6511 10853
6511 11569
6511 20660
6512 6896
6512 7301
6512 22405
6513 14244
6513 15040
6513 15400
6513 19270
6514 10861
6515 6892
6515 7535
6515 9750
6515 9913
6515 10614
6515 12133
6515 15483
6515 16633
6515 17625
6515 17855
6515 18006
6515 19009
6515 19089
6515 19533
6515 19599
6515 23309
6516 6719
6516 7897
6517 18065
6517 19482
6517 21478
6518 7213
6518 17749
6519 9736
6519 16587
6519 18713
6519 19388
6520 11127
6520 12299
6521 13699
6521 14191
6521 17567
6521 21358
6521 22627
6522 9861
6523 10737
6523 12049
6523 13070
6523 19577
6524 17765
6525 8528
6525 12555
6525 22311
6526 16341
6526 16733
6526 21385
6528 10477
6528 12324
6528 20258
6528 20593
6529 15223
6529 18994
6529 20124
6530 7448
6530 8435
6530 9212
6530 9570
6530 9602
6530 14217
6530 14252
6530 16618
6530 17162
6530 17562
6530 17836
6530 18138
6530 20444
6530 20512
6530 22483
6531 14895
6531 22053
6532 11095
6533 7211
6533 11112
6534 7586
6534 7937
6534 11210
6534 11376
6534 17229
6534 19148
6534 23257
6534 24479
6536 7605
6536 7826
6536 18357
6537 8366
6537 17637
6537 20046
6537 22231
6538 10605
6538 11835
6538 15441
6538 15469
6538 16348
6538 17805
6538 19049
6538 20183
6538 23517
6539 9513
6539 19536
6539 22807
6539 23006
6540 21378
6541 7796
6541 12113
6542 8032
6542 8033
6542 9985
6543 7558
6543 11951
6544 11959
6544 16867
6545 10369
6545 10370
6545 10372
6546 14494
6546 21857
6547 11908
6547 23960
6549 6997
6549 10446
6549 12112
6549 12254
6549 14640
6549 18701
6549 18818
6549 20149
6549 20961
6550 10871
6550 12702
6550 16820
6550 17033
6551 7645
6551 8026
6551 8253
6551 8289
6551 9702
6551 9706
6551 9765
6551 11737
6551 13228
6551 15089
6551 15228
6551 15826
6551 15842
6551 16136
6551 16680
6551 17302
6551 19752
6551 21614
6551 21972
6552 21677
6552 21739
6552 22042
6553 8413
6553 21009
6553 22040
6553 22913
6554 8017
6554 14833
6554 15350
6555 6780
6555 20219
6556 12845
6556 13702
6556 15310
6556 23282
6557 8078
6557 9654
6557 11663
6557 11863
6557 11998
6557 13028
6557 18787
6557 19382
6557 23401
6558 8137
6558 24429
6559 17977
6560 17706
6561 16500
6561 16854
6562 11634
6562 13365
6562 18334
6563 7742
6563 19620
6564 14172
6564 23146
6565 13360
6565 23240
6566 6742
6566 8023
6566 8259
6566 10490
6566 11068
6566 12997
6566 15140
6566 15543
6566 20490
6566 20780
6566 21007
6567 11362
6567 12475
6567 23640
6568 6838
6568 12579
6568 15588
6568 15614
6569 7942
6569 9074
6569 14573
6569 22193
6570 7729
6570 10469
6570 21864
6572 10526
6572 19170
6573 8040
6573 22568
6574 9713
6574 17419
6574 21673
6575 20144
6576 12393
6576 12976
6576 15201
6576 17938
6577 7905
6577 8671
6577 15808
6577 16415
6577 17182
6578 12303
6578 15735
6578 17498
6579 9659
6579 10473
6580 10666
6580 20408
6581 9738
6581 9865
6581 10559
6581 12593
6581 13608
6581 14086
6581 14999
6581 15067
6581 15904
6581 17170
6582 10764
6582 12943
6582 14168
6582 18886
6583 14504
6584 13277
6584 21858
6585 8455
6585 19348
6585 20600
6586 9193
6586 13561
6587 10679
6587 23665
6587 24414
6588 6646
6588 9524
6588 15184
6588 17340
6588 18331
6588 22092
6589 6592
6589 15295
6590 10093
6590 14507
6591 9110
6591 12436
6591 12795
6591 13425
6591 13809
6591 16197
6591 19876
6591 22760
6592 15295
6592 16200
6592 17316
6592 19870
6592 22367
6593 10215
6593 17316
6593 18820
6593 18823
6593 19870
6594 8026
6594 10604
6595 11035
6595 11036
6595 13154
6595 21914
6595 22520
6596 23005
6597 9027
6597 14037
6597 18488
6597 20482
6598 11759
6598 12045
6598 17379
6599 7076
6599 12383
6599 19319
6600 6917
6600 7863
6601 8332
6601 12681
6601 16807
6601 18773
6601 23427
6602 13122
6603 10617
6603 11320
6603 11878
6604 8513
6604 11426
6604 12097
6604 19693
6604 22206
6605 8208
6605 11797
6605 17404
6605 20217
6605 20218
6605 20708
6606 8619
6606 10051
6606 13997
6607 7047
6607 15381
6607 16443
6608 13457
6609 7792
6609 10887
6610 8246
6610 9569
6610 13972
6610 17419
6610 19913
6611 8857
6611 12676
6611 12811
6611 18209
6611 21673
6611 22723
6611 22948
6612 12620
6612 17096
6612 18631
6612 20718
6613 7313
6613 13634
6613 22279
6613 22361
6614 19447
6614 21964
6614 22755
6615 12722
6615 15868
6615 20341
6616 9128
6616 12923
6616 14178
6616 15754
6616 18460
6617 13358
6618 11746
6618 20725
6618 24239
6619 7219
6619 24019
6619 24189
6619 24239
6620 7718
6620 9475
6620 23731
6621 11015
6621 15849
6621 16884
6621 18626
6621 19807
6621 21494
6621 23199
6622 6637
6622 7939
6622 7960
6622 15852
6622 15854
6622 15856
6622 16887
6622 17032
6622 18420
6623 9146
6623 13845
6623 22757
6624 24244
6624 24336
6624 24382
6626 10424
6626 15314
6627 10505
6627 11315
6627 15521
6627 16904
6627 17694
6627 17906
6627 18093
6627 20788
6627 22274
6628 7747
6628 9854
6628 10554
6628 11721
6628 12469
6628 13076
6628 14183
6628 16874
6628 21903
6628 23767
6629 18286
6629 18998
6630 14320
6631 7560
6631 7776
6631 10536
6631 17150
6631 19317
6632 6935
6632 7650
6632 18631
6632 22365
6632 23620
6633 8556
6633 23850
6634 6932
6634 8556
6634 12036
6634 16451
6634 23850
6635 8087
6635 9558
6635 13225
6635 19937
6635 20578
6635 21997
6635 23593
6636 8742
6636 10793
6636 23575
6636 23814
6636 24151
6637 15854
6637 15858
6637 15859
6638 9569
6638 19913
6638 21673
6639 9613
6639 20469
6640 15412
6640 20469
6640 21378
6641 24135
6641 24285
6641 24436
6642 9409
6642 18568
6643 9643
6643 10032
6643 24206
6643 24470
6644 7719
6644 11826
6645 13509
6645 19443
6645 21401
6646 9524
6646 15184
6646 17340
6647 7712
6647 9448
6647 10106
6647 10143
6647 19514
6647 19855
6648 8800
6648 13047
6649 12225
6649 12758
6649 19060
6649 21948
6650 9256
6650 12716
6650 15845
6651 15604
6651 18282
6652 8217
6652 11986
6653 7896
6653 10671
6653 11758
6654 11757
6654 21521
6655 10245
6655 12038
6656 7145
6656 8014
6656 19032
6656 20902
6657 17386
6657 17447
6657 18632
6657 20125
6658 10761
6658 18388
6658 19252
6658 22415
6659 7386
6659 9181
6659 9358
6659 20981
6659 23808
6660 14958
6660 15943
6661 6865
6661 9933
6661 12380
6661 12416
6662 17307
6662 17437
6662 17884
6663 7091
6663 7717
6663 8215
6663 9628
6663 10416
6663 11151
6663 13035
6663 14143
6663 17001
6663 18125
6663 23560
6664 7984
6664 23985
6664 24161
6665 10295
6665 12200
6665 13003
6665 18182
6665 19069
6665 22407
6666 17055
6667 10420
6667 21186
6667 22972
6668 9882
6668 10593
6668 15802
6668 17116
6669 23593
6670 10419
6670 18180
6670 23837
6670 24136
6670 24286
6671 7628
6671 7629
6671 14615
6671 17921
6671 22030
6671 22031
6672 11542
6672 12252
6672 23786
6673 7518
6673 7678
6673 14746
6673 18633
6673 19829
6675 8923
6675 10194
6675 15086
6675 17107
6676 10214
6676 23937
6677 8545
6677 9691
6677 14363
6678 11827
6678 14484
6679 9700
6679 17141
6680 11986
6680 20503
6681 11780
6681 15660
6681 20231
6681 20955
6682 8019
6682 19997
6682 21199
6683 23229
6683 23578
6684 23734
6684 24067
6684 24458
6685 7360
6685 10990
6685 11763
6685 18178
6686 8299
6686 10593
6686 13054
6687 8673
6687 14104
6688 9797
6688 10773
6688 11717
6688 14265
6688 15630
6690 13788
6690 16429
6690 21824
6691 7111
6691 23384
6692 14068
6692 16084
6692 18657
6693 9012
6693 11698
6693 14748
6693 23709
6693 23779
6694 7965
6694 10836
6694 17712
6694 18035
6694 22338
6695 8862
6695 8987
6695 18476
6696 7327
6696 11966
6696 22074
6697 8673
6697 10102
6697 11930
6697 14104
6697 18804
6698 13424
6698 17411
6698 22203
6699 10577
6699 14204
6699 19727
6699 20769
6700 11100
6700 14286
6700 18679
6700 19428
6701 9086
6701 13588
6701 13639
6701 14566
6702 11619
6702 12120
6702 13210
6702 15648
6703 8496
6703 10230
6703 15466
6703 17084
6703 18681
6703 20378
6703 21130
6704 12617
6704 17804
6704 18834
6704 20526
6705 8280
6705 8746
6705 9911
6705 11031
6705 11070
6705 13917
6705 13952
6705 18769
6705 22967
6706 18150
6706 22628
6707 14118
6707 19555
6708 8155
6708 11467
6708 13757
6708 23098
6709 7359
6709 13557
6710 6712
6710 10249
6710 10700
6710 13557
6710 16863
6710 20866
6710 21143
6711 13374
6712 10249
6712 14551
6712 16863
6712 20866
6713 9691
6713 17687
6714 9642
6714 10382
6714 10639
6714 12586
6714 18016
6714 18659
6714 19365
6714 20039
6714 20346
6714 20696
6714 21301
6714 21391
6715 14653
6716 7043
6717 22985
6717 23713
6718 7311
6718 11346
6718 14984
6719 6856
6719 7109
6719 7131
6719 7161
6719 7540
6719 7884
6719 8467
6719 9544
6719 10245
6719 10748
6719 10923
6719 11543
6719 12029
6719 12348
6719 12880
6719 13834
6719 13884
6719 14794
6719 16745
6719 17624
6719 17867
6719 18171
6719 18756
6719 18908
6719 19618
6719 19702
6719 21764
6719 21884
6719 22904
6719 22973
6719 23469
6719 23595
6720 12089
6720 18848
6721 16357
6722 7823
6722 14368
6722 15060
6722 15176
6722 20998
6722 21272
6722 22346
6722 23597
6723 8016
6723 24061
6724 9780
6724 23887
6724 24087
6725 19639
6726 19421
6726 19450
6727 13264
6728 11583
6729 7039
6729 8900
6729 9811
6729 10502
6729 10931
6729 13750
6729 16617
6730 9265
6730 18918
6730 23531
6731 11881
6731 22988
6732 14822
6732 15459
6732 22537
6733 13221
6733 13529
6733 14785
6733 15599
6734 14219
6734 18746
6734 19520
6734 21620
6735 7541
6735 9462
6735 11753
6735 11754
6735 11755
6735 11756
6735 12092
6735 13337
6735 14542
6735 14985
6735 20501
6735 23794
6736 6870
6736 17932
6736 24343
6737 7490
6737 12983
6737 14229
6737 18974
6737 23303
6737 23526
6738 12677
6738 14591
6738 14596
6738 22329
6739 15178
6740 19040
6740 20355
6740 20356
6741 11959
6741 15216
6741 18933
6742 13752
6742 19522
6743 6819
6743 23621
6744 7511
6744 11583
6744 22696
6744 23296
6745 11575
6745 23277
6746 8717
6746 8724
6746 19609
6747 8116
6747 13111
6747 21614
6748 11610
6748 22445
6749 13883
6749 16993
6750 17935
6751 9009
6751 17889
6751 24389
6751 24390
6751 24391
6752 11104
6752 12418
6752 24207
6753 15868
6753 19151
6753 19191
6754 16763
6754 19600
6754 20674
6755 7995
6755 10647
6755 10786
6755 12861
6755 14247
6755 14519
6755 16585
6755 17082
6755 18278
6755 19214
6755 23055
6757 8109
6757 8243
6757 9205
6757 12594
6757 16054
6757 17063
6757 18147
6758 8268
6758 8612
6758 8947
6758 9262
6758 9880
6758 10145
6758 15360
6758 15927
6758 18868
6759 16398
6759 21617
6760 7332
6760 11122
6760 12250
6760 13556
6760 20386
6761 23863
6761 24155
6761 24266
6762 7034
6762 8662
6762 12899
6762 18554
6762 21452
6763 9280
6763 9316
6763 10302
6763 10958
6763 16027
6763 17764
6763 18215
6763 19097
6764 12726
6764 23004
6764 23452
6765 9215
6765 9530
6766 8267
6766 16657
6766 17435
6767 15612
6767 16619
6767 23450
6768 8217
6768 15734
6769 13814
6769 14780
6769 16896
6770 11514
6770 12538
6770 13314
6771 8191
6771 24103
6771 24106
6772 9111
6773 18961
6773 20791
6773 23254
6774 10328
6774 13440
6775 11823
6775 13511
6775 14790
6776 13653
6776 20678
6776 21999
6776 22231
6776 23370
6777 8218
6777 13605
6778 15759
6778 20897
6779 9011
6779 18053
6780 9516
6780 10426
6780 10721
6780 18157
6780 20219
6780 23759
6781 11359
6781 11490
6781 18973
6782 13266
6782 19947
6782 21360
6784 12897
6785 8847
6785 13552
6785 14782
6785 17791
6785 22811
6786 7000
6786 13001
6786 13181
6786 13378
6787 18400
6787 20928
6788 8152
6788 24350
6789 24167
6790 11750
6790 16786
6790 18497
6790 20702
6790 23227
6791 8380
6791 16722
6792 14833
6792 15350
6792 20617
6793 16440
6794 16240
6794 23630
6795 11624
6795 11688
6795 20812
6796 21317
6796 23274
6796 24326
6797 9868
6797 11545
6797 11977
6797 22810
6798 14940
6798 18680
6799 15876
6799 21906
6800 11777
6800 20717
6801 6802
6801 6807
6801 7371
6801 16862
6801 23141
6802 7371
6802 14430
6803 14888
6803 16562
6803 19221
6803 19904
6804 8551
6804 14913
6804 15448
6804 20420
6805 18389
6806 11986
6806 15734
6806 22286
6807 13249
6807 13323
6807 16399
6808 23735
6808 24425
6809 14904
6809 15888
6809 15894
6809 15895
6809 16685
6810 14704
6810 15984
6810 17134
6811 8691
6811 11256
6812 7516
6812 7538
6812 7780
6812 14880
6812 15866
6812 16711
6812 17040
6812 19613
6812 20967
6812 21892
6813 8903
6813 10248
6813 12062
6813 14131
6813 17211
6813 21791
6814 14858
6814 16723
6815 9115
6815 19460
6817 10684
6817 12201
6817 14879
6817 17928
6818 10630
6818 14867
6818 14869
6818 14871
6818 15368
6818 19449
6819 12451
6819 20820
6820 14867
6820 14869
6820 14871
6820 19449
6821 7740
6821 15556
6821 20342
6822 19318
6822 20107
6823 10904
6823 11697
6823 14191
6823 16924
6824 8219
6824 16450
6825 14251
6825 18158
6825 19808
6826 7352
6826 8261
6826 9283
6826 10187
6826 13114
6826 14088
6826 16508
6826 19205
6826 21961
6826 22444
6826 23569
6827 10149
6827 10412
6827 12046
6827 14149
6827 16030
6827 16755
6827 17593
6827 20534
6827 20682
6827 21737
6828 11014
6828 12501
6829 14569
6829 18453
6829 19611
6829 20653
6830 7525
6830 16531
6831 21106
6832 23772
6833 13898
6833 15444
6833 16613
6834 7715
6834 7972
6834 9096
6834 11234
6834 17723
6834 17857
6834 20528
6834 21087
6834 22991
6835 7148
6835 7425
6836 20771
6836 21508
6836 22499
6837 12146
6837 14213
6837 20024
6839 11130
6839 12050
6839 15044
6840 7429
6840 8504
6840 16064
6840 18958
6841 14482
6841 19912
6841 21815
6842 18555
6843 11308
6843 24325
6844 7631
6844 12886
6844 18205
6844 18208
6845 22296
6846 13884
6847 7733
6847 9532
6847 11504
6847 11648
6847 16138
6847 16578
6847 16701
6847 18584
6847 19342
6847 19483
6847 20079
6847 20507
6847 22454
6847 23769
6848 14332
6848 14758
6848 15763
6848 17572
6848 18736
6848 20811
6848 21846
6849 19913
6850 16545
6850 19149
6850 23594
6851 17016
6851 19019
6851 20762
6851 21826
6853 7774
6853 16147
6854 17639
6854 18692
6855 7930
6855 11693
6855 12798
6855 13683
6855 13791
6855 16539
6855 17027
6855 22275
6855 23525
6856 23269
6857 14860
6857 19827
6858 22989
6858 23900
6859 13783
6859 14197
6859 18716
6859 20100
6859 22855
6859 24205
6860 14273
6860 21978
6861 9703
6861 14012
6861 14261
6862 20992
6862 22178
6863 11738
6863 24349
6864 12388
6864 20038
6864 23786
6865 9933
6865 12416
6866 22633
6867 23362
6868 9666
6868 9668
6868 14724
6869 10762
6869 17248
6869 19377
6869 21279
6870 9085
6870 12425
6870 12427
6870 12428
6870 23819
6870 24360
6871 11432
6871 11458
6872 9249
6872 12262
6872 21396
6873 15521
6873 20160
6874 8687
6874 9010
6874 10382
6874 14723
6874 16872
6874 19432
6875 9072
6875 15751
6875 19108
6876 6914
6876 11999
6877 10847
6877 11980
6877 23809
6877 24093
6878 14887
6878 22034
6879 6937
6879 8701
6879 15990
6879 17835
6880 7811
6880 20144
6880 22361
6881 7504
6881 15293
6882 8121
6882 8971
6882 22136
6882 23824
6882 24236
6883 8782
6883 10523
6883 11627
6883 12966
6884 16119
6884 23625
6884 24257
6884 24345
6884 24367
6885 8306
6885 11175
6885 14270
6885 18820
6885 20370
6886 8827
6886 12666
6886 22416
6887 10496
6887 14693
6887 20155
6887 23572
6888 8309
6888 23787
6888 23874
6889 8413
6889 11513
6889 14933
6889 16659
6889 22913
6890 9171
6890 23823
6890 24303
6890 24339
6890 24474
6891 10319
6891 12217
6891 17179
6891 20540
6893 8158
6893 16257
6893 17248
6894 13221
6894 13529
6894 16161
6895 12571
6895 16865
6895 17830
6895 22140
6896 7301
6896 13193
6896 22405
6897 9614
6897 17160
6897 23474
6897 23705
6898 9662
6898 19866
6899 15125
6899 20376
6899 22287
6900 7647
6900 10324
6900 11908
6901 11587
6901 17227
6901 17592
6901 21141
6902 21800
6903 15258
6903 19473
6904 18844
6904 22701
6905 17136
6905 18859
6905 22840
6906 8380
6906 16722
6907 11241
6907 13345
6907 21318
6907 23488
6908 16509
6908 17548
6908 21362
6909 7023
6909 7509
6909 15012
6909 18091
6909 18456
6910 9844
6911 14932
6911 21264
6913 8991
6913 9990
6913 9991
6913 10013
6913 17859
6913 18619
6914 8438
6915 13436
6915 14575
6915 17305
6915 18252
6915 19349
6916 11130
6916 15615
6917 6918
6917 6919
6917 8107
6917 9994
6917 11062
6917 12694
6917 14472
6917 14501
6917 15193
6917 17499
6917 17968
6917 19121
6917 20480
6917 20709
6917 22619
6918 22619
6919 14472
6919 20480
6920 7925
6920 8351
6920 10387
6920 13316
6920 13948
6920 16971
6920 19506
6920 20071
6921 8019
6921 15287
6921 21820
6922 9905
6922 9984
6922 11071
6922 12679
6922 18189
6922 20404
6923 8384
6923 18984
6923 19711
6924 7291
6924 11442
6924 20514
6924 20889
6925 12047
6925 12393
6926 13465
6926 18026
6926 21560
6927 10529
6927 12746
6927 21854
6928 19601
6928 21577
6929 13299
6929 13894
6929 22738
6930 7354
6930 7943
6930 8739
6930 9129
6930 10081
6930 10309
6930 11003
6930 11040
6930 11263
6930 12178
6930 12808
6930 13402
6930 13548
6930 13618
6930 14406
6930 14486
6930 14638
6930 15229
6930 15290
6930 15992
6930 16521
6930 16922
6930 17144
6930 17537
6930 17658
6930 18010
6930 18734
6930 18900
6930 19461
6930 20968
6930 21692
6930 23272
6930 23831
6931 7733
6931 7993
6931 22454
6932 8556
6932 12036
6932 13640
6932 16451
6933 10392
6933 13883
6933 20623
6934 18740
6934 19723
6935 18631
6936 10448
6936 13320
6936 14189
6936 16221
6936 17180
6937 8043
6937 8701
6937 9145
6937 14589
6937 20738
6937 21151
6938 15400
6938 17992
6938 19318
6939 14545
6939 14960
6939 16023
6939 20360
6940 9323
6940 10853
6940 15417
6941 9422
6941 20695
6942 12024
6942 12833
6942 18367
6942 22566
6943 7891
6943 9730
6943 9999
6943 10351
6943 12283
6943 16795
6943 17663
6943 17705
6943 18593
6943 19617
6944 9548
6946 11935
6946 14141
6947 8119
6947 9229
6947 10317
6947 11374
6947 11443
6947 13075
6947 13221
6947 14194
6947 16125
6947 17293
6947 17524
6947 17601
6947 19948
6947 20582
6947 21711
6947 21777
6947 21908
6948 10006
6948 10809
6948 14533
6948 19418
6949 19506
6950 9066
6950 14419
6950 19393
6950 21269
6951 7683
6951 8613
6951 14930
6951 22227
6952 12735
6953 7657
6953 10649
6953 11609
6953 19467
6954 11033
6954 17490
6954 23193
6955 8026
6955 8800
6955 14585
6955 21614
6956 9626
6956 11297
6956 24452
6957 13055
6957 15465
6958 8055
6958 14836
6958 20096
6959 6996
6959 20137
6959 20882
6960 14797
6961 11870
6961 12512
6961 20243
6962 10966
6962 17661
6962 21006
6962 21361
6963 11294
6963 23765
6963 24161
6964 21604
6964 23505
6965 14438
6965 21524
6966 8658
6966 9371
6966 9836
6967 21677
6967 21739
6968 12897
6968 17025
6968 18567
6969 13221
6969 15678
6969 17305
6969 21945
6970 7372
6970 14439
6971 21721
6972 16230
6973 8076
6973 9148
6973 9499
6973 11781
6973 21947
6973 22706
6974 12359
6974 13786
6974 15063
6974 19929
6974 22321
6975 8578
6975 11790
6976 9300
6976 13870
6976 23200
6976 23492
6977 23637
6977 24044
6978 19031
6978 22846
6978 23917
6979 9686
6979 23868
6980 7052
6980 11314
6980 18447
6980 24007
6981 12639
6981 14133
6981 14945
6982 15190
6982 21257
6983 10578
6983 17440
6983 21072
6985 10431
6986 18776
6986 21203
6987 12021
6987 20078
6987 20181
6988 7014
6988 8942
6988 12203
6988 20654
6988 22793
6989 11861
6989 15944
6989 17687
6990 8046
6990 8986
6990 13615
6991 8986
6992 7993
6994 13176
6994 17651
6995 7977
6996 12971
6996 14281
6996 14291
6996 16372
6996 20137
6996 20882
6996 22993
6997 12112
6998 9596
6998 17009
6999 7192
6999 16698
6999 17242
6999 20774
7000 8474
7000 8689
7000 9000
7000 9995
7000 10835
7000 12301
7000 12752
7000 13001
7000 13181
7000 13378
7000 14657
7000 14806
7000 15109
7000 15359
7000 15782
7000 16704
7000 18930
7000 19273
7000 20519
7000 23603
7000 23898
7001 7197
7003 9806
7003 22601
7004 15158
7004 20305
7005 10985
7005 14987
7006 7673
7006 23023
7006 23060
7007 7599
7007 18190
7008 17041
7008 19157
7008 21169
7008 22198
7009 10750
7010 7596
7010 10091
7010 17915
7010 22674
7011 10420
7011 11067
7012 22695
7013 9810
7013 10205
7013 15146
7013 17038
7014 8641
7014 8942
7014 13447
7014 15604
7014 16131
7014 16645
7014 17106
7014 18109
7014 20509
7014 20654
7014 22793
7015 7461
7015 9762
7015 15922
7015 22718
7015 23744
7016 10867
7016 11550
7017 9064
7017 10660
7017 12801
7017 12937
7017 14043
7017 20946
7017 23206
7018 22921
7019 8062
7019 11795
7019 21688
7020 10629
7020 10936
7020 16173
7020 16453
7020 19749
7021 9821
7021 11715
7021 22604
7023 7509
7023 7754
7023 15012
7023 17406
7023 19010
7024 8425
7024 17847
7024 20724
7025 9120
7025 13489
7025 22478
7026 13524
7026 16293
7026 19074
7027 12454
7028 7464
7028 11606
7028 13335
7029 8162
7029 8988
7029 16543
7030 12516
7030 15059
7030 15982
7030 19886
7031 10622
7031 12496
7032 10419
7032 23837
7032 24136
7032 24286
7033 9266
7033 9344
7033 17431
7034 12899
7034 18554
7034 21452
7035 13520
7036 8212
7036 10227
7036 10231
7036 10232
7036 13528
7036 22764
7037 9111
7037 23026
7038 7700
7038 11318
7038 11502
7038 21533
7039 10420
7039 21186
7039 22972
7040 16088
7040 19002
7041 7816
7041 20265
7042 10155
7042 10408
7042 11174
7042 11200
7042 11712
7042 13890
7042 15627
7042 18504
7042 20043
7042 21479
7042 21698
7042 22732
7042 23207
7042 23691
7043 7987
7043 9009
7043 9033
7043 9328
7043 11179
7043 20442
7043 21022
7043 22476
7043 22579
7043 23983
7043 24200
7044 8706
7044 13589
7044 14998
7044 15975
7044 19757
7044 22983
7044 23019
7045 10238
7045 10608
7045 15730
7045 15933
7045 20405
7045 21717
7046 7192
7047 7985
7047 12673
7047 13637
7047 13866
7047 16443
7047 17070
7047 17506
7047 19924
7047 20401
7047 23103
7048 16514
7048 17802
7050 7559
7050 21106
7051 8337
7051 8391
7051 9220
7051 10396
7051 10870
7051 15661
7051 19687
7051 20087
7051 21784
7052 7264
7052 7487
7052 23108
7052 23543
7052 23671
7052 24139
7053 12303
7053 12709
7054 15564
7054 18913
7055 7288
7055 8179
7055 14006
7056 12247
7056 24102
7056 24434
7057 23921
7057 24204
7058 10245
7058 10571
7059 7083
7059 11425
7059 14600
7060 9080
7060 9723
7060 24076
7060 24215
7061 9339
7062 10866
7062 23921
7062 23974
7062 24204
7063 10969
7063 15584
7063 17976
7063 21440
7064 20976
7065 7575
7065 16481
7066 14415
7066 17458
7066 19615
7067 15615
7067 16974
7067 18271
7068 8023
7068 17923
7068 21770
7069 11013
7069 19150
7070 10406
7070 10965
7070 13004
7070 16026
7070 22248
7071 7823
7071 17443
7071 23202
7072 9007
7072 11733
7072 13848
7072 15900
7072 17719
7072 19911
7072 21441
7072 22742
7073 17071
7074 13759
7074 14710
7074 23684
7075 13837
7075 15076
7076 16354
7076 19319
7077 9241
7077 23691
7078 9123
7078 17016
7078 19019
7078 21826
7079 12303
7080 14848
7080 15033
7080 15735
7080 17578
7081 11923
7081 13384
7081 14952
7081 15931
7081 21258
7082 8857
7082 21085
7083 8723
7083 14600
7083 16254
7083 16651
7083 18582
7083 19763
7085 15033
7085 20925
7085 23028
7086 9308
7086 13723
7086 17646
7087 7987
7087 11063
7088 8700
7088 11264
7088 19532
7089 7331
7089 13942
7089 15812
7089 19042
7089 19544
7089 21029
7090 23949
7090 24335
7090 24454
7091 9163
7091 12667
7091 15198
7091 18125
7091 19317
7091 20015
7091 21526
7092 12722
7092 18193
7092 20341
7093 10606
7093 11790
7093 21696
7094 8203
7094 10320
7095 12897
7096 8026
7096 8800
7096 21614
7097 9826
7097 10629
7097 10936
7097 12546
7097 15172
7097 16173
7097 16453
7097 17209
7098 22993
7099 11624
7099 20812
7099 23053
7100 9077
7100 17829
7100 19066
7100 20012
7100 20070
7100 20417
7100 20450
7100 21898
7101 9038
7101 11861
7102 15363
7102 15726
7103 24000
7103 24183
7103 24184
7103 24437
7104 7417
7104 20592
7104 21863
7105 7311
7105 9691
7105 13675
7105 16764
7106 12488
7106 13567
7106 16334
7106 19218
7107 7921
7107 8393
7107 17622
7107 22076
7108 13268
7108 23329
7110 13011
7111 8569
7111 8680
7111 14164
7111 23384
7112 16317
7112 21171
7112 22775
7113 7401
7113 21992
7114 17920
7114 19937
7114 21997
7115 23731
7115 23798
7115 24416
7117 10245
7117 11150
7117 13975
7117 14529
7117 14608
7117 16564
7117 16729
7117 18715
7117 18908
7117 19590
7118 10466
7118 20408
7119 7816
7119 9616
7119 20265
7120 14782
7120 17781
7121 7920
7121 12835
7121 22960
7122 17520
7123 10893
7123 15125
7123 20376
7123 22287
7124 7517
7124 8145
7125 10447
7125 12055
7125 12161
7126 22532
7127 21508
7128 14118
7128 22240
7128 22576
7129 7669
7129 7876
7129 8345
7129 10608
7129 17465
7129 17468
7130 12431
7130 12997
7130 13248
7130 13424
7130 15140
7130 19178
7130 20144
7130 21393
7131 15315
7132 8968
7133 19418
7133 19552
7134 12031
7134 14693
7136 12527
7136 14834
7136 14925
7136 16262
7136 19853
7137 14013
7137 15462
7137 17021
7137 17854
7137 20241
7137 22063
7137 22639
7138 11214
7138 14714
7139 14237
7139 20393
7140 9385
7140 10285
7140 12912
7140 15590
7140 19725
7140 21060
7140 23383
7141 8486
7141 10456
7141 12395
7142 10142
7142 15060
7142 19374
7142 22346
7143 11795
7143 16771
7143 23243
7144 20237
7144 20266
7145 19032
7146 17974
7146 19515
7147 12606
7147 21853
7148 12869
7149 24067
7151 13896
7151 14541
7151 19211
7151 19619
7151 20726
7152 8387
7152 9425
7153 12801
7153 12937
7153 16025
7153 22026
7154 16839
7154 19263
7154 23061
7155 12241
7155 23793
7156 20146
7156 21133
7157 11433
7157 17243
7158 11021
7158 13572
7158 15800
7158 18426
7158 20076
7159 11026
7159 15182
7159 22732
7160 24262
7161 12984
7161 18707
7161 19702
7161 22973
7161 23269
7162 18998
7163 23896
7163 24028
7163 24148
7164 7166
7165 7166
7165 12456
7165 12841
7166 10460
7166 23958
7166 24262
7167 7168
7167 24262
7169 11911
7169 15151
7169 19318
7170 21879
7171 10633
7171 14776
7171 18903
7171 22119
7171 22934
7172 10673
7172 18080
7173 12393
7173 13330
7173 15201
7173 22298
7174 7440
7174 15901
7174 20976
7175 10589
7175 14586
7175 21626
7176 7585
7176 8730
7176 10291
7176 17220
7176 21348
7177 7200
7177 7825
7177 12516
7177 15059
7177 17614
7177 17693
7177 19338
7177 19886
7177 20717
7178 13842
7179 11303
7179 15313
7179 21921
7179 23663
7180 7470
7180 7695
7180 8168
7180 8190
7180 8618
7180 9872
7180 9874
7180 10018
7180 10358
7180 11355
7180 12485
7180 13983
7180 15115
7180 16676
7180 17629
7180 19680
7180 20706
7180 21339
7180 21536
7180 22719
7181 7651
7181 10233
7181 23780
7182 7651
7182 14674
7182 16096
7183 10895
7183 20985
7183 23098
7184 10510
7185 15764
7186 15617
7186 16290
7186 19443
7186 22027
7187 14831
7188 9914
7188 12859
7188 21652
7189 10644
7189 13641
7189 18631
7189 19847
7190 7311
7190 7591
7190 8456
7190 11346
7190 16014
7190 18949
7190 19452
7190 19690
7190 19700
7190 19941
7190 20093
7191 8342
7191 18852
7191 22222
7192 11925
7192 17411
7193 8959
7193 10298
7193 20354
7194 16845
7194 22962
7194 23473
7195 16517
7195 19318
7196 21169
7197 7906
7197 15280
7197 15706
7197 16777
7197 19074
7197 19634
7197 20535
7197 21921
7197 22205
7197 23351
7198 15350
7198 18962
7198 20770
7198 21075
7199 8245
7199 17225
7199 19506
7199 20816
7200 15982
7200 20717
7201 17692
7201 22515
7202 8388
7202 11659
7203 8011
7203 10830
7203 19725
7204 8163
7204 11785
7205 9046
7205 13129
7205 15756
7206 13516
7206 17351
7206 18158
7207 8985
7207 12509
7207 22922
7208 7808
7208 12912
7208 20413
7209 10438
7209 11737
7209 12982
7209 13247
7209 13836
7209 14173
7209 16266
7209 16680
7209 19822
7210 8361
7210 13888
7210 17715
7211 22629
7212 8134
7212 11297
7212 21377
7213 10526
7213 16292
7213 18353
7213 18883
7213 22678
7214 7215
7214 12986
7214 17538
7214 21370
7215 12085
7215 12986
7215 17538
7215 17759
7215 18133
7216 13166
7216 14874
7216 18781
7216 18861
7217 10630
7217 14867
7217 14869
7218 13804
7218 14260
7218 14707
7218 23171
7218 23685
7218 23802
7218 24309
7219 12043
7219 18541
7219 24189
7219 24219
7221 10785
7221 13855
7221 14915
7221 24280
7222 12488
7222 13567
7222 16334
7224 9815
7224 10571
7224 11089
7224 11395
7224 12029
7224 13884
7224 17798
7224 18942
7224 19618
7224 23313
7225 9950
7225 23619
7225 24213
7226 9131
7226 17428
7226 19171
7227 10632
7227 18484
7228 7876
7228 22379
7229 9829
7229 16133
7229 19063
7229 21917
7230 15201
7230 22298
7231 12652
7231 21135
7231 23333
7232 9081
7232 11721
7232 23767
7233 19430
7234 23938
7235 9762
7235 13295
7236 10322
7236 10895
7236 18543
7236 20985
7237 8164
7237 9095
7237 10072
7237 10196
7237 10508
7237 13023
7237 14446
7237 14491
7237 16855
7237 18404
7237 18802
7237 20472
7238 17115
7238 19066
7238 21419
7239 9530
7239 23753
7239 23827
7239 24025
7239 24203
7240 23876
7241 10462
7241 10520
7241 15810
7241 19021
7241 19668
7241 22439
7241 23690
7242 9006
7242 14068
7242 14492
7242 14878
7242 18657
7243 16557
7243 18822
7243 18824
7244 11495
7245 23720
7245 24164
7245 24427
7246 8404
7246 9871
7246 15549
7247 16449
7247 16953
7247 20060
7248 9395
7248 12722
7248 15868
7248 22246
7249 9454
7249 16584
7249 21234
7250 11698
7250 13736
7251 7783
7251 10034
7251 18211
7251 19312
7251 19881
7251 20499
7251 22166
7251 22665
7251 22869
7252 18214
7252 22708
7253 14243
7253 16713
7253 22685
7254 16610
7254 19358
7255 7895
7255 11535
7255 13403
7255 24013
7256 9942
7256 10359
7257 12403
7257 12543
7257 21605
7258 18058
7258 18846
7258 19973
7258 20566
7259 9083
7259 15691
7259 18947
7259 21727
7259 22495
7260 11975
7260 12265
7260 19841
7260 23018
7261 8009
7261 8443
7261 11829
7261 21021
7262 10169
7262 12640
7262 19953
7263 7311
7263 19452
7264 23543
7264 24138
7265 7746
7265 10519
7265 10864
7265 11307
7265 12144
7265 12844
7265 13960
7265 20365
7265 23976
7265 23981
7265 24145
7265 24476
7266 8499
7266 8959
7266 13116
7266 22628
7267 12726
7267 23452
7268 8374
7268 10390
7268 10767
7268 13678
7269 17141
7269 18739
7270 12644
7270 17260
7271 10356
7271 14971
7271 19521
7272 15918
7273 8238
7273 11980
7273 23920
7274 13480
7274 17556
7275 14136
7276 17941
7277 15050
7277 16859
7278 10126
7278 11919
7278 14883
7279 10761
7279 12965
7279 16801
7279 17413
7279 17545
7279 19252
7279 22415
7280 9247
7280 11474
7280 18810
7281 8219
7281 10926
7281 13050
7281 13727
7281 14338
7281 20078
7282 10373
7282 12525
7282 24258
7282 24261
7283 8862
7283 12634
7284 8672
7284 10760
7284 10794
7284 13097
7284 14698
7284 15519
7284 16164
7284 16654
7284 19541
7284 21052
7285 11414
7285 13143
7285 18098
7286 8126
7286 10684
7286 11255
7286 19583
7287 8795
7287 10800
7287 19058
7288 8185
7288 11944
7288 12019
7288 14006
7289 9590
7289 15623
7289 19435
7290 8602
7290 13849
7290 15956
7290 18117
7290 19525
7290 22952
7291 15155
7291 16163
7291 16192
7291 16476
7291 17732
7291 18939
7291 20889
7291 21736
7291 21751
7291 22134
7291 22542
7292 13166
7292 14787
7292 18398
7292 18418
7292 22093
7293 9071
7293 10449
7293 12366
7293 14188
7293 21572
7293 23142
7293 23536
7294 9806
7294 15976
7295 8256
7295 11257
7295 13134
7295 13921
7295 15982
7295 20717
7295 21668
7295 22391
7296 8248
7296 10493
7296 11987
7296 12668
7296 13598
7296 14017
7296 14393
7296 16281
7296 20200
7296 20362
7296 21359
7296 21447
7296 23558
7297 8054
7297 11787
7297 14865
7297 15203
7297 19139
7298 8659
7298 9372
7298 9484
7298 11280
7298 11862
7298 15220
7298 18092
7298 18139
7298 18980
7298 24137
7299 16101
7299 22927
7300 9295
7300 11332
7301 10593
7301 16774
7302 7757
7302 9800
7302 12791
7302 17285
7302 18405
7303 20298
7303 20665
7304 11540
7304 17541
7304 17626
7304 19772
7305 11006
7305 14122
7305 21013
7306 10942
7306 22352
7306 23155
7307 11514
7307 20224
7308 8306
7308 10244
7308 14212
7308 22990
7308 23013
7309 18951
7309 19217
7309 19600
7309 20059
7310 12415
7310 17749
7310 23757
7311 7314
7311 7630
7311 8057
7311 8456
7311 9062
7311 9329
7311 9691
7311 9966
7311 9987
7311 10363
7311 11346
7311 11666
7311 12522
7311 13308
7311 13675
7311 14363
7311 14760
7311 14984
7311 15515
7311 15991
7311 17478
7311 17797
7311 18560
7311 18793
7311 19452
7311 19941
7311 20159
7311 20638
7311 20809
7311 21514
7311 22280
7312 14824
7312 22515
7312 23447
7313 15954
7313 17618
7313 19344
7313 21970
7314 20726
7315 7535
7315 9750
7316 11740
7316 12889
7317 10018
7317 22894
7318 15734
7320 16295
7320 19027
7320 20047
7321 7322
7321 11572
7321 20118
7322 7323
7322 11572
7322 11573
7322 11574
7322 15025
7322 20118
7322 21103
7322 21104
7323 11572
7324 8437
7324 9623
7324 11978
7324 12721
7324 13094
7324 17152
7324 18273
7324 20186
7324 21312
7324 21528
7324 22470
7324 22753
7324 23577
7325 10358
7325 18967
7326 8543
7326 9853
7326 10362
7326 12973
7326 13112
7326 13840
7326 14324
7326 15392
7326 15607
7326 21472
7326 21567
7327 10582
7327 19181
7327 22074
7328 15446
7329 18214
7329 21527
7330 8314
7330 24266
7330 24478
7331 15812
7332 11122
7332 20386
7333 14642
7333 22535
7334 11966
7334 19181
7334 19673
7335 11807
7335 14594
7336 16610
7336 19358
7337 18168
7339 8566
7339 10619
7339 12259
7339 23487
7340 11053
7340 18684
7340 23668
7340 23925
7340 24230
7341 23913
7341 24062
7342 16921
7342 17101
7343 9703
7343 10471
7344 7673
7344 9921
7344 12688
7344 23023
7345 15705
7346 7347
7346 7348
7346 22593
7346 23166
7347 18347
7347 23166
7348 7349
7348 18347
7348 22593
7348 23166
7349 18347
7349 22593
7350 7351
7350 18348
7350 21642
7351 21544
7351 21642
7352 9283
7352 10187
7352 19205
7353 11780
7354 12303
7355 10277
7355 15156
7355 15680
7356 9365
7356 10690
7356 17071
7356 18298
7357 7764
7358 17033
7359 13259
7359 16416
7359 20866
7360 7642
7360 11669
7360 13558
7360 14568
7360 18178
7360 21812
7360 21969
7361 7462
7361 9303
7361 9540
7361 9610
7361 12753
7361 13058
7361 15099
7361 16574
7361 16978
7361 17865
7361 17891
7361 18176
7361 20099
7361 20314
7361 21018
7361 21271
7361 21435
7361 23374
7362 23731
7362 23881
7363 13333
7363 15207
7363 18967
7363 19629
7364 8184
7364 8635
7364 10077
7364 11008
7364 12761
7364 13569
7364 15744
7364 20771
7365 12450
7365 13314
7365 21402
7365 22940
7366 10827
7366 18569
7366 20434
7366 22002
7367 8543
7367 10362
7367 12488
7367 12984
7367 14480
7367 17677
7367 21472
7368 12516
7368 15982
7368 20717
7369 10610
7369 17109
7370 21180
7370 21191
7370 21339
7371 9891
7371 14430
7371 15221
7371 16864
7372 7668
7372 13330
7372 14439
7372 16258
7372 20320
7373 8540
7373 9101
7373 11828
7373 13913
7373 17251
7373 18634
7373 21817
7374 7879
7374 10740
7374 12349
7374 24105
7374 24225
7375 7608
7375 8961
7375 11063
7375 12624
7375 16376
7375 19701
7375 22419
7375 23808
7376 9024
7376 13026
7376 13027
7378 23970
7379 7382
7379 9344
7379 10862
7379 11109
7379 24348
7379 24376
7380 15259
7380 18445
7380 20392
7380 22556
7380 23925
7381 14727
7381 15085
7381 15892
7381 18184
7381 23671
7381 23765
7381 24043
7381 24100
7382 8129
7382 11575
7382 12883
7382 13461
7382 18069
7382 19023
7382 21904
7382 23842
7382 23961
7383 14790
7383 18329
7384 8283
7384 12227
7385 14791
7385 22590
7386 24330
7387 9694
7387 18918
7387 21719
7387 22291
7387 23531
7388 23674
7389 8122
7389 8632
7389 8755
7389 9070
7389 12992
7389 13543
7389 14083
7389 14410
7389 14737
7389 15447
7389 16526
7389 16995
7389 17110
7389 18204
7389 18841
7389 18948
7389 20385
7389 21417
7389 21460
7389 22912
7390 10668
7390 11869
7390 20147
7390 22278
7390 23810
7390 24042
7391 10504
7391 17463
7391 18631
7392 10893
7392 22287
7392 23552
7393 9472
7393 22633
7394 20617
7395 8294
7395 9917
7395 15048
7396 14953
7397 10730
7397 12438
7397 12439
7397 13985
7397 14138
7397 18341
7397 23264
7398 23969
7399 15825
7399 20692
7400 11052
7400 18692
7400 21228
7400 21254
7400 24295
7401 8686
7401 9845
7401 11790
7401 18402
7401 18688
7401 21507
7401 21992
7402 9339
7402 19248
7403 15047
7403 16273
7403 16759
7403 19562
7404 13602
7404 18423
7404 20502
7405 23778
7405 24370
7406 8084
7406 15350
7406 18962
7407 10159
7407 11221
7407 18563
7407 21026
7408 12670
7408 14558
7408 18935
7409 10532
7409 12578
7409 17366
7409 18586
7409 22270
7410 8651
7410 21469
7410 23160
7411 14782
7412 8134
7412 9626
7412 21377
7412 24187
7414 8729
7414 16944
7414 18436
7414 20456
7415 8386
7415 16825
7416 7879
7416 24177
7416 24268
7416 24322
7417 9093
7417 10301
7417 20592
7417 21863
7417 23379
7418 11875
7418 22933
7419 12094
7419 15200
7419 16191
7419 16735
7419 20590
7420 15178
7420 19065
7420 23874
7421 16660
7421 19318
7421 21658
7422 10337
7422 19779
7423 10749
7423 14842
7424 12516
7424 15059
7424 19886
7424 20717
7426 8856
7427 14380
7427 15393
7427 20436
7428 18279
7429 18958
7430 10426
7431 10591
7431 15246
7431 18764
7431 20764
7431 22007
7432 11209
7432 18079
7432 19066
7432 20417
7433 8580
7433 10266
7433 11344
7433 12353
7433 13525
7433 15420
7434 12502
7434 13302
7434 20539
7435 7548
7435 9366
7436 13049
7436 16631
7437 10893
7437 21711
7438 20601
7438 20771
7438 22894
7439 22479
7439 22659
7439 22750
7440 16391
7440 21020
7441 11791
7441 23718
7441 24386
7442 9082
7442 11596
7442 24037
7443 9366
7443 20636
7444 14003
7444 19299
7444 20052
7445 10913
7445 13055
7445 14969
7446 9421
7446 12778
7446 16001
7446 17078
7446 17247
7446 20247
7446 21392
7446 22885
7446 24055
7447 7516
7447 7538
7447 7780
7447 14255
7447 16698
7447 16711
7447 19613
7447 21892
7448 13962
7448 21881
7449 7786
7449 11625
7449 12015
7449 13343
7449 20382
7450 8362
7450 10807
7450 12272
7450 12699
7450 12809
7450 15014
7450 17157
7450 17257
7450 18024
7450 19596
7450 21193
7450 22548
7450 22971
7450 23428
7451 20136
7451 21361
7452 7961
7452 19423
7453 11648
7454 10783
7454 15972
7454 23813
7455 8998
7455 10257
7455 15807
7455 19965
7455 21936
7455 23012
7456 14670
7457 7490
7457 7502
7458 9626
7459 14282
7459 17141
7459 18151
7459 21184
7460 18379
7460 19367
7461 15922
7461 16763
7461 20574
7462 12429
7462 16978
7462 17865
7463 19787
7463 20909
7464 11606
7464 13335
7464 18676
7465 9253
7465 18970
7466 18323
7467 7468
7467 7469
7467 18470
7467 18472
7468 7469
7468 8622
7468 18470
7468 18472
7469 8622
7469 8806
7469 10615
7469 16524
7469 18472
7470 10358
7470 21339
7470 22719
7471 10738
7471 11242
7471 15443
7471 22202
7472 8972
7472 13122
7472 13631
7472 18393
7473 15107
7473 20123
7473 20652
7474 12238
7474 13721
7475 12697
7475 22127
7476 9890
7476 11393
7476 12517
7476 17908
7476 22155
7477 10307
7477 13289
7477 16982
7477 17254
7478 19393
7478 21269
7479 8471
7480 8731
7481 13199
7481 19661
7481 22281
7482 13363
7482 24482
7483 11405
7484 8914
7484 16146
7484 19819
7485 10891
7485 12256
7485 13918
7485 15736
7486 8717
7486 18476
7487 24138
7488 13789
7488 20098
7490 12983
7490 19598
7490 23284
7491 24447
7491 24449
7491 24450
7492 12695
7492 16438
7492 19013
7493 14359
7493 16959
7495 23735
7496 9910
7496 15722
7496 18902
7496 19219
7496 22222
7496 22267
7496 23650
7497 8892
7497 12892
7497 14287
7497 20479
7498 8436
7498 8866
7498 9045
7498 9490
7498 15100
7498 16333
7498 17546
7498 19425
7498 21549
7498 22349
7499 13350
7500 9460
7500 13350
7500 13351
7501 17971
7502 23284
7503 9142
7503 10527
7503 19588
7504 11865
7504 16606
7504 17130
7504 17828
7504 20391
7504 22430
7504 23852
7505 8165
7505 22269
7506 8301
7506 8409
7506 24384
7507 9176
7507 18293
7507 21649
7508 9557
7508 9842
7508 21298
7508 23071
7509 15012
7510 11800
7510 18257
7511 11583
7511 22185
7511 23296
7512 12579
7512 16481
7513 8518
7513 21337
7515 8223
7515 8531
7515 11805
7515 22777
7516 14255
7517 8444
7517 15413
7518 7678
7518 20773
7519 11396
7519 21181
7520 11403
7521 10021
7521 16616
7521 20173
7521 24073
7521 24302
7522 18156
7522 19864
7522 23276
7523 10672
7523 16097
7523 23308
7524 9258
7525 7831
7525 12033
7525 13170
7526 11516
7526 11519
7526 20763
7527 9193
7527 11106
7527 12357
7527 18901
7528 14272
7528 16662
7529 9381
7529 10735
7529 13059
7529 15167
7529 18285
7529 19921
7529 22634
7530 18279
7531 12400
7531 14503
7531 16134
7531 19163
7531 19164
7531 19753
7531 22452
7531 22774
7531 23705
7532 12713
7532 13299
7532 22738
7533 8427
7533 13623
7533 18234
7533 20367
7533 22527
7535 9750
7535 9913
7535 10614
7535 10946
7535 11677
7535 12133
7535 12786
7535 15483
7535 17855
7535 18006
7535 19533
7535 19599
7535 19811
7535 21731
7536 8554
7536 11911
7536 15151
7537 7640
7537 23955
7537 24279
7538 13900
7539 9543
7539 21331
7539 22138
7540 15315
7540 19227
7541 11756
7541 23742
7542 11337
7542 11754
7542 12092
7542 23742
7543 22567
7543 23029
7543 23687
7544 12687
7545 23929
7546 11947
7546 13959
7546 17910
7548 8297
7548 9366
7548 10484
7548 12701
7548 15175
7548 22525
7549 11722
7549 11860
7549 23169
7550 12579
7551 13262
7551 17782
7551 19591
7551 22643
7552 9491
7552 10027
7552 10163
7552 12118
7552 18032
7552 18400
7552 20928
7553 9010
7553 12099
7554 13354
7554 17429
7555 7737
7555 8151
7555 23740
7556 19026
7557 13918
7558 11951
7558 22283
7559 8576
7559 13596
7559 16838
7559 17184
7559 17640
7559 18561
7559 18733
7559 23522
7559 23532
7560 7776
7560 8304
7560 9457
7560 9957
7560 20990
7560 23624
7561 7607
7561 9829
7561 15106
7561 17149
7562 9350
7562 14846
7562 15197
7562 16265
7562 20333
7563 11499
7564 15988
7564 17650
7564 21925
7565 16952
7566 10146
7566 11674
7566 22213
7567 12372
7567 23187
7568 12018
7568 23630
7568 24192
7569 7574
7569 7849
7569 8481
7569 21416
7569 23630
7569 24121
7569 24191
7569 24192
7570 20426
7570 20427
7570 23786
7570 24369
7571 7580
7571 12672
7571 19445
7572 7914
7572 8179
7572 8811
7572 16846
7573 7772
7573 24083
7574 23630
7574 23903
7574 24118
7574 24192
7575 12579
7575 15614
7576 10980
7576 11913
7576 12423
7576 13662
7576 17354
7576 21064
7577 10120
7577 16312
7577 17094
7577 22857
7578 7996
7578 21792
7579 9345
7579 10096
7579 11933
7579 15303
7579 19567
7580 19445
7581 19460
7581 20744
7583 8298
7583 18193
7583 19191
7583 20846
7583 21205
7583 22404
7584 13031
7584 13621
7584 15139
7585 7942
7585 9747
7585 12897
7585 12938
7585 13372
7585 13556
7585 14959
7585 16467
7585 17885
7585 18919
7585 19660
7585 20757
7586 11541
7587 8951
7587 16455
7587 18355
7587 18609
7587 19040
7588 18732
7588 20753
7589 8707
7589 11582
7589 14449
7589 16696
7589 22563
7590 21721
7590 22499
7591 11346
7591 19452
7592 8591
7592 15729
7592 22578
7593 8392
7593 16769
7593 17713
7593 18547
7594 14412
7594 16579
7595 15234
7596 15893
7596 17915
7596 19294
7598 12336
7598 14570
7598 16628
7599 9339
7599 9562
7599 10981
7599 19248
7600 11738
7600 23311
7601 7888
7601 12391
7601 13166
7602 13015
7602 18479
7602 19949
7602 21045
7603 7897
7603 10593
7603 12981
7603 18371
7604 10071
7604 15160
7604 19370
7605 10004
7605 10702
7605 18357
7606 21603
7606 22033
7606 22304
7608 9686
7608 11446
7608 23868
7609 10174
7609 12219
7610 10724
7610 13746
7610 13914
7610 16952
7610 19677
7610 21775
7611 8515
7611 17428
7611 19171
7612 13023
7613 9638
7613 10784
7613 16940
7613 21113
7613 23433
7614 7736
7614 9445
7614 16009
7614 17030
7614 17948
7615 9408
7615 13498
7615 21694
7615 21955
7616 12589
7616 12994
7616 16355
7616 21149
7617 12897
7617 13295
7617 16315
7618 17274
7618 17861
7619 9284
7619 9406
7619 10930
7619 11804
7619 13352
7619 15365
7619 17777
7619 20283
7619 21350
7620 12454
7620 20492
7621 9308
7621 21713
7622 19737
7622 23683
7623 8069
7623 12549
7623 15671
7623 22465
7624 17326
7624 18500
7624 21072
7624 23436
7625 15825
7626 13597
7626 23375
7627 12579
7627 13181
7627 16704
7628 7629
7628 17921
7628 18106
7629 14615
7629 17921
7629 22030
7629 22032
7630 14984
7630 19452
7631 12886
7631 20174
7631 23347
7632 8750
7632 12700
7632 13054
7632 22941
7633 11966
7633 16483
7633 22885
7634 15517
7634 20094
7634 20692
7635 19444
7635 24145
7636 19625
7636 21170
7637 18324
7638 20893
7638 23685
7638 23955
7638 24423
7639 7640
7639 11134
7639 11940
7639 23857
7639 23876
7640 8229
7640 12060
7640 15309
7640 23876
7640 24210
7641 9496
7641 9887
7641 10057
7641 12649
7641 16225
7641 20893
7641 22688
7641 23923
7641 24096
7641 24150
7641 24423
7642 14568
7642 21812
7643 17913
7644 9191
7644 14975
7644 18153
7644 19183
7645 9023
7645 15991
7645 21556
7645 22156
7646 8422
7646 8796
7646 9709
7646 13041
7646 19141
7646 22320
7646 23072
7647 8834
7647 9150
7647 9938
7647 23812
7647 24304
7647 24333
7647 24338
7647 24445
7648 15918
7648 16765
7649 18430
7649 19554
7649 20104
7650 8854
7650 16823
7650 22365
7651 11383
7651 13999
7651 14917
7651 16473
7651 17290
7651 19762
7651 23780
7651 23878
7651 24310
7652 8006
7652 13661
7652 19655
7653 24067
7653 24083
7653 24321
7654 18656
7654 20024
7655 7876
7655 18202
7655 22379
7656 7876
7656 11901
7656 15938
7656 20634
7656 23412
7657 9852
7657 13673
7658 7876
7658 15939
7659 9379
7659 15340
7660 20248
7661 24402
7662 8986
7662 19263
7663 10929
7663 11412
7663 12999
7663 16316
7664 7764
7664 8144
7664 10064
7664 16566
7665 12479
7665 12481
7665 12916
7665 16761
7666 13157
7667 8017
7667 18239
7667 19012
7668 12047
7668 12976
7668 14439
7668 15118
7668 16258
7668 21599
7668 22298
7669 8345
7669 15697
7669 16236
7669 17465
7669 17466
7669 17467
7669 17468
7670 11063
7671 15208
7671 18382
7672 9064
7672 12801
7672 12937
7672 13482
7672 19813
7672 22026
7673 7976
7673 9630
7673 12100
7673 12688
7673 16468
7673 16941
7673 22089
7674 7944
7674 14554
7674 17432
7674 19789
7674 23092
7675 18052
7675 23494
7676 23978
7677 8348
7677 8373
7677 17382
7678 14746
7678 20773
7679 22769
7679 23528
7681 9718
7681 10043
7681 12829
7681 13744
7681 19707
7681 22450
7681 22649
7682 7984
7682 24152
7682 24428
7683 9172
7683 10269
7683 12843
7683 13426
7683 14109
7683 14930
7684 23323
7684 23696
7684 24168
7685 13535
7685 17636
7685 17741
7685 18663
7685 23223
7686 9204
7686 11169
7686 20920
7686 22028
7686 23369
7687 9700
7687 13813
7687 16172
7687 17141
7688 13364
7688 17353
7688 17860
7689 14373
7689 19112
7689 19842
7689 20066
7689 22253
7690 7977
7690 9164
7690 10053
7690 11924
7690 13800
7690 14341
7690 18898
7690 19184
7690 21570
7690 21781
7691 13504
7691 18631
7691 21029
7691 22365
7692 7694
7692 8808
7692 8809
7692 14681
7693 14777
7693 15480
7694 8808
7694 8809
7694 14681
7694 14798
7694 17455
7695 10678
7695 20771
7696 9323
7696 11499
7696 14226
7696 20660
7697 9677
7697 21405
7698 8553
7698 20271
7699 9460
7699 13350
7699 20238
7700 8570
7701 8305
7701 20266
7701 22589
7702 8753
7702 12819
7702 14363
7703 7834
7703 9483
7703 11874
7703 12288
7704 12129
7704 12710
7704 22969
7705 9315
7705 17249
7705 19455
7705 21492
7706 7787
7706 8468
7706 9368
7706 13834
7706 22465
7707 10881
7707 11456
7707 12499
7707 19981
7708 8821
7708 16483
7709 17969
7709 20670
7710 12897
7711 9493
7711 9769
7711 18083
7712 9448
7712 14301
7712 19855
7713 11980
7713 23203
7713 24093
7713 24154
7714 17305
7714 18782
7715 17029
7715 19051
7716 9735
7716 14585
7717 8215
7717 13035
7717 23403
7718 23731
7719 14035
7719 15788
7719 16079
7719 20321
7720 11082
7720 11672
7720 21303
7720 23168
7721 12016
7721 12018
7721 22794
7721 23904
7721 23936
7721 24118
7721 24120
7721 24185
7721 24191
7721 24193
7721 24194
7721 24327
7722 14962
7722 16483
7723 9545
7723 16388
7723 23499
7724 10432
7724 14130
7724 14474
7724 18884
7724 20423
7724 22244
7725 8857
7725 14877
7725 23369
7726 8163
7726 15127
7726 17098
7727 7779
7727 11422
7727 11770
7727 12544
7727 15640
7727 15960
7727 17873
7727 21083
7727 21378
7727 23291
7728 17379
7728 20306
7728 21787
7729 14161
7729 15934
7729 22617
7730 8318
7730 15554
7730 22209
7730 22645
7730 23511
7731 12994
7731 17186
7732 12127
7733 15527
7733 18584
7733 22454
7734 17698
7735 8317
7735 11634
7735 13932
7736 9445
7736 17948
7736 19005
7737 8151
7737 13872
7737 21684
7738 14114
7738 14790
7739 13432
7739 16253
7739 17031
7739 21031
7739 23220
7739 23458
7740 11181
7740 20342
7741 20824
7741 21654
7741 21927
7741 22913
7742 15103
7742 17758
7742 17835
7742 21248
7742 22187
7742 23461
7743 9896
7743 11338
7743 11667
7743 13149
7743 22013
7743 22014
7743 22015
7743 23633
7743 23659
7743 23738
7743 23820
7743 24254
7743 24284
7743 24365
7743 24401
7743 24487
7744 18474
7744 19587
7745 8440
7745 15768
7745 15986
7745 16175
7745 20899
7745 23911
7746 23981
7746 24476
7746 24488
7747 13076
7747 21903
7748 8594
7748 23896
7748 24028
7748 24148
7749 8857
7749 13870
7751 16768
7751 17447
7751 18632
7752 23615
7752 23861
7753 12462
7753 16182
7753 17527
7753 17580
7753 18616
7753 20259
7754 8051
7754 15012
7754 17406
7754 18091
7755 8930
7756 22119
7757 9800
7757 12791
7757 14664
7757 17285
7757 18405
7758 9819
7758 11564
7758 19028
7758 22284
7758 22426
7759 10854
7759 18559
7759 21796
7760 11757
7760 21521
7761 8857
7761 9284
7761 9294
7761 9406
7761 13352
7761 15365
7761 15650
7761 17777
7761 20283
7762 15411
7762 20295
7762 20604
7762 21931
7763 9325
7763 14018
7763 15350
7764 10064
7764 11851
7764 13329
7764 16775
7764 21266
7765 19314
7765 23028
7766 11703
7766 19241
7766 22264
7767 8369
7767 12244
7767 13188
7767 14271
7767 19200
7767 21585
7768 12590
7768 23813
7768 24276
7769 9604
7769 10038
7769 19951
7769 20400
7769 23056
7770 14219
7770 18746
7771 8777
7771 9965
7772 8930
7773 21713
7774 8213
7774 13557
7774 17462
7775 11514
7775 22940
7776 9056
7776 17150
7777 14158
7777 21608
7777 21750
7777 22865
7777 23079
7779 8430
7779 11421
7779 11422
7779 11770
7779 12403
7779 15960
7779 17873
7779 19054
7780 13900
7780 17100
7780 19379
7780 19613
7780 21892
7781 13768
7781 21605
7781 21707
7783 14855
7783 19312
7783 20499
7783 22166
7784 10391
7784 10716
7784 22376
7785 13481
7785 14935
7786 12015
7786 13343
7787 9763
7787 10928
7787 11445
7787 14814
7787 17035
7787 17657
7787 18266
7787 19088
7788 11802
7788 21592
7789 8290
7789 10199
7789 15458
7790 7909
7790 14860
7790 15957
7790 16310
7790 19827
7791 7973
7791 9476
7791 17866
7791 17962
7792 10887
7792 11689
7792 15719
7792 22273
7793 20199
7793 20653
7793 23125
7794 15434
7794 22992
7795 17550
7796 10222
7796 12113
7796 12596
7797 14120
7797 18568
7798 10577
7798 19727
7798 20280
7798 20345
7799 8646
7799 10667
7799 11956
7799 14126
7799 20914
7799 22844
7800 10596
7800 10945
7800 13854
7800 17557
7801 11672
7801 23168
7802 10159
7802 11688
7802 21026
7803 8464
7803 12108
7803 21455
7804 13763
7804 13994
7804 17056
7804 17057
7804 17474
7804 17476
7804 18059
7804 18060
7804 23224
7804 23226
7805 7950
7805 15377
7805 18343
7806 8511
7806 11436
7806 22697
7807 10661
7807 13298
7807 16538
7807 19582
7808 12912
7808 15659
7808 20413
7809 9691
7809 10278
7809 17687
7809 19338
7810 10160
7810 11289
7810 11467
7810 13731
7810 17347
7810 18168
7810 19513
7811 10280
7811 10760
7811 10885
7811 15877
7811 16418
7811 17411
7811 20144
7811 23102
7812 16624
7812 16768
7812 17447
7812 18632
7813 12056
7813 13696
7814 8586
7814 13764
7814 17056
7814 18059
7814 18060
7814 18424
7814 18483
7814 18484
7814 23226
7815 8639
7815 9694
7815 14214
7815 14309
7815 18918
7815 19899
7815 20203
7815 20403
7815 21206
7815 21719
7815 22291
7815 22663
7815 23051
7815 23531
7816 18876
7816 20406
7817 7818
7817 7819
7817 7821
7817 7822
7817 9202
7817 12067
7818 7819
7818 7822
7818 7824
7818 12067
7819 7821
7819 7822
7820 8072
7820 22088
7820 22854
7821 7822
7822 7824
7822 12067
7823 10142
7823 10328
7823 11918
7823 13440
7823 18378
7824 12067
7825 15059
7825 15982
7826 10004
7826 10702
7827 10591
7827 11955
7827 17560
7827 22828
7828 19117
7829 9645
7829 11958
7829 13390
7830 8497
7831 10631
7832 16425
7833 8027
7833 20165
7833 22853
7834 9483
7834 11874
7834 18062
7834 22381
7836 14921
7836 15342
7836 16722
7836 17430
7837 9035
7837 11959
7837 13200
7837 21693
7838 12129
7838 14016
7838 14616
7839 17043
7840 9333
7840 12631
7840 12680
7841 16537
7842 15242
7842 18380
7842 20177
7843 24377
7844 9529
7844 15212
7844 15958
7844 18642
7844 19022
7845 9568
7845 10288
7845 11598
7845 15686
7845 15766
7845 20478
7845 22873
7846 7908
7846 8887
7846 13965
7846 20936
7847 8019
7847 8611
7849 8481
7849 23630
7849 24121
7849 24289
7849 24327
7849 24358
7850 8215
7850 8460
7850 13035
7851 8034
7851 9687
7851 13446
7851 14651
7851 15130
7852 10868
7852 13539
7852 19739
7853 14331
7853 16091
7853 20636
7854 9888
7854 10379
7854 16522
7854 23503
7855 8019
7855 13227
7856 11368
7856 12351
7857 8276
7857 16106
7857 16107
7858 22588
7859 7924
7859 8637
7859 8930
7859 10162
7859 10367
7859 10792
7859 12646
7859 13612
7859 15321
7859 15580
7859 22699
7859 22736
7859 22783
7859 23658
7859 23721
7859 23818
7859 24036
7859 24083
7859 24233
7859 24274
7859 24291
7859 24314
7859 24380
7859 24385
7860 11100
7860 14286
7860 16571
7860 19428
7861 8886
7861 21029
7862 17473
7862 22037
7864 19997
7865 11583
7866 8962
7866 9286
7866 12994
7866 22344
7868 9083
7868 9552
7868 9762
7868 12638
7868 13919
7868 15804
7868 18100
7868 18951
7868 19217
7868 19600
7868 19623
7868 19798
7868 20674
7868 21678
7868 21727
7868 22495
7868 22718
7868 23744
7869 9470
7870 12121
7870 14715
7870 21077
7871 9119
7871 9318
7871 23713
7871 23800
7871 23938
7871 24278
7872 8016
7872 23786
7872 24053
7873 7979
7873 8422
7873 8824
7873 12930
7873 17460
7873 17584
7873 21534
7873 23031
7873 23214
7874 17752
7874 18910
7875 9002
7875 11267
7875 16001
7876 10031
7876 11901
7876 14473
7876 15939
7876 15940
7876 17010
7876 18202
7876 18203
7876 20198
7876 20633
7876 20634
7876 21901
7876 22379
7876 23412
7876 23528
7877 14292
7877 19257
7877 21154
7878 10121
7878 14038
7878 17434
7879 12940
7879 24081
7879 24186
7879 24268
7879 24322
7880 13784
7880 18653
7880 19138
7881 14462
7881 15789
7881 16894
7881 18047
7882 11357
7882 18375
7882 18998
7882 23100
7883 12323
7883 18183
7883 22503
7884 9159
7884 10593
7885 8979
7885 10067
7885 11340
7886 11791
7886 23718
7886 24225
7886 24386
7887 8954
7887 10970
7887 14539
7887 20670
7888 8354
7888 8457
7888 10070
7888 10514
7888 11566
7888 11866
7888 11921
7888 12690
7888 13166
7888 13591
7888 14256
7888 14508
7888 14874
7888 15783
7888 16709
7888 16832
7888 16848
7888 17026
7888 17789
7888 18365
7888 18556
7888 18781
7888 21159
7888 21760
7888 21866
7888 21883
7888 21900
7888 22978
7889 8113
7889 18165
7890 16963
7890 23078
7891 16795
7891 18593
7891 23248
7892 19287
7893 18978
7894 12399
7894 19554
7894 21380
7895 11641
7895 24013
7895 24088
7895 24177
7896 10671
7896 11758
7897 10174
7897 12219
7897 13145
7897 13540
7897 15742
7897 16365
7897 16751
7897 18744
7897 19825
7897 20737
7897 22048
7898 10138
7898 11895
7898 18847
7898 19831
7899 7900
7899 7902
7899 7904
7899 18349
7899 22355
7900 7902
7900 8718
7900 18349
7900 22355
7901 7904
7901 8718
7901 18349
7901 18603
7901 20122
7902 18349
7902 22355
7903 13196
7903 13593
7903 18537
7904 18349
7904 18603
7904 22464
7905 8907
7905 11481
7905 12109
7905 17182
7905 19654
7905 20679
7906 15538
7906 20718
7907 20107
7907 20376
7907 22287
7908 13965
7908 20936
7909 15957
7909 16894
7910 23865
7910 24067
7911 10416
7911 11151
7911 15665
7912 17992
7912 19318
7912 20107
7913 15287
7913 21681
7913 21820
7914 8179
7914 8811
7914 16846
7915 8380
7915 11310
7915 13415
7915 16722
7916 15538
7916 15704
7916 18631
7916 20718
7917 9384
7917 18849
7918 11980
7918 23855
7918 23920
7918 24154
7919 24167
7920 12835
7921 8393
7921 17622
7921 20311
7922 11551
7922 11731
7922 14833
7923 10774
7923 11417
7923 15271
7923 17224
7924 8930
7924 15580
7924 18808
7924 23734
7925 8551
7925 17225
7925 19506
7926 11540
7926 17541
7926 17626
7926 19772
7927 18471
7927 19891
7927 22154
7928 8637
7928 15580
7928 24274
7929 11058
7929 13520
7929 18845
7929 20260
7930 13683
7930 16539
7930 17027
7931 10717
7931 17669
7931 17713
7931 17846
7931 20282
7932 9789
7932 18501
7932 21162
7933 12102
7933 12620
7933 16506
7933 19198
7934 9478
7934 9792
7934 15452
7934 21096
7934 22316
7934 22317
7935 9976
7935 11060
7935 16374
7936 19337
7937 23369
7937 24479
7938 12223
7938 12325
7938 12448
7938 13412
7938 13518
7938 14526
7938 16402
7938 16525
7938 17087
7938 17221
7938 20560
7938 21887
7939 15861
7939 15862
7939 16889
7940 10551
7941 12120
7941 13210
7941 15648
7942 8142
7942 8260
7942 9747
7942 10497
7942 10707
7942 12897
7942 13372
7942 14653
7942 15135
7942 16016
7942 16770
7942 19715
7942 21392
7942 22351
7942 22436
7943 18900
7944 14554
7944 19789
7945 8372
7945 14059
7945 14902
7945 14903
7945 19956
7945 20779
7945 21676
7946 14585
7946 21593
7946 21614
7947 8869
7947 19438
7948 8290
7948 18747
7949 9890
7949 11393
7950 12437
7950 20130
7951 19040
7951 20554
7952 12686
7952 14407
7952 15274
7952 22927
7953 19968
7953 23356
7954 11697
7954 14191
7954 22627
7955 8280
7955 13917
7955 15018
7956 11465
7956 11877
7957 11402
7957 18224
7957 18226
7958 9510
7958 20672
7958 20877
7958 22717
7959 11877
7960 15861
7960 15862
7960 16889
7961 19423
7962 8930
7962 18396
7962 24083
7963 14796
7963 23378
7963 23514
7964 10469
7964 19611
7964 20461
7965 9091
7965 9655
7965 14121
7965 14922
7965 15732
7965 16435
7965 17712
7965 18735
7965 20854
7965 21653
7965 22338
7965 23730
7966 13419
7966 15145
7966 17773
7966 19381
7966 21437
7968 12043
7968 23924
7968 23930
7969 11650
7969 15230
7970 17419
7970 22006
7970 22599
7971 15351
7972 9096
7972 11683
7972 13381
7972 14117
7972 14601
7972 19051
7972 20528
7972 20871
7973 17962
7973 23358
7974 12388
7974 23789
7975 8539
7975 11651
7975 15242
7976 23023
7977 9813
7977 10053
7977 10122
7977 10240
7977 10583
7977 11725
7977 12832
7977 12918
7977 13379
7977 13777
7977 13800
7977 14162
7977 14749
7977 15427
7977 19704
7977 20668
7977 20915
7977 21424
7977 21570
7978 10215
7978 10992
7978 12026
7978 12070
7978 12481
7978 18568
7978 19123
7978 21819
7978 23047
7979 12930
7979 18001
7980 8645
7980 16593
7980 16897
7980 17565
7980 19554
7980 21837
7981 7982
7981 8528
7981 21234
7981 23138
7982 22911
7983 12842
7983 15958
7983 18510
7984 8397
7984 8788
7984 12168
7984 12622
7984 13046
7984 14061
7984 19936
7984 23985
7984 24041
7984 24104
7984 24152
7984 24428
7985 10636
7985 17070
7985 20401
7985 23103
7986 12767
7986 17280
7987 10510
7987 11839
7987 17931
7987 20036
7987 21022
7987 21063
7987 24177
7988 8109
7988 16054
7989 14295
7990 8857
7990 9300
7990 9802
7990 13870
7990 19527
7990 23232
7990 23736
7991 11002
7991 23213
7991 23699
7992 17935
7992 20527
7993 9166
7993 9376
7993 18751
7994 11699
7994 17616
7995 10310
7995 16426
7995 17082
7995 17608
7995 19848
7996 11649
7996 19427
7997 15957
7997 16360
7997 20964
7998 18631
7998 19564
7999 17162
7999 21881
8000 8823
8000 12214
8000 12286
8000 18305
8000 19416
8000 21680
8000 22547
8002 8782
8002 8857
8002 10523
8002 12966
8002 15581
8002 20243
8003 13532
8003 14178
8004 15167
8004 19631
8005 8350
8005 23641
8005 23924
8006 13661
8006 19655
8006 21275
8007 8660
8007 11800
8007 18257
8007 19642
8008 16798
8008 17735
8009 8443
8009 11829
8009 13554
8009 21021
8010 14600
8010 15619
8010 16254
8011 9375
8011 22461
8012 9117
8012 16780
8013 9072
8013 10235
8014 9681
8014 12934
8014 13508
8014 18417
8014 19647
8014 20902
8014 22850
8015 10159
8015 11688
8015 20812
8016 13444
8016 15767
8016 22487
8016 23999
8016 24051
8016 24052
8016 24053
8017 20399
8018 8265
8018 12708
8018 19923
8019 8611
8019 8615
8019 9817
8019 10097
8019 11316
8019 11568
8019 11762
8019 12104
8019 12147
8019 12157
8019 12263
8019 13060
8019 13227
8019 14223
8019 15287
8019 16828
8019 18385
8019 19144
8019 20371
8019 20516
8019 20804
8019 21199
8019 21345
8019 21681
8019 21820
8019 21963
8019 22005
8019 22494
8019 22598
8020 14412
8021 8795
8021 12542
8021 20133
8022 8782
8022 10523
8023 9798
8023 17272
8023 17923
8023 20956
8023 23179
8024 17216
8024 17602
8024 21962
8025 13024
8025 14049
8025 15061
8026 8800
8026 8853
8026 8883
8026 9514
8026 9765
8026 11030
8026 11571
8026 11601
8026 11639
8026 11861
8026 12234
8026 12558
8026 13111
8026 13190
8026 13331
8026 13691
8026 14153
8026 14526
8026 14585
8026 15083
8026 15395
8026 15541
8026 15703
8026 16556
8026 16955
8026 19982
8026 20607
8026 21593
8026 21614
8026 21621
8026 21887
8026 22020
8026 22982
8026 23393
8026 23456
8026 23583
8027 8837
8027 11406
8027 15032
8027 20165
8027 22853
8028 10496
8028 22518
8029 13892
8029 17261
8029 19406
8030 10507
8030 12684
8030 14376
8030 18911
8030 19959
8030 20138
8030 23387
8031 10131
8031 16644
8031 22389
8032 8033
8032 8897
8032 8898
8032 9985
8032 10675
8032 11506
8032 12853
8032 16756
8032 16895
8032 21277
8032 23007
8032 23008
8032 23152
8033 8897
8033 8898
8033 9985
8033 11506
8033 12854
8033 13887
8033 16756
8033 16895
8033 21277
8033 23007
8034 9687
8034 9727
8034 11163
8034 11200
8034 11712
8034 11992
8034 13108
8034 13446
8034 14651
8034 15130
8034 17905
8034 20814
8034 22165
8035 9452
8035 12571
8035 17830
8036 8225
8036 15572
8036 16066
8036 18605
8036 19767
8037 12802
8037 18678
8037 21868
8038 10327
8038 13790
8039 8123
8039 14668
8039 15042
8040 20421
8041 9360
8041 12272
8041 22548
8042 9851
8042 10971
8042 11132
8042 11160
8042 12718
8042 13971
8042 14236
8042 17765
8042 18682
8042 18846
8043 14538
8043 14589
8043 18512
8043 21088
8044 9586
8044 10010
8044 11016
8044 14815
8044 16903
8044 24010
8044 24047
8045 20650
8045 21681
8046 8475
8047 10402
8047 14535
8048 18940
8049 16545
8049 19149
8050 11908
8050 12453
8050 22845
8050 23829
8051 17406
8051 18091
8051 19010
8052 11908
8053 8647
8053 23213
8053 23266
8054 9186
8054 10927
8054 11787
8054 11945
8054 14865
8054 15308
8054 17333
8054 19139
8054 20281
8054 20589
8054 21147
8054 21628
8054 23326
8055 8817
8055 12319
8055 15673
8055 17648
8055 18838
8055 20096
8055 23539
8056 8799
8057 9100
8057 11861
8057 21593
8058 8266
8058 16768
8058 17447
8058 18632
8058 20973
8059 15329
8059 21606
8060 11558
8060 18116
8060 19126
8061 8857
8061 9157
8061 13096
8061 13870
8061 20216
8062 15305
8062 16672
8063 12780
8063 14687
8063 17712
8063 22981
8064 10039
8064 10485
8064 10599
8064 12053
8064 13198
8064 13346
8064 15306
8064 15712
8064 19210
8064 19824
8064 22592
8064 22904
8065 10336
8065 12576
8065 13414
8065 14272
8065 14351
8065 16830
8065 21468
8066 8965
8066 10925
8066 11883
8066 18281
8066 18412
8067 12981
8067 23431
8068 12019
8068 17598
8068 18041
8069 12549
8071 11548
8071 14643
8071 20813
8071 21315
8072 10776
8072 15077
8073 10464
8073 23065
8073 23537
8074 9323
8074 10853
8074 11499
8074 15417
8075 11898
8075 11899
8075 13021
8075 16352
8076 9148
8076 22022
8077 11131
8077 15492
8077 23148
8078 8878
8078 9654
8078 11863
8078 12087
8078 12769
8078 18787
8078 20731
8078 23155
8078 23401
8079 9743
8079 15612
8079 17652
8079 17850
8079 18881
8081 20163
8082 8287
8082 10364
8082 10538
8082 10909
8082 12364
8082 13901
8082 14159
8082 14182
8082 15374
8082 15672
8082 16551
8082 16725
8082 18169
8082 18211
8082 18372
8082 19424
8082 20624
8082 20989
8082 21062
8082 21988
8082 22166
8082 22433
8082 22531
8082 22620
8082 22665
8082 22995
8082 23085
8083 9486
8083 23915
8084 11620
8084 14561
8084 14718
8084 15350
8084 16784
8084 17536
8084 18230
8084 18962
8085 8975
8085 9959
8085 13455
8085 15053
8085 16015
8085 16819
8085 19418
8085 23424
8085 23553
8086 10584
8086 16284
8086 17670
8086 19090
8087 19937
8088 8985
8088 10063
8088 11329
8088 17119
8089 20107
8090 22056
8090 22709
8091 17605
8092 11575
8092 23912
8092 23969
8093 16073
8094 19588
8095 11405
8095 20653
8096 8433
8096 10278
8096 17687
8097 11147
8097 13353
8097 14073
8097 14074
8097 15461
8097 18897
8099 10875
8099 11488
8099 19430
8099 19721
8100 16486
8100 17243
8100 22239
8102 9349
8102 10918
8102 16464
8102 17978
8102 21283
8102 22780
8103 8221
8104 19423
8104 21593
8105 14797
8106 18974
8106 23526
8107 14472
8107 24164
8108 8286
8108 17395
8110 18188
8111 8446
8111 16612
8111 18819
8111 22881
8112 14833
8112 15350
8113 9960
8113 18840
8113 19554
8114 9760
8114 10974
8114 13300
8114 16054
8114 18031
8114 18439
8114 18875
8114 23493
8115 11935
8115 20503
8116 8853
8116 10694
8116 11339
8116 12134
8116 13111
8116 13222
8116 14795
8116 15133
8116 15435
8116 15552
8116 16796
8116 17689
8116 18177
8116 23381
8117 16425
8117 20544
8118 8608
8118 10649
8118 12773
8118 15341
8118 15510
8119 21711
8120 9975
8120 15650
8120 21195
8121 23735
8121 23824
8121 24015
8122 16995
8122 18841
8125 16558
8125 22568
8126 11608
8126 14147
8126 19325
8127 11911
8127 19318
8127 22025
8128 23284
8129 11253
8129 21444
8129 22508
8129 23773
8129 24301
8130 11636
8130 18399
8130 18494
8131 8490
8131 24397
8132 12722
8132 15868
8132 19191
8132 22404
8133 20502
8134 21377
8134 24016
8135 14847
8136 8293
8136 10224
8136 19282
8136 24429
8137 8629
8137 10224
8137 10650
8137 11679
8137 13191
8137 14995
8137 19282
8137 24429
8138 13937
8138 23542
8140 15323
8140 16373
8141 12370
8141 23568
8142 14297
8143 13273
8144 10900
8144 13329
8144 16566
8144 19352
8144 20949
8144 21266
8145 11483
8146 9278
8146 9660
8146 11912
8146 19552
8147 8260
8147 8823
8147 10470
8147 11784
8147 12286
8147 12897
8147 16446
8147 16945
8147 21240
8148 8962
8149 12675
8149 19167
8149 24352
8149 24404
8150 13783
8150 20100
8150 22855
8150 24061
8151 16165
8151 23740
8152 12179
8152 19832
8153 8804
8153 10740
8153 24009
8153 24158
8154 17553
8154 18631
8154 22365
8155 10741
8155 12638
8155 13757
8155 18100
8155 19513
8155 22192
8156 9132
8156 11566
8156 12690
8156 13166
8156 18781
8156 18861
8156 21866
8157 12345
8157 15178
8157 23787
8157 24071
8158 16257
8158 17248
8158 17495
8159 10712
8159 20696
8160 14490
8160 17371
8160 23369
8161 10140
8161 12045
8161 20306
8161 21787
8162 13014
8162 14099
8162 18051
8163 11785
8163 14622
8163 15127
8163 15337
8164 14340
8164 14446
8164 22848
8165 13613
8165 14612
8165 15823
8165 22269
8166 17893
8167 13916
8167 14893
8167 18959
8167 20844
8168 10358
8168 21339
8169 19103
8169 20328
8170 11056
8170 12047
8171 13138
8171 14535
8171 14681
8171 14686
8171 15331
8171 15369
8171 22050
8171 22372
8172 21981
8172 22785
8173 12862
8173 14008
8173 19837
8173 21091
8174 9509
8174 13944
8174 20537
8175 10061
8175 12196
8175 21080
8175 21855
8176 10951
8176 17068
8176 22529
8177 8901
8177 9100
8177 14722
8178 14267
8179 8811
8179 16846
8180 8402
8180 10894
8180 10961
8180 12413
8180 18381
8180 21411
8180 21413
8181 14827
8181 15811
8181 18879
8181 21724
8181 22337
8181 23233
8181 23448
8182 13776
8182 16736
8182 23081
8183 8449
8183 10384
8183 10765
8183 12629
8183 21555
8184 12491
8184 17442
8184 20771
8185 14006
8185 18041
8186 9102
8186 10213
8186 10349
8186 11290
8186 12552
8186 14585
8186 21168
8187 13422
8187 17067
8187 19569
8188 8199
8188 10418
8188 22522
8188 23966
8188 23968
8189 13707
8189 22991
8190 10018
8191 14540
8191 23879
8191 24095
8192 10858
8192 22170
8193 15426
8193 19050
8193 21340
8194 8278
8194 10014
8194 14877
8194 18166
8195 11439
8195 11565
8195 14100
8195 21117
8195 23970
8196 10935
8197 19313
8197 20767
8198 9587
8198 11214
8198 12620
8198 14562
8198 15293
8199 10418
8199 13462
8199 18069
8199 19137
8199 21904
8199 22523
8199 23409
8199 23698
8199 23735
8199 24154
8200 9099
8200 13042
8200 17384
8200 17547
8200 17912
8200 20190
8200 20293
8201 9210
8201 11892
8201 18577
8201 23195
8201 23695
8201 24353
8201 24438
8202 10955
8202 13665
8202 17259
8202 18924
8202 23182
8203 10676
8203 15455
8203 16631
8203 18513
8203 21318
8204 15392
8205 9820
8205 18535
8205 19096
8205 19765
8206 12290
8206 24360
8207 13148
8208 17404
8208 17926
8208 20217
8209 17225
8209 17566
8210 11320
8210 13423
8210 22762
8211 10227
8211 22764
8211 23204
8211 23649
8212 10227
8212 10231
8212 13528
8212 22764
8213 9391
8213 13516
8213 15973
8213 16147
8214 23827
8215 9628
8215 11151
8215 13035
8215 15665
8215 17001
8215 23403
8216 23346
8216 24450
8217 10151
8217 11306
8217 12039
8217 13255
8217 13475
8217 15380
8217 15734
8217 21146
8218 17421
8218 20049
8218 22212
8219 11124
8219 12021
8220 11415
8220 22611
8221 21880
8222 10456
8222 22685
8223 8531
8223 8850
8223 18434
8223 19495
8223 20591
8223 23686
8224 8748
8224 12231
8224 22905
8225 11478
8225 16066
8225 21102
8226 11919
8226 14883
8227 8290
8227 22138
8228 8331
8228 12382
8228 23814
8228 24068
8229 23713
8229 23758
8229 23815
8230 10258
8230 22569
8230 22961
8231 21117
8232 11509
8232 23884
8233 13430
8233 14455
8233 21916
8233 22328
8234 10260
8234 11500
8234 12332
8234 18664
8235 18686
8236 11740
8236 23626
8237 10459
8237 13032
8237 15179
8237 20752
8237 21221
8237 22946
8237 23827
8238 9515
8238 10740
8238 11434
8238 12665
8238 15006
8238 23716
8238 23920
8238 24325
8239 9161
8239 12562
8239 15347
8240 8241
8240 17218
8240 24206
8240 24277
8240 24470
8241 8242
8241 24277
8241 24470
8242 17218
8242 23889
8242 24470
8243 11072
8243 12218
8243 12594
8243 17063
8244 15573
8244 17304
8245 8351
8245 9230
8245 10387
8245 13089
8245 17225
8245 17566
8245 19506
8245 20816
8245 24315
8247 8826
8247 11699
8247 16394
8247 18710
8249 8452
8249 15043
8249 18645
8250 16824
8250 23326
8251 24211
8251 24298
8251 24475
8252 13926
8252 15289
8252 22348
8253 11610
8253 21614
8254 8815
8254 12911
8255 8857
8255 14877
8255 23369
8256 13921
8256 20732
8257 10914
8257 14154
8257 21616
8258 8857
8258 9770
8258 12776
8258 14333
8259 13365
8259 18550
8261 13114
8261 14071
8261 15029
8261 16508
8262 9696
8262 13928
8262 18704
8262 20460
8263 8541
8263 17092
8263 18289
8263 19659
8264 16382
8264 19554
8265 11778
8265 12708
8265 22497
8265 23440
8266 8552
8266 9206
8266 10345
8266 10624
8266 12137
8266 13328
8266 14515
8266 15692
8266 16431
8266 16768
8266 17447
8266 18632
8266 20211
8266 20973
8267 16657
8268 8947
8268 15360
8269 9986
8269 10124
8269 12264
8269 14408
8269 16810
8270 12148
8270 13232
8270 20303
8270 21342
8270 21987
8271 9189
8271 10046
8271 11005
8271 24057
8272 11724
8272 12789
8272 17167
8273 21658
8273 21664
8274 10593
8274 10814
8274 21740
8275 18286
8275 18998
8276 16106
8276 16107
8277 10620
8277 12321
8277 20051
8278 9569
8278 14877
8279 11359
8279 12516
8280 9849
8280 9911
8280 11031
8280 14436
8280 22967
8281 12835
8281 20603
8281 22960
8282 16546
8282 16611
8282 18434
8282 19495
8283 12227
8283 14810
8283 21816
8284 15250
8284 15270
8284 17206
8284 19047
8284 19666
8284 21757
8284 22003
8285 14475
8285 22040
8285 23121
8286 11047
8286 23263
8286 23276
8287 22995
8288 17737
8288 21496
8289 21556
8290 8336
8290 9076
8290 9534
8290 9543
8290 10743
8290 11075
8290 11868
8290 11993
8290 13122
8290 14467
8290 14547
8290 15457
8290 15458
8290 15472
8290 16340
8290 16998
8290 17662
8290 17757
8290 18743
8290 19453
8290 22468
8291 11786
8291 15246
8291 20764
8291 22007
8293 10650
8293 24361
8295 8530
8295 8908
8295 14634
8295 21200
8295 21201
8296 14462
8296 16894
8297 8463
8297 9573
8297 12612
8297 12736
8297 13937
8297 14085
8297 15763
8297 16817
8297 17731
8297 19011
8297 21322
8297 21846
8297 22525
8298 18193
8298 20389
8298 22246
8299 9158
8299 9415
8299 9482
8299 10565
8299 12065
8299 13054
8299 13063
8299 13090
8299 15263
8299 20552
8299 21382
8300 8655
8300 9192
8300 13130
8300 17793
8301 8409
8301 10791
8301 24370
8301 24384
8302 8774
8302 12232
8302 13115
8302 19085
8303 9389
8303 14187
8303 19073
8303 21581
8304 9957
8304 20990
8305 20266
8305 22589
8306 9804
8306 15973
8306 18538
8306 21262
8306 23467
8307 12072
8307 12073
8307 15528
8307 18572
8307 23546
8308 8895
8308 24031
8308 24094
8308 24439
8309 10546
8309 11012
8309 11018
8309 15178
8309 23787
8309 24071
8310 9267
8310 9723
8310 24089
8310 24215
8311 9080
8311 9337
8311 9519
8311 9723
8311 17914
8311 24418
8312 9723
8312 20339
8312 20532
8312 23756
8312 24089
8312 24131
8312 24215
8313 8549
8313 9724
8313 9978
8313 10544
8313 10547
8313 10548
8313 14926
8313 17200
8313 24342
8314 23835
8314 24008
8314 24186
8315 18846
8315 21655
8316 19968
8316 21457
8316 23356
8317 15538
8317 18261
8318 22209
8318 23511
8319 9404
8319 14044
8319 15165
8319 15302
8319 18186
8319 18857
8319 20576
8319 21251
8319 22095
8320 8563
8320 12664
8320 24336
8320 24382
8321 10056
8321 17269
8321 19661
8322 14125
8323 10571
8323 12029
8323 12348
8323 22904
8324 14498
8324 18761
8325 11054
8325 23668
8325 23925
8326 11212
8326 14233
8326 20439
8327 10375
8327 24037
8327 24439
8328 14057
8329 23619
8329 23913
8330 8789
8330 13254
8330 18344
8330 20213
8331 12382
8331 23784
8331 24068
8332 12681
8332 16807
8332 23427
8333 12994
8333 13609
8333 13664
8333 14446
8333 21149
8334 10621
8334 23230
8335 12767
8335 17531
8337 8445
8337 9220
8337 9556
8337 10870
8337 15661
8337 16710
8337 17497
8337 19687
8337 19836
8337 20087
8337 21771
8337 21784
8338 10065
8338 19985
8338 20195
8338 22740
8339 18410
8340 15438
8340 21710
8340 23468
8341 18293
8342 22222
8343 9493
8343 16269
8343 18039
8343 18083
8343 19539
8344 8682
8344 10066
8344 15508
8344 22684
8344 23408
8345 17465
8346 13451
8346 13962
8346 15720
8348 8373
8348 11045
8348 13464
8348 14993
8348 15896
8348 20492
8348 20637
8348 21743
8348 21833
8348 23545
8349 11523
8349 14852
8349 19131
8349 22286
8350 13742
8350 14656
8350 23924
8350 23930
8351 17225
8351 19506
8351 20816
8352 13532
8353 18962
8353 20617
8354 13166
8355 16223
8355 18522
8355 22919
8356 20669
8357 15775
8358 12644
8358 17260
8358 19182
8359 15774
8360 10389
8360 10495
8360 12227
8360 21816
8361 17715
8361 23297
8361 23324
8362 12272
8363 19287
8363 20647
8364 14877
8364 23369
8365 8649
8365 8801
8365 10229
8365 10297
8365 10790
8365 12655
8365 21875
8367 19670
8367 20609
8369 9513
8369 15245
8369 19200
8369 19536
8369 21577
8369 22417
8370 12436
8370 22880
8371 10168
8371 16074
8372 19956
8373 14993
8374 12001
8374 12161
8374 14216
8374 16013
8375 9163
8375 17937
8375 19042
8375 20651
8376 10180
8376 12527
8376 13731
8376 16262
8377 17305
8377 18782
8379 10433
8379 11561
8380 11310
8380 13415
8380 17358
8381 11735
8381 14417
8381 18450
8381 23481
8383 21202
8383 22650
8384 11545
8384 19043
8385 8388
8385 9878
8385 12745
8386 16825
8386 21704
8387 8697
8387 9926
8387 10218
8387 10412
8387 10969
8387 11088
8387 11255
8387 12046
8387 14458
8387 14879
8387 15449
8387 15818
8387 16479
8387 17174
8387 18023
8387 19003
8387 19110
8387 19875
8387 20559
8387 20671
8387 20935
8387 21181
8387 21247
8387 21823
8387 22211
8387 23208
8387 23355
8387 24077
8387 24140
8388 11659
8388 12745
8389 9323
8389 10853
8389 20660
8390 9809
8390 14495
8390 16536
8390 20176
8390 22184
8390 22540
8390 22812
8391 10135
8391 10267
8391 10535
8391 15661
8391 17497
8391 19687
8393 13466
8393 17622
8393 19266
8393 19274
8393 20284
8393 22076
8394 10603
8394 11063
8394 11766
8394 13342
8394 16393
8394 17982
8395 8398
8395 8399
8395 8401
8395 14862
8395 24104
8396 21844
8396 23985
8397 12169
8397 12173
8397 24428
8398 8399
8398 8401
8398 14862
8398 21844
8399 8400
8399 19764
8400 8401
8400 8521
8400 12167
8400 13046
8400 23985
8400 24104
8401 12167
8402 10894
8402 10961
8402 18381
8402 21413
8403 13209
8403 18359
8404 9100
8404 9871
8404 13377
8404 14493
8404 17687
8404 19075
8406 16593
8406 19537
8407 18864
8407 19595
8408 14937
8408 15393
8410 9875
8410 13291
8410 14637
8411 8443
8411 23449
8412 9292
8412 12645
8412 20278
8412 23548
8413 10549
8413 11000
8413 11464
8413 11513
8413 12651
8413 14933
8413 15345
8413 15378
8413 16899
8413 18870
8413 18944
8413 19605
8413 19988
8413 20563
8413 21790
8413 23840
8414 23953
8414 24074
8415 12867
8415 17643
8416 9284
8416 10706
8416 11194
8417 10329
8417 17349
8418 10719
8418 15550
8418 18967
8418 20295
8418 20604
8418 21931
8418 22259
8419 12924
8419 18262
8420 9300
8420 13059
8420 14877
8420 15167
8421 15650
8422 18001
8423 8428
8423 8429
8423 8430
8423 12163
8424 9040
8424 22140
8425 11799
8425 12102
8425 12620
8425 12739
8425 14210
8425 16506
8425 19198
8425 23581
8426 8546
8426 14275
8426 19517
8426 22283
8426 23147
8427 13147
8427 13623
8427 16789
8427 17191
8427 18390
8427 19879
8427 20367
8427 22998
8428 8429
8428 8430
8428 12163
8430 11422
8431 9992
8431 16298
8431 22616
8431 23408
8432 24305
8433 15991
8433 16795
8434 11602
8435 9814
8435 12989
8435 17162
8436 10850
8436 15100
8437 22753
8438 11215
8438 13722
8438 13981
8438 15433
8438 16831
8438 16989
8439 9192
8439 13130
8439 17793
8440 20899
8440 23131
8441 11238
8441 12400
8441 19164
8441 22774
8442 8839
8442 8840
8443 8596
8443 9653
8443 10488
8443 11604
8443 13554
8443 19233
8443 20837
8443 21021
8443 23496
8444 13585
8444 15413
8444 19155
8445 19687
8446 10287
8446 18819
8447 8771
8447 10834
8447 12755
8447 16997
8447 18902
8447 21283
8448 17765
8448 18846
8448 19973
8450 16407
8450 19022
8450 20374
8450 21834
8451 13261
8451 13996
8451 14828
8452 9355
8452 11976
8452 15043
8452 16118
8452 16987
8452 18645
8452 19902
8452 22277
8452 22401
8453 10672
8453 11168
8453 12511
8453 16097
8453 17890
8453 19238
8453 21267
8453 22173
8454 8638
8454 20337
8455 9707
8455 20388
8456 11346
8456 19452
8457 13591
8457 21070
8457 21900
8458 8508
8458 13879
8458 15490
8458 17887
8459 23615
8459 23839
8459 24451
8460 15016
8461 16519
8461 17419
8462 17305
8463 9366
8464 9416
8464 17640
8465 9933
8465 12380
8465 12416
8465 18083
8466 8528
8466 8559
8466 16584
8466 23138
8467 9815
8467 12348
8468 9474
8468 15802
8469 16441
8469 18954
8469 20473
8470 21511
8471 23964
8472 10420
8472 22972
8473 13427
8473 21106
8474 13181
8474 14657
8474 22849
8475 14535
8475 14699
8476 17405
8477 16506
8477 17882
8478 10935
8478 19454
8478 20862
8479 9381
8479 18285
8480 11057
8480 23859
8480 23952
8481 23630
8482 21133
8482 23622
8482 23673
8482 23932
8484 13273
8484 17039
8485 10558
8485 11514
8485 21137
8485 21402
8486 14738
8486 16181
8486 22965
8487 18998
8488 8501
8488 16523
8488 16727
8488 20497
8488 23010
8489 18286
8489 18998
8490 12241
8490 14404
8490 16393
8490 23792
8490 23953
8490 24271
8491 12232
8491 12312
8491 15232
8491 16587
8492 12220
8492 15276
8492 15663
8492 16746
8492 19386
8492 21033
8493 22711
8493 23731
8494 12420
8494 23255
8495 12028
8495 16364
8496 10230
8496 18681
8497 17626
8497 19772
8497 22746
8498 20537
8499 13116
8501 16523
8501 17684
8501 20497
8502 15184
8502 17414
8503 13579
8503 14303
8503 14983
8504 16064
8504 18958
8505 15567
8505 16575
8505 18648
8506 15121
8506 19926
8506 22975
8507 9374
8507 13421
8507 19873
8507 20874
8507 22987
8507 24054
8508 9560
8508 13879
8508 17887
8509 14877
8509 23369
8510 11966
8510 16986
8510 17768
8510 20979
8510 21134
8511 10265
8511 11436
8511 11789
8511 14925
8511 16137
8512 10966
8512 13590
8512 20136
8513 22206
8514 9901
8514 12502
8514 18415
8515 9131
8515 9637
8515 9695
8515 10044
8515 12172
8515 13032
8515 14263
8515 17370
8515 17428
8515 18057
8515 18373
8515 18374
8515 18591
8515 19057
8515 20848
8516 17650
8517 23099
8517 23966
8517 23968
8518 20786
8519 8732
8519 11262
8520 12105
8520 13326
8521 12171
8521 14061
8521 14843
8521 24011
8522 10747
8522 14206
8523 12994
8523 22984
8524 14193
8524 16533
8524 20558
8524 22614
8525 9422
8525 20695
8526 9422
8526 20695
8527 21134
8528 9001
8528 9118
8528 9454
8528 9699
8528 9766
8528 10144
8528 10480
8528 11101
8528 11597
8528 12216
8528 12555
8528 13987
8528 14973
8528 16231
8528 16584
8528 17655
8528 17754
8528 18099
8528 18562
8528 18905
8528 18934
8528 19399
8528 19579
8528 20350
8528 20801
8528 21234
8528 21463
8528 21495
8528 21612
8528 21912
8528 22311
8528 22353
8529 16471
8529 17192
8529 24008
8530 10877
8530 14631
8530 14633
8530 14635
8530 14636
8530 18196
8530 21200
8530 22114
8530 22374
8530 22375
8530 22703
8531 11805
8531 16546
8531 23686
8532 9732
8532 11657
8533 10577
8533 13159
8533 16424
8534 10572
8534 13245
8534 17493
8534 20359
8534 22477
8535 9116
8535 18631
8536 12553
8536 19415
8536 23504
8537 10245
8538 17334
8538 19239
8539 16283
8539 23317
8540 13913
8541 11420
8541 17092
8541 18289
8541 19659
8542 10245
8542 12348
8543 12417
8543 12973
8543 13093
8544 14545
8544 16023
8545 13675
8545 14363
8545 16590
8546 12818
8546 14275
8546 19517
8546 22283
8546 23147
8547 10281
8547 14101
8547 14625
8547 15098
8547 22115
8547 23162
8548 15734
8548 16421
8549 9201
8549 9724
8549 9978
8549 14926
8549 17200
8549 24440
8550 18902
8550 19859
8551 12107
8551 13136
8551 13595
8551 13931
8551 14913
8551 15448
8551 16012
8551 16171
8551 18545
8551 20420
8551 23258
8552 20973
8553 17090
8553 20114
8553 20719
8554 8669
8554 9156
8554 11148
8554 11687
8554 12628
8554 15524
8554 15829
8554 16287
8554 17166
8554 17199
8554 18517
8554 19318
8554 19474
8554 19760
8554 21709
8554 23463
8555 13926
8557 11909
8557 13842
8557 20644
8558 8984
8558 9625
8558 13492
8559 10144
8559 23396
8560 11484
8560 14316
8560 14823
8560 15587
8560 17307
8560 19366
8561 20167
8562 16794
8562 18331
8563 10270
8563 11771
8563 12664
8563 24244
8564 17804
8565 15000
8565 22484
8565 23057
8566 13755
8566 22075
8566 23487
8567 11814
8567 18536
8568 11809
8568 11814
8568 18536
8569 14164
8569 14624
8570 11318
8571 11408
8571 12146
8571 14213
8571 16206
8572 8792
8572 22595
8572 23931
8573 13973
8573 19492
8573 20112
8574 12050
8574 13505
8574 15044
8575 16713
8575 17824
8576 9115
8576 18561
8577 10853
8577 12717
8578 10606
8578 11790
8579 17305
8580 10266
8580 10338
8580 11344
8580 13525
8580 15420
8581 18096
8581 18248
8581 18759
8581 21364
8582 21238
8582 22481
8584 16092
8585 9535
8585 16092
8586 18424
8586 18484
8586 23224
8587 19952
8587 23501
8588 16127
8588 21638
8589 12082
8589 23896
8589 24028
8589 24148
8590 10484
8590 12701
8590 22525
8591 16579
8592 11864
8592 12777
8592 20017
8593 8967
8593 17003
8594 12082
8594 12083
8594 23896
8594 24028
8595 13257
8595 17714
8595 19337
8596 11829
8596 21021
8598 10622
8599 15854
8599 15856
8599 15862
8599 16889
8600 11980
8600 24093
8600 24154
8601 11628
8601 12826
8601 16754
8602 15956
8602 18117
8602 22952
8603 9843
8603 10894
8603 10961
8603 17068
8603 21911
8604 12319
8604 14836
8604 17648
8604 19227
8604 19922
8605 16388
8605 18194
8607 15256
8607 19478
8607 24432
8608 12081
8609 23336
8609 23987
8610 16021
8610 23557
8611 10097
8611 11316
8611 11708
8611 12104
8611 14223
8611 15504
8611 16828
8611 18086
8611 18385
8612 8947
8612 13207
8612 15360
8613 8906
8613 12843
8613 16327
8613 23422
8614 8656
8614 22179
8614 22228
8615 9817
8615 9850
8615 9964
8615 10521
8615 10736
8615 12147
8615 12157
8615 12280
8615 13417
8615 15287
8615 15935
8615 18239
8615 19012
8615 19144
8615 19458
8615 19512
8615 21681
8615 21963
8615 23009
8616 12720
8616 23158
8617 18695
8617 20402
8618 9872
8618 21339
8618 22719
8619 9084
8619 10051
8619 10189
8619 13880
8619 13997
8619 21670
8619 22814
8620 12433
8620 12929
8620 23162
8621 13503
8623 8857
8623 13870
8623 18166
8623 19923
8624 10678
8624 10823
8624 22894
8625 10452
8625 17738
8626 12291
8626 24176
8626 24225
8627 9058
8627 15127
8627 17252
8628 23689
8629 23792
8629 24420
8630 10587
8630 14690
8631 15930
8631 17028
8631 20831
8631 22887
8632 13827
8632 14784
8632 17110
8633 13959
8633 14555
8634 17480
8634 23943
8635 12761
8635 19632
8635 20771
8636 10245
8636 10571
8637 16731
8637 24274
8638 9353
8638 9796
8638 10434
8638 15403
8638 16569
8638 17175
8638 18783
8638 19175
8638 20337
8639 9694
8639 18918
8640 19657
8641 15604
8641 20421
8642 24012
8642 24225
8642 24312
8643 17039
8643 20347
8643 22057
8644 13868
8644 18945
8645 17565
8645 18594
8645 19554
8646 18442
8646 18670
8646 22844
8647 11293
8647 12674
8647 13649
8647 14717
8647 19420
8647 20515
8647 23213
8647 23266
8647 23419
8648 10041
8648 12710
8648 19475
8648 21091
8648 23628
8649 10229
8650 9620
8650 17431
8650 17888
8650 23652
8651 9094
8651 21576
8652 20342
8652 23440
8653 9691
8653 20101
8654 11816
8654 20960
8654 21153
8655 9192
8655 11686
8656 9011
8656 9621
8656 11009
8656 11999
8656 13498
8656 16708
8656 18053
8656 18506
8656 21694
8656 22228
8657 10705
8657 21958
8657 22195
8658 9371
8658 9836
8658 20793
8659 9484
8659 9565
8659 14911
8659 15220
8660 11800
8660 15813
8660 18257
8660 21575
8661 10245
8662 21452
8663 13741
8663 13820
8663 18009
8664 11751
8664 14238
8664 18217
8664 19346
8664 21548
8665 8666
8665 19383
8665 21646
8665 21648
8666 8667
8666 19383
8666 21648
8667 19383
8667 21646
8667 21647
8667 21648
8669 12706
8669 19318
8669 23463
8670 16338
8671 13512
8671 13920
8671 14346
8671 15358
8672 20640
8672 23888
8673 11039
8673 13687
8673 14104
8673 18804
8674 10722
8674 16355
8674 16767
8674 18954
8675 17305
8676 9019
8676 9026
8676 23510
8677 9011
8677 18123
8678 12863
8678 14191
8678 22627
8679 19403
8680 13320
8680 16083
8681 11071
8681 17215
8681 18189
8681 18674
8682 9989
8682 23408
8683 9285
8683 12027
8683 18916
8683 19931
8684 11078
8684 11739
8684 22609
8685 18455
8685 22231
8686 18991
8686 21992
8687 12099
8687 14274
8687 14463
8687 15494
8687 15821
8687 18097
8688 13590
8688 18982
8688 19657
8688 20136
8688 21006
8688 21361
8689 14657
8690 9115
8690 21106
8691 9017
8691 10105
8691 10209
8691 10693
8691 11256
8691 13499
8691 16949
8691 17941
8691 20527
8692 9627
8692 10726
8692 14811
8692 15562
8692 18397
8692 20841
8693 16567
8693 19022
8693 22388
8694 12792
8694 13181
8695 12672
8695 15450
8695 23170
8696 21556
8697 12897
8697 15818
8699 9665
8699 14484
8699 21445
8700 11264
8700 20059
8701 14589
8701 17835
8703 14178
8703 15754
8704 20882
8704 21399
8705 9554
8705 13339
8706 19757
8706 20996
8707 11582
8707 14898
8707 14899
8707 16685
8707 16689
8708 23720
8708 24164
8708 24427
8709 9581
8709 15156
8709 18377
8710 10056
8710 17269
8710 19661
8710 21140
8711 17171
8712 14135
8712 19576
8712 21556
8713 15975
8713 20996
8713 22983
8714 14696
8714 19442
8714 19738
8716 10112
8716 18523
8716 20610
8716 22281
8717 8724
8717 18476
8717 19609
8717 20254
8718 9200
8718 18603
8718 22464
8719 13713
8719 14510
8719 21639
8720 10861
8721 21178
8722 18089
8723 11425
8723 14600
8723 15619
8724 16665
8724 18557
8724 19609
8724 20254
8727 13750
8727 21186
8728 19428
8728 23201
8729 16944
8729 17513
8729 18436
8729 20456
8730 8978
8730 11195
8731 10461
8732 8748
8732 11262
8732 15657
8732 22790
8733 10032
8733 23951
8733 24277
8733 24470
8734 19733
8734 20196
8735 23791
8736 8774
8736 10753
8736 16314
8736 17597
8736 18722
8736 20162
8738 12335
8738 14190
8738 16114
8739 12303
8739 18900
8740 16669
8740 21721
8741 13453
8741 18631
8741 22365
8742 23783
8742 24151
8743 9703
8743 10471
8743 13265
8743 13389
8743 17570
8743 19584
8743 22137
8744 13024
8744 14049
8745 17743
8746 11031
8746 13917
8747 10584
8747 19090
8747 19578
8748 20513
8749 10398
8749 23057
8749 23221
8750 17415
8750 19147
8751 9306
8751 9783
8751 13156
8751 18368
8751 20153
8751 20309
8752 14885
8752 15678
8752 17305
8753 12819
8753 16407
8753 16478
8753 18784
8753 20268
8753 20945
8753 21685
8754 11661
8754 23187
8755 14737
8755 14784
8756 9168
8757 12051
8757 14184
8757 17337
8758 13473
8758 15630
8759 16576
8759 18852
8760 20957
8760 21996
8761 11831
8761 12941
8761 17015
8761 18606
8762 8775
8762 11887
8762 11888
8762 11889
8763 10893
8763 17992
8764 13870
8764 20714
8765 19368
8765 21249
8765 21250
8765 21540
8765 21541
8765 22600
8766 17501
8766 19484
8767 18534
8768 14219
8769 12886
8769 18205
8769 18208
8769 20174
8770 18383
8770 19737
8770 20755
8770 21702
8771 21182
8771 21283
8772 11887
8772 11888
8773 9487
8773 13957
8774 11616
8774 12232
8774 12312
8774 17597
8774 18709
8774 18722
8774 19085
8774 19285
8774 21933
8775 11887
8775 11888
8775 11889
8775 16217
8775 19863
8776 15731
8776 17922
8777 9965
8777 12191
8777 13005
8777 18874
8778 10138
8778 10812
8778 11895
8778 18847
8778 20855
8779 10989
8779 11347
8779 13645
8779 20236
8781 9207
8782 10523
8782 12062
8782 18728
8782 19706
8782 20361
8783 23784
8783 24135
8784 12819
8784 15445
8784 19022
8785 16818
8785 18458
8785 18658
8785 22216
8786 12056
8787 9256
8788 24428
8789 9973
8790 9909
8790 15881
8790 16064
8791 19574
8792 21093
8792 23390
8792 23931
8793 10782
8793 10829
8793 11305
8793 17546
8793 23238
8794 10860
8795 10800
8795 12542
8795 12958
8795 19058
8795 20713
8796 10593
8796 12098
8797 12764
8797 13708
8797 14289
8797 18142
8797 18665
8797 22096
8797 22101
8798 11649
8798 19427
8799 9115
8800 8958
8800 9711
8800 10896
8800 11007
8800 11032
8800 12111
8800 13047
8800 13319
8800 13331
8800 13691
8800 14585
8800 14859
8800 15622
8800 15703
8800 16556
8800 17590
8800 21593
8800 21614
8800 21878
8800 23030
8800 23583
8801 10297
8803 8894
8803 12474
8804 13219
8804 23177
8804 23724
8804 24009
8804 24030
8804 24035
8805 11968
8805 18153
8806 18470
8807 16865
8807 17830
8807 18199
8808 8809
8808 14550
8808 14607
8808 17455
8809 14607
8810 11977
8810 12507
8811 16846
8812 10094
8812 15280
8812 18686
8812 19634
8813 8814
8813 14344
8813 21583
8814 12259
8814 19040
8814 20866
8815 8816
8815 9424
8815 10071
8815 16102
8815 18355
8815 19040
8815 20355
8815 20356
8816 15249
8816 19040
8816 20355
8816 20356
8818 11431
8818 19985
8818 20195
8818 22668
8819 10470
8819 12897
8819 16945
8820 14169
8820 16218
8820 18588
8820 21386
8820 23183
8822 18782
8823 12897
8824 21534
8824 23031
8824 23072
8825 14408
8826 9545
8826 11699
8826 13564
8826 14628
8826 15750
8826 17812
8826 21040
8826 21466
8826 23499
8827 13279
8827 16427
8827 22416
8828 22365
8829 20004
8830 13668
8830 16850
8830 17189
8830 17190
8830 17428
8830 19171
8830 19172
8830 19173
8831 23717
8831 23952
8831 24318
8832 10805
8832 12731
8832 17385
8835 9885
8835 12293
8835 14575
8835 18015
8835 18546
8835 21539
8835 22065
8835 22856
8836 14428
8836 16717
8836 18216
8837 11406
8837 22424
8837 22853
8838 8839
8838 8840
8838 8844
8838 10632
8838 13832
8838 15969
8838 20040
8839 8840
8839 8841
8839 8844
8839 10632
8839 20040
8840 8841
8840 14996
8841 8843
8841 12524
8841 18478
8842 14541
8842 19460
8843 8844
8843 10343
8843 12524
8843 14996
8844 10343
8845 14648
8845 14649
8846 11153
8846 13400
8846 18950
8846 19784
8846 21679
8847 20269
8849 17305
8849 22856
8850 16546
8850 20591
8850 22777
8851 8857
8851 23200
8852 12893
8852 15064
8852 19411
8852 21372
8852 21827
8853 11030
8853 13222
8853 14135
8853 14795
8853 17147
8853 19785
8853 20164
8853 21007
8853 21177
8854 14365
8854 22365
8855 21508
8855 22499
8856 15487
8857 9139
8857 9300
8857 9309
8857 9367
8857 9569
8857 9802
8857 10226
8857 10300
8857 10980
8857 11536
8857 11726
8857 11744
8857 12222
8857 12676
8857 12811
8857 12998
8857 13168
8857 13497
8857 13860
8857 13925
8857 14333
8857 14482
8857 14800
8857 14809
8857 14918
8857 15065
8857 15132
8857 15499
8857 15615
8857 15699
8857 16160
8857 16233
8857 16330
8857 16475
8857 16726
8857 16964
8857 17013
8857 17163
8857 17210
8857 17329
8857 17673
8857 17742
8857 17769
8857 18209
8857 18836
8857 18871
8857 19288
8857 19336
8857 19602
8857 19726
8857 19783
8857 19801
8857 20206
8857 20243
8857 20438
8857 20785
8857 20807
8857 21179
8857 21497
8857 21510
8857 21516
8857 21662
8857 21673
8857 21815
8857 22339
8857 22373
8857 22594
8857 22901
8857 22948
8857 23200
8857 23232
8857 23736
8858 18065
8858 19482
8858 21217
8858 21478
8858 23360
8859 15754
8859 18460
8860 11637
8860 13392
8860 18662
8861 12666
8862 12634
8862 18476
8862 23025
8863 9737
8863 10622
8863 11451
8864 9927
8864 17736
8864 17737
8864 21496
8864 21877
8864 22098
8864 23564
8865 17736
8865 17737
8865 21496
8866 9719
8866 10090
8866 15100
8866 15725
8866 16333
8866 21549
8866 22349
8867 9779
8867 19731
8867 19770
8868 12009
8868 12947
8868 24222
8869 18742
8869 18772
8869 19438
8870 13870
8870 20714
8870 23200
8871 14412
8872 13392
8872 17364
8872 18662
8872 18704
8873 17461
8873 17462
8873 17659
8873 17660
8873 21755
8874 9933
8874 12380
8875 11017
8875 15344
8875 20742
8876 20650
8877 11985
8877 13327
8877 19258
8878 11663
8878 14728
8878 19382
8878 20731
8878 23401
8879 10817
8879 18386
8880 9563
8880 9588
8880 24394
8881 11891
8881 14000
8881 17388
8882 9488
8882 13568
8882 21163
8883 14496
8883 21614
8883 21635
8884 23663
8885 8984
8886 12909
8887 11267
8887 13965
8888 16775
8889 9601
8889 22537
8890 13918
8891 23155
8892 20479
8893 14455
8893 21916
8894 9775
8894 12474
8894 16532
8894 18526
8895 21829
8895 23739
8895 24031
8895 24439
8896 10759
8896 14696
8896 19738
8897 8898
8899 18782
8900 10420
8900 21186
8902 13870
8902 14513
8902 14800
8904 12079
8904 19381
8904 19745
8904 21437
8904 22290
8905 14735
8906 16541
8906 19401
8906 23048
8906 23422
8907 15275
8908 10877
8908 14631
8908 14635
8908 21200
8908 21201
8908 22374
8908 22375
8909 12317
8909 14388
8909 19530
8909 19920
8909 22229
8909 23451
8910 9348
8910 9587
8910 11118
8910 11214
8910 11457
8910 11497
8910 12774
8911 10386
8911 16304
8911 16740
8911 23112
8912 10783
8912 13034
8912 22888
8912 23813
8913 15107
8913 20123
8913 20652
8914 11136
8914 16146
8914 16167
8914 19819
8915 13166
8915 18781
8916 9539
8916 12420
8916 12765
8916 14148
8916 16350
8916 16555
8916 19132
8916 22825
8916 23255
8918 12326
8918 13117
8918 17417
8919 12308
8919 12521
8919 17595
8919 18974
8919 23303
8920 12549
8920 14800
8920 20216
8920 21624
8921 20039
8921 20696
8922 13153
8922 13959
8923 11526
8923 17107
8923 18106
8923 21296
8923 23332
8924 12099
8924 14274
8924 15821
8924 18097
8925 10590
8925 10892
8925 14897
8925 15885
8926 9491
8926 20600
8926 21506
8926 22362
8927 14295
8928 9107
8928 9893
8928 15064
8928 18489
8929 14060
8929 14620
8929 23684
8930 9974
8930 10792
8930 12175
8930 12646
8930 13612
8930 15321
8930 17826
8930 18652
8930 18963
8930 22299
8930 22699
8930 22736
8930 22783
8930 23629
8930 23664
8930 23721
8930 23818
8930 24034
8930 24083
8930 24228
8930 24314
8930 24321
8930 24362
8930 24380
8931 9442
8931 10839
8931 23881
8931 24040
8932 10954
8932 23941
8933 11910
8933 17305
8934 9888
8934 16522
8934 23722
8935 17347
8935 19600
8935 20684
8936 10539
8936 22156
8937 10410
8937 14412
8937 15398
8937 15690
8937 18604
8937 19670
8937 21239
8937 22078
8937 22690
8937 22820
8937 23279
8938 11580
8938 15795
8938 21109
8938 21427
8939 11546
8939 21639
8940 14932
8940 15266
8940 19356
8940 21264
8941 15402
8941 16244
8941 16279
8941 18246
8941 22163
8942 12203
8943 19262
8943 19264
8943 20122
8943 21645
8944 15400
8944 17992
8944 19318
8945 9815
8945 10571
8945 12029
8945 13884
8946 13696
8946 15090
8946 17781
8946 18904
8947 10145
8947 10333
8947 12751
8947 13207
8947 13487
8947 15949
8947 19168
8947 23518
8948 8949
8948 12526
8948 20266
8949 14304
8949 19229
8949 20237
8949 20266
8949 22589
8950 12519
8950 14141
8950 20503
8951 19040
8952 11761
8952 12477
8952 20721
8952 21430
8953 19274
8953 20284
8953 21375
8954 10970
8954 17969
8955 13347
8956 9551
8956 19066
8957 10680
8957 15870
8957 23847
8958 14585
8958 21593
8958 21614
8959 10298
8959 13062
8959 14204
8959 15136
8959 20354
8959 21610
8961 11446
8962 14530
8962 17581
8962 18599
8962 22344
8963 11143
8963 23835
8964 13444
8964 24099
8964 24152
8964 24161
8964 24368
8965 11883
8965 17544
8965 18281
8966 13434
8966 16928
8966 18033
8967 10435
8967 17003
8968 12459
8968 13018
8969 9895
8969 12106
8969 14914
8970 20412
8970 22803
8971 23735
8971 23824
8971 24301
8972 9697
8972 18393
8974 10932
8974 18894
8974 19815
8975 9051
8975 14024
8975 15027
8976 9122
8976 10599
8976 12053
8976 12242
8976 12691
8976 13974
8976 20853
8977 11685
8977 21310
8977 23492
8978 10291
8978 11195
8978 11356
8978 16623
8978 21348
8979 21558
8979 22672
8980 9930
8980 9931
8980 12952
8980 17613
8980 19194
8981 12943
8981 14168
8981 21119
8982 9652
8982 10880
8983 10139
8983 20861
8983 21556
8984 9625
8984 21734
8985 10063
8985 11329
8986 10402
8986 13615
8986 13616
8986 19263
8987 18476
8988 9225
8988 18051
8988 21674
8989 15794
8989 18178
8990 11530
8990 12597
8990 19879
8990 20545
8991 9991
8992 14913
8992 19506
8992 23258
8993 9210
8993 9876
8993 16075
8993 18577
8994 13839
8995 13376
8995 14779
8995 16260
8995 21335
8995 23477
8996 15862
8996 17825
8997 15861
8997 15862
8997 16889
8998 10257
8998 12541
8998 19965
8998 21453
8999 13312
8999 20615
8999 21948
9001 21234
9002 9031
9002 11267
9002 16591
9002 21273
9003 11159
9003 11769
9003 21714
9003 21722
9004 16858
9004 21013
9005 10539
9005 12864
9005 15017
9006 14068
9006 14492
9006 16084
9006 18657
9007 13055
9007 17719
9007 20110
9008 9115
9008 21106
9009 9033
9009 9961
9009 19743
9009 23064
9009 23113
9009 23994
9010 9642
9010 10382
9010 10775
9010 12099
9010 14723
9010 16785
9010 17620
9010 18016
9010 18081
9010 18659
9010 19432
9010 20039
9010 21301
9010 23194
9011 11009
9011 22179
9012 11698
9013 20209
9014 10030
9015 13751
9015 14520
9015 17453
9015 20583
9015 23278
9016 10591
9016 11786
9016 15246
9017 15786
9019 12510
9019 23510
9020 12440
9020 15669
9020 17387
9020 17740
9020 18173
9020 19645
9020 21890
9021 23661
9021 23816
9022 12722
9022 18193
9022 19191
9022 20341
9023 16829
9023 17099
9023 21313
9023 21619
9023 22156
9024 9200
9024 14031
9024 18922
9024 21976
9024 22570
9025 9200
9025 9894
9025 21977
9025 22570
9026 22010
9026 23510
9027 10857
9027 12929
9027 18488
9029 12289
9029 12290
9029 12291
9029 24360
9030 18631
9030 20718
9031 11267
9031 12470
9031 16001
9032 9308
9032 11120
9032 21216
9032 21735
9033 11746
9033 20036
9033 21022
9034 14426
9034 19400
9034 19792
9035 11014
9035 11959
9035 13200
9035 15259
9035 16867
9035 19526
9035 19800
9035 22556
9036 14363
9036 19776
9037 12593
9037 13215
9037 13608
9037 14086
9037 18803
9038 9701
9038 10219
9038 12126
9038 13336
9038 13404
9038 16311
9038 17470
9038 22796
9039 9293
9039 9640
9039 23873
9040 9452
9040 17612
9040 17830
9040 21569
9040 21915
9040 23651
9041 11020
9041 18426
9042 12207
9042 18548
9042 22852
9043 11953
9043 13174
9043 18977
9043 21213
9043 24060
9043 24422
9044 11107
9044 15805
9045 15100
9045 19425
9045 22349
9046 13129
9046 15756
9047 11361
9047 14841
9047 20077
9048 14708
9048 19117
9049 12289
9049 12290
9049 12291
9049 24176
9050 24216
9051 13684
9052 14833
9052 15350
9052 18962
9053 10898
9053 11187
9053 12494
9053 14108
9053 16650
9053 16678
9053 17361
9053 18042
9053 18113
9053 22258
9053 22968
9054 11821
9054 15446
9055 14066
9056 9457
9058 11345
9058 15127
9058 18068
9059 9441
9059 14486
9060 11037
9060 11104
9060 12418
9060 17396
9060 24208
9061 21929
9062 9100
9062 21593
9063 12326
9063 22998
9064 10660
9064 12801
9064 14043
9064 14813
9064 16195
9064 19813
9064 21127
9064 23206
9065 11618
9065 13055
9065 21441
9066 17872
9066 21269
9067 14015
9067 15878
9068 17281
9068 18791
9068 20546
9068 21379
9068 22018
9069 16054
9069 18031
9069 18516
9070 13827
9070 16995
9071 10449
9071 23536
9072 9778
9072 10235
9073 11217
9073 20016
9074 10707
9074 15135
9074 22193
9075 19225
9075 22891
9076 9543
9076 10778
9076 15799
9076 16448
9076 18747
9076 19230
9076 19300
9076 22138
9078 13626
9078 16639
9078 17337
9079 11636
9079 14460
9079 18494
9080 9337
9080 9519
9080 9520
9080 9723
9080 11407
9080 11635
9080 13192
9080 14055
9080 15069
9080 15088
9080 15701
9080 23756
9080 23902
9080 24169
9080 24418
9080 24419
9081 9854
9081 11721
9082 9144
9082 11596
9082 19414
9082 24037
9083 13295
9083 15691
9083 18947
9084 10051
9084 12410
9084 13997
9084 15921
9084 22814
9085 9270
9085 9271
9085 23886
9085 23975
9085 24020
9086 14566
9086 15187
9086 20366
9086 22721
9087 10401
9087 16157
9087 17188
9087 19455
9087 21941
9088 13253
9088 18383
9088 21702
9088 23088
9089 21487
9089 22723
9089 22948
9090 14342
9091 9655
9091 15063
9091 23212
9092 19318
9093 23379
9094 21469
9094 23160
9094 23334
9095 13023
9095 17992
9096 9290
9096 20053
9097 17053
9097 18876
9097 20265
9098 13481
9099 22675
9100 9691
9100 9810
9100 10205
9100 11214
9100 11424
9100 11861
9100 11905
9100 12810
9100 14379
9100 14543
9100 14665
9100 14760
9100 15798
9100 15933
9100 15991
9100 16080
9100 16590
9100 16764
9100 16905
9100 17687
9100 18507
9100 19198
9100 20809
9100 21418
9100 22156
9100 22280
9100 22950
9100 24455
9101 13913
9101 17251
9102 10213
9102 11290
9103 10376
9103 19043
9103 23482
9104 10245
9104 18738
9105 16436
9105 17809
9105 20343
9106 14932
9106 19356
9107 9893
9107 10653
9107 16256
9107 18489
9108 11347
9108 15413
9108 19155
9108 22343
9108 22390
9109 12438
9109 12439
9109 12795
9109 19716
9109 21730
9109 22760
9109 22763
9109 22765
9109 22880
9110 13955
9110 22760
9111 12865
9111 23026
9112 22903
9113 10546
9113 20781
9113 23787
9113 24071
9114 12432
9114 14709
9114 15520
9115 9635
9115 11041
9115 14541
9115 15181
9115 15655
9115 16838
9115 17184
9115 17640
9115 18561
9115 18733
9115 21232
9115 21287
9115 22091
9115 23294
9115 23522
9116 10799
9116 12864
9116 13478
9116 13896
9116 14218
9116 17441
9116 18212
9116 21219
9116 22365
9117 15925
9117 16780
9117 17372
9117 18311
9117 19203
9118 18061
9118 21234
9118 23138
9119 23713
9119 23758
9120 11097
9120 12233
9120 13491
9120 13850
9120 17117
9120 17205
9121 9821
9121 11715
9121 14908
9121 19868
9122 10503
9122 12242
9122 20853
9123 12639
9123 14945
9123 17016
9123 18601
9123 21826
9124 10260
9124 18664
9124 23286
9125 10264
9125 11583
9125 22696
9126 15183
9126 15940
9127 14060
9127 14710
9127 23684
9128 13532
9130 10914
9130 15089
9130 15228
9130 20296
9132 12391
9132 13166
9133 10655
9133 21477
9134 9874
9134 15119
9134 21339
9135 11356
9135 15097
9135 17113
9136 12455
9136 17320
9136 21112
9137 21614
9138 11623
9138 17717
9139 13870
9139 18166
9140 11362
9140 11698
9140 23709
9141 11493
9141 12237
9142 23811
9143 11633
9143 16892
9143 17869
9144 23988
9144 24037
9145 17835
9146 18361
9146 22701
9147 10056
9147 19661
9148 9499
9148 11781
9148 22706
9149 23912
9150 11842
9150 14062
9151 15858
9151 15862
9151 16836
9152 10499
9152 10517
9152 10651
9152 10905
9152 13203
9153 9694
9153 12948
9153 14309
9153 19899
9153 21719
9155 10208
9155 10450
9155 23009
9156 11911
9156 15151
9156 22025
9157 9367
9157 14755
9157 14800
9157 14918
9157 17338
9157 21281
9157 21423
9157 21497
9157 21624
9157 22782
9158 17609
9159 10593
9159 12098
9160 11441
9160 14525
9160 22368
9160 22829
9161 15036
9161 18014
9161 22984
9161 23093
9162 12945
9162 18569
9162 21241
9162 22002
9164 21556
9164 21781
9164 22254
9165 18998
9165 22005
9165 22116
9166 11387
9167 20798
9168 10295
9168 12356
9168 13003
9168 18182
9168 18623
9169 17765
9169 18846
9170 21508
9170 21721
9170 22499
9171 9180
9171 12174
9171 15138
9171 15656
9171 16679
9171 19107
9171 20830
9171 22331
9171 23795
9171 23796
9171 23823
9172 21292
9173 9864
9173 22886
9174 9703
9174 13989
9174 14241
9174 17077
9174 17093
9174 22422
9175 14159
9175 19424
9175 21988
9176 18293
9177 9249
9177 12262
9177 18843
9177 22816
9178 11722
9179 10591
9179 11786
9179 18764
9180 12174
9180 14454
9180 15656
9180 19107
9180 20830
9180 22884
9180 23969
9180 24484
9181 23868
9181 24330
9182 11980
9182 23855
9182 23920
9182 24154
9183 19031
9183 23939
9184 23955
9184 24279
9185 11595
9185 13954
9185 15941
9186 16824
9186 23326
9187 10529
9187 17085
9187 17479
9188 16948
9188 17248
9188 18076
9189 10046
9189 15776
9189 20834
9189 24057
9189 24443
9190 10311
9190 14394
9190 23336
9190 23987
9191 18153
9191 19867
9192 13130
9192 17793
9193 11106
9193 12357
9193 13561
9193 18192
9193 18901
9193 22174
9194 11493
9195 13199
9195 18524
9195 19661
9196 13241
9196 16086
9197 13054
9197 19757
9198 9199
9198 20445
9198 24131
9198 24215
9199 9335
9199 11333
9199 20445
9200 9894
9200 14031
9200 18922
9201 9978
9201 10548
9201 23571
9201 24440
9203 12127
9204 10786
9204 14247
9205 12594
9205 16054
9206 10624
9206 12137
9206 16768
9206 18632
9206 20125
9206 20211
9206 20973
9207 11208
9208 12930
9208 13418
9208 18001
9209 9388
9209 20123
9210 24438
9211 9473
9211 10137
9211 10171
9211 10348
9211 10361
9211 11397
9211 12946
9211 13229
9211 18451
9211 19419
9211 19893
9211 20739
9211 21253
9211 23652
9211 23734
9211 23949
9211 24229
9211 24297
9211 24317
9211 24319
9211 24321
9211 24457
9212 9814
9212 17162
9213 11260
9214 12804
9214 15178
9214 24071
9215 23715
9216 18786
9217 10918
9217 17978
9217 19562
9218 9742
9218 22962
9219 10241
9219 11442
9220 9556
9220 10870
9220 16710
9220 17497
9220 19687
9220 19836
9220 20087
9220 21771
9220 21784
9221 9904
9221 11477
9221 20392
9221 21432
9221 21778
9221 22201
9221 22382
9221 23017
9221 23857
9221 24098
9221 24345
9222 23774
9222 23886
9222 24227
9222 24242
9223 14573
9224 12984
9224 15712
9224 18839
9224 19824
9224 20806
9224 21043
9224 21129
9225 14099
9225 16543
9225 21674
9226 13111
9226 19576
9226 21593
9227 10974
9227 16054
9227 18031
9227 20510
9228 10843
9228 11454
9228 13125
9228 13413
9228 23270
9229 21777
9230 19506
9230 20816
9231 15145
9231 17773
9231 21437
9232 17369
9232 19323
9233 11479
9233 11933
9233 11989
9234 9500
9234 19158
9234 19631
9234 21867
9234 23020
9235 22238
9235 23855
9235 23928
9236 9343
9236 9349
9236 10834
9236 13897
9236 16997
9236 18703
9236 21182
9236 21550
9237 16703
9238 19997
9239 10106
9239 21029
9241 9351
9241 10575
9241 14613
9241 16734
9241 20992
9241 21044
9241 22024
9241 22178
9242 11069
9242 15251
9243 17212
9243 20086
9243 21244
9243 21768
9244 17690
9244 17856
9244 18988
9244 19114
9244 21715
9245 16985
9245 17856
9245 19114
9246 13896
9246 14541
9246 20726
9247 11474
9247 12316
9248 23067
9249 11462
9249 13162
9249 14355
9249 15481
9249 24468
9250 10589
9250 13798
9250 16607
9250 20542
9250 21626
9251 14872
9251 20930
9251 23634
9251 23707
9252 16576
9252 22222
9253 11456
9253 16595
9253 18999
9253 19181
9253 20158
9254 14661
9254 21926
9255 9746
9255 11957
9255 23497
9256 10074
9256 21027
9256 22666
9258 14087
9258 14557
9258 15486
9260 22361
9261 18379
9262 13487
9262 15360
9263 9582
9263 12191
9263 12956
9263 13272
9263 14774
9263 17930
9263 19610
9264 23528
9265 10596
9265 12390
9265 16401
9265 17881
9265 18918
9266 9344
9266 9620
9266 12292
9266 15319
9266 17431
9266 17888
9267 9723
9267 24089
9267 24131
9267 24215
9268 10593
9268 23431
9269 11814
9269 12901
9269 17518
9269 17917
9270 12566
9271 23617
9272 10740
9272 24105
9272 24225
9273 9274
9273 24187
9274 22693
9275 10513
9275 24099
9276 11514
9276 21402
9276 22940
9277 17637
9277 22231
9278 9660
9278 12452
9278 21520
9278 21720
9279 17226
9279 21044
9279 22024
9280 10302
9280 18215
9281 10428
9281 17471
9281 23411
9282 9399
9282 13935
9283 19205
9284 16818
9284 17786
9285 12152
9285 13871
9285 14058
9285 15385
9285 18206
9285 19082
9285 19781
9285 19931
9285 20098
9285 20292
9285 23076
9286 9566
9286 12589
9286 12994
9286 17186
9287 9870
9287 10526
9288 12750
9288 18500
9288 21072
9290 16561
9290 20075
9291 11175
9291 11176
9291 18084
9291 18827
9292 10436
9292 12645
9292 23548
9293 9640
9293 23873
9294 17786
9295 23150
9296 11214
9296 13361
9296 14391
9296 15293
9297 13663
9297 14177
9297 19198
9297 20220
9298 16247
9298 17407
9298 21029
9299 10392
9299 13883
9299 21995
9300 9569
9300 10300
9300 10439
9300 10813
9300 13059
9300 13860
9300 14809
9300 15205
9300 16233
9300 16726
9300 17138
9300 17963
9300 19387
9300 20377
9300 20681
9300 22809
9301 12817
9301 17685
9302 14415
9302 17458
9303 12037
9303 17865
9303 20381
9304 11248
9304 17287
9305 18193
9305 19151
9305 19191
9306 9783
9307 23987
9307 24171
9308 9403
9308 10239
9308 11193
9308 12881
9308 13043
9308 15082
9308 17397
9308 17646
9308 18046
9308 19100
9308 20792
9308 21216
9308 21735
9309 13870
9309 18166
9309 19923
9310 15841
9311 10985
9311 13694
9311 15224
9311 17215
9311 21198
9311 21928
9312 17554
9312 18548
9312 23123
9313 14702
9314 13716
9314 17615
9315 13344
9316 10958
9316 13652
9316 16027
9316 19097
9317 12451
9318 9626
9318 24452
9319 13365
9319 13468
9319 15612
9320 9498
9320 10335
9320 18888
9320 19571
9320 22734
9320 22957
9321 23281
9322 11831
9322 17015
9322 18606
9323 9428
9323 10746
9323 11569
9323 12408
9323 12885
9323 12906
9323 13810
9323 13858
9323 15226
9323 15366
9323 16778
9323 18644
9323 19048
9323 19895
9323 20660
9323 20759
9323 20805
9323 21876
9323 22446
9323 23751
9323 23764
9324 19643
9324 20489
9324 21564
9326 13381
9327 17817
9327 17837
9327 18844
9327 18866
9327 23444
9328 24073
9328 24176
9328 24225
9329 16014
9329 17853
9329 18949
9329 18997
9329 20127
9329 20638
9329 21847
9330 18704
9331 11555
9331 17605
9332 14475
9332 19988
9332 21009
9332 22040
9333 9796
9333 19378
9334 23097
9335 9723
9335 14386
9335 20339
9335 24131
9335 24215
9336 13394
9336 17931
9336 21063
9336 22419
9336 23343
9336 23746
9336 24097
9337 9518
9337 9723
9337 13192
9337 15069
9337 18941
9337 20978
9337 22158
9337 23806
9337 23902
9338 10815
9338 10955
9338 13665
9338 18236
9338 18924
9339 10089
9339 11301
9339 11528
9339 14345
9339 17245
9339 19248
9339 19281
9339 22815
9339 23849
9340 9765
9340 16506
9340 21556
9341 9924
9341 12879
9341 14482
9342 21181
9343 16628
9343 18902
9343 21283
9344 9620
9344 14793
9344 17431
9345 10096
9345 11479
9345 11715
9345 16503
9346 14555
9347 17639
9347 18692
9347 21254
9348 14025
9348 19151
9348 20341
9349 10834
9349 11112
9349 13897
9349 16997
9349 17579
9349 18703
9349 19330
9349 20267
9349 20276
9349 21283
9349 22629
9350 14277
9350 19751
9350 20333
9351 16734
9352 11605
9352 20308
9352 21704
9353 19175
9353 20337
9354 11036
9355 15043
9355 19902
9356 18286
9356 22116
9356 23100
9357 9685
9357 14641
9357 20840
9357 22442
9358 9686
9358 23868
9358 24170
9359 13072
9359 19037
9359 21003
9359 22429
9360 10611
9360 10807
9360 11681
9360 12272
9360 12699
9360 12932
9360 15881
9360 16237
9360 17157
9360 17257
9360 19398
9360 21193
9361 12771
9361 18694
9362 21343
9362 22128
9362 23007
9363 10036
9363 15107
9363 15141
9363 20123
9363 20652
9363 22189
9364 10237
9364 17812
9364 21040
9365 12320
9365 17071
9365 18854
9366 9573
9366 10899
9366 15175
9366 18360
9366 21322
9367 13870
9368 9474
9369 19991
9370 11919
9372 18092
9372 24137
9373 10304
9373 10977
9373 13007
9373 22848
9373 23350
9374 10668
9374 12043
9374 13421
9374 18797
9374 19360
9374 20147
9374 24042
9375 10830
9375 22461
9376 22454
9377 15538
9377 20718
9378 13675
9379 11229
9379 15781
9379 19621
9379 22307
9380 14311
9380 16506
9381 10357
9381 11592
9381 13629
9382 11198
9382 14832
9382 15122
9382 17462
9382 21756
9383 10558
9383 21137
9383 21402
9384 10214
9384 18849
9385 10722
9385 15590
9385 21060
9386 10087
9386 10858
9386 13772
9386 20415
9386 22170
9386 22350
9386 22496
9387 10303
9388 15841
9388 18498
9388 20798
9389 14187
9389 21591
9390 11674
9390 18984
9391 17462
9391 17660
9392 20824
9392 23121
9393 10152
9393 17851
9394 14751
9394 17995
9394 18689
9394 19224
9394 21118
9394 22340
9394 23394
9395 12722
9395 13934
9395 14770
9395 18193
9395 19151
9395 20139
9395 22246
9396 18467
9398 15419
9398 17989
9398 20650
9399 11822
9399 17568
9400 11619
9400 14940
9400 17642
9400 18680
9401 9936
9401 14264
9402 12474
9402 24334
9403 17646
9404 18857
9404 21251
9405 23028
9406 17786
9407 19885
9407 22194
9407 22438
9408 9412
9408 11999
9408 20690
9408 21694
9408 21955
9409 18580
9410 9437
9410 15638
9411 10979
9411 17577
9411 22768
9411 23133
9412 20690
9413 12303
9413 15735
9413 17498
9413 21731
9414 15424
9414 17469
9416 15476
9416 20251
9416 21455
9416 21489
9417 16017
9418 10459
9418 15179
9418 20752
9418 23827
9418 24128
9419 11790
9419 21507
9420 20948
9421 21929
9422 20695
9423 23727
9423 24222
9423 24224
9424 18355
9424 19040
9424 20355
9425 19954
9426 9502
9426 11140
9426 15003
9427 18631
9427 20562
9427 21311
9428 14226
9429 15350
9429 18962
9430 10188
9430 15282
9430 18136
9430 20481
9430 21090
9431 12762
9431 13146
9431 13575
9431 16900
9432 15958
9432 19022
9432 22329
9433 12058
9433 22306
9433 24476
9434 9833
9434 14325
9434 14327
9435 9703
9435 10471
9435 17570
9436 10751
9437 12598
9437 16682
9437 19841
9438 17092
9438 18289
9438 19659
9439 13391
9440 12587
9440 13327
9440 17819
9441 14486
9441 15516
9442 12664
9442 24040
9443 12394
9443 20477
9443 21885
9443 22830
9443 23426
9444 9622
9444 13165
9444 16506
9444 22695
9444 23176
9445 16009
9445 17997
9445 19005
9446 11648
9446 19294
9447 22364
9447 22366
9448 10106
9448 19514
9448 19855
9449 12430
9449 16108
9449 18528
9449 21373
9449 21374
9450 12866
9451 10184
9451 13069
9451 16741
9451 17750
9452 12571
9452 18199
9453 11049
9453 18826
9454 17049
9454 21234
9454 23138
9455 14827
9455 15811
9455 18132
9455 21724
9455 23448
9456 14585
9456 21593
9456 21614
9458 9917
9458 15198
9458 15548
9458 18030
9458 18899
9459 9494
9459 10216
9459 18198
9459 19034
9459 22251
9460 13350
9460 20238
9461 11715
9461 19868
9462 11754
9462 23742
9462 24069
9463 14833
9464 13580
9464 17779
9464 19485
9465 17838
9466 17785
9466 18998
9466 19318
9467 12129
9467 14616
9467 15023
9468 20207
9469 20255
9469 21666
9470 9799
9471 13870
9471 17203
9471 21421
9471 23492
9472 13363
9472 22633
9473 23753
9474 11579
9474 22465
9475 23731
9475 23893
9476 11420
9476 17962
9476 18895
9477 13731
9477 17347
9477 18645
9477 21993
9477 23475
9478 9479
9478 9480
9478 22317
9479 22572
9479 22920
9480 22242
9480 22317
9481 10426
9481 12136
9482 21893
9483 18062
9484 16915
9485 12272
9485 15014
9485 18024
9486 10585
9486 23915
9487 12187
9488 13568
9488 16959
9490 22349
9491 9623
9491 10852
9491 11952
9491 12199
9491 12721
9491 13094
9491 13865
9491 15929
9491 16055
9491 17377
9491 17761
9491 18032
9491 18250
9491 18273
9491 20097
9491 20928
9491 21312
9491 21613
9491 21835
9491 22753
9491 22808
9491 23435
9491 23577
9492 13347
9493 9769
9493 16269
9493 18039
9493 18083
9493 19539
9493 20954
9493 23005
9494 18198
9494 19034
9495 16123
9495 18457
9495 18531
9495 22016
9495 23158
9496 10057
9496 12649
9496 14707
9496 20994
9496 22408
9496 23001
9496 23870
9496 24079
9496 24096
9497 11959
9497 22045
9498 15292
9498 18888
9498 19571
9498 22957
9499 17922
9500 11061
9500 19158
9500 21867
9501 13620
9502 10772
9502 13580
9502 13642
9502 17779
9504 9907
9504 11539
9504 21381
9505 23591
9506 13936
9506 15740
9507 11610
9507 21593
9507 21614
9508 11330
9509 15615
9509 21673
9510 20672
9510 20877
9510 21164
9511 10989
9511 11347
9512 10585
9512 23915
9512 24359
9513 9812
9513 13303
9513 14271
9513 15096
9513 17391
9513 22807
9513 23006
9514 21614
9515 23813
9515 24325
9516 20219
9517 13439
9517 23757
9518 9723
9518 19667
9518 23967
9519 20832
9519 24418
9520 9723
9520 21381
9521 9525
9521 9526
9522 15382
9522 20557
9523 11513
9523 18453
9523 20199
9524 10674
9524 10937
9525 9526
9525 9527
9525 9528
9525 11574
9526 9528
9526 11574
9526 11632
9527 11572
9527 11573
9527 11574
9528 11573
9528 11574
9528 11632
9531 14668
9532 15527
9533 11084
9533 13217
9533 22799
9534 9592
9534 11965
9534 19453
9535 11128
9536 10024
9536 11023
9536 11135
9536 20060
9536 22448
9536 23391
9536 23720
9536 24164
9536 24272
9536 24427
9537 13375
9537 17770
9537 21603
9537 22035
9537 22279
9537 22673
9538 13025
9538 18065
9539 23255
9540 9610
9540 12429
9540 21435
9541 13623
9541 15017
9541 19879
9542 13199
9542 18524
9543 9803
9543 9934
9543 10778
9543 11075
9543 12131
9543 12959
9543 13122
9543 13157
9543 14467
9543 15004
9543 16448
9543 16721
9543 17757
9543 19230
9543 19300
9543 21331
9543 22138
9544 10245
9544 10571
9544 18908
9544 19590
9545 13564
9546 15475
9546 19792
9546 22553
9547 18631
9548 13622
9548 14254
9548 14751
9548 17995
9548 18440
9548 18689
9548 19224
9548 21118
9548 23394
9549 16370
9550 10706
9550 11194
9550 22283
9551 16099
9551 19066
9551 20450
9551 20982
9551 21305
9552 13295
9552 19600
9552 21872
9553 15402
9553 20272
9553 20929
9553 22163
9554 9801
9554 12464
9554 13339
9554 18598
9555 20424
9555 22529
9557 14659
9557 19445
9557 20263
9557 20467
9557 21298
9557 23071
9558 10130
9558 12860
9558 16485
9558 16983
9558 18469
9558 19104
9558 22552
9559 22330
9560 9583
9560 10683
9560 12141
9560 13879
9560 15490
9560 19516
9561 9914
9561 11011
9561 22112
9562 10173
9562 13929
9562 17245
9562 19248
9562 21769
9562 22573
9563 9588
9564 17942
9564 18194
9565 11862
9565 18092
9565 23280
9565 24137
9566 12994
9566 14530
9566 18259
9566 22344
9567 11823
9567 11936
9567 14797
9568 14118
9568 22576
9569 15753
9569 18435
9569 21673
9569 22006
9569 22077
9571 15160
9571 19370
9572 10072
9572 13023
9573 22525
9574 11812
9574 17749
9574 19892
9574 22678
9576 11703
9577 9982
9577 10179
9577 14743
9577 14909
9577 18095
9578 18286
9578 22116
9579 11908
9580 17604
9580 23067
9581 9733
9581 11864
9581 12777
9581 16666
9582 9965
9582 12956
9582 13272
9582 13635
9582 19610
9584 12208
9584 15451
9584 15635
9584 16675
9585 10886
9585 11983
9585 13470
9585 13756
9585 16799
9585 17300
9585 17722
9585 20474
9585 20631
9585 20858
9585 21501
9585 22188
9586 11509
9586 18578
9586 23884
9587 10053
9587 13250
9588 24351
9588 24466
9589 9703
9589 15185
9589 18135
9589 18164
9590 12139
9590 19435
9590 19821
9591 10861
9591 15506
9592 11965
9592 19453
9592 21498
9593 19828
9593 22962
9594 21596
9595 23729
9595 23993
9595 24328
9596 12150
9596 17009
9596 21604
9597 11830
9597 16563
9597 20991
9597 23054
9598 12314
9598 12653
9598 15311
9598 15379
9598 15942
9598 19451
9599 10431
9599 14716
9600 10417
9600 16076
9601 13675
9601 14363
9602 12989
9602 17162
9602 20444
9602 21881
9603 10593
9603 10814
9603 21740
9604 21486
9604 23056
9605 9644
9605 14721
9607 10818
9607 12976
9607 14439
9607 15201
9607 16258
9607 20320
9607 21599
9608 23146
9609 13412
9609 14526
9609 16402
9610 19118
9610 20314
9610 21435
9611 21025
9612 20469
9612 21378
9613 15412
9613 20469
9613 23385
9614 19854
9614 23474
9614 23705
9615 13196
9615 15071
9617 11911
9617 15211
9617 16552
9617 23459
9618 14084
9618 24390
9619 14084
9619 24391
9620 12292
9620 17831
9620 17888
9620 17889
9621 21814
9622 22695
9623 11382
9623 12199
9623 13667
9623 14082
9623 15639
9623 16007
9623 17152
9623 18110
9623 19773
9623 20186
9623 22312
9623 23577
9624 15086
9624 21296
9624 23565
9625 11881
9625 13492
9626 9679
9626 10023
9626 10515
9626 11297
9626 20712
9626 23938
9627 11375
9627 12224
9627 21937
9629 17978
9630 9921
9630 12100
9630 23023
9631 13716
9631 14776
9632 18910
9633 13221
9633 23405
9634 15059
9634 19691
9635 18631
9635 20718
9636 12095
9636 17765
9636 18846
9636 21475
9637 17189
9637 17190
9637 17428
9637 19056
9637 19057
9637 19171
9637 20848
9637 22118
9638 10604
9638 13669
9639 21117
9640 12076
9641 9791
9641 21381
9641 24131
9641 24215
9642 10639
9643 24214
9643 24277
9644 12404
9644 14004
9644 15057
9644 16910
9644 17209
9644 19037
9644 21122
9644 22429
9645 15675
9645 22162
9646 20835
9646 21875
9647 10471
9647 15062
9647 16168
9647 16975
9647 18141
9648 13055
9648 21441
9649 14852
9649 19128
9649 19131
9649 22286
9650 10119
9650 14009
9650 15316
9651 14363
9651 19776
9651 19954
9652 14489
9652 14564
9652 15251
9653 21021
9654 19382
9654 23401
9655 13233
9655 14922
9655 17712
9655 18035
9656 9703
9656 11873
9656 17077
9656 18164
9657 10727
9657 14726
9657 19180
9657 19370
9658 17304
9659 19471
9660 17055
9661 12303
9661 15735
9661 16275
9661 21731
9662 16268
9662 18925
9662 19866
9663 14336
9663 14498
9663 16647
9664 10550
9664 12830
9664 17383
9665 14484
9666 16601
9666 20495
9667 9668
9669 13625
9669 18893
9669 18921
9669 22191
9669 22409
9670 14475
9670 14999
9670 15423
9670 15904
9670 22040
9671 18193
9671 19191
9671 20341
9672 10312
9672 19442
9672 20531
9673 10673
9673 20873
9674 12311
9674 14038
9674 20940
9675 19828
9675 22962
9676 16660
9676 19318
9676 20107
9676 21658
9677 13939
9680 19353
9680 19672
9680 21344
9680 22798
9681 13508
9681 17649
9681 19032
9683 18012
9683 22568
9684 13283
9684 16353
9684 17267
9684 20344
9685 10390
9685 11129
9685 13790
9685 14160
9686 15005
9686 23868
9687 11163
9687 22165
9688 12943
9688 18886
9691 9966
9691 10695
9691 10959
9691 11666
9691 12040
9691 12620
9691 13361
9691 13675
9691 14363
9691 14379
9691 14391
9691 15024
9691 15293
9691 15515
9691 15991
9691 16764
9691 16842
9691 17687
9691 17797
9691 17853
9691 17986
9691 18997
9691 19198
9691 19572
9691 19802
9691 19905
9691 21164
9691 22156
9691 22460
9691 22717
9692 14039
9692 23473
9693 12819
9693 15445
9693 21834
9694 10037
9694 12948
9694 13251
9694 13471
9694 13541
9694 13599
9694 14214
9694 14309
9694 14742
9694 15965
9694 16772
9694 16972
9694 17283
9694 18685
9694 19899
9694 19934
9694 20203
9694 20403
9694 20881
9694 21015
9694 21152
9694 21206
9694 21719
9694 22233
9694 22291
9694 22663
9694 23153
9694 23531
9695 23515
9696 12924
9696 20460
9697 10217
9698 9975
9698 18954
9699 21234
9699 23138
9700 14282
9700 17141
9701 15944
9701 22796
9702 21556
9703 10816
9703 10994
9703 11203
9703 11873
9703 12661
9703 13269
9703 13485
9703 13989
9703 14054
9703 14241
9703 14261
9703 15079
9703 15185
9703 15267
9703 17077
9703 17093
9703 17483
9703 17570
9703 17669
9703 18135
9703 18164
9703 19584
9703 20352
9703 20772
9703 20803
9703 22137
9703 22422
9704 12108
9704 13453
9704 14950
9704 16804
9704 22292
9705 11619
9705 13210
9705 15648
9706 13250
9706 21556
9707 9855
9707 15880
9707 17232
9707 20388
9708 13264
9708 16230
9708 17697
9709 18001
9709 23072
9710 16724
9710 17520
9710 18584
9710 22223
9711 13047
9711 15622
9711 23030
9712 19298
9713 14938
9713 22599
9714 11935
9714 14141
9715 17339
9716 11036
9716 14588
9717 14735
9717 15254
9717 22285
9717 23623
9718 13744
9718 22649
9720 14513
9720 19923
9721 20062
9721 22352
9722 13199
9722 19661
9723 11539
9723 14261
9723 15088
9723 17914
9723 20339
9723 20532
9723 20832
9723 20978
9723 21381
9723 23756
9723 23807
9723 23902
9723 24089
9723 24169
9723 24418
9724 10547
9725 12864
9726 10246
9726 17341
9728 12303
9728 18900
9729 9840
9729 18851
9729 22774
9730 18593
9730 23248
9731 11657
9732 10099
9732 12921
9733 18377
9734 13537
9734 18238
9735 20588
9736 19388
9738 11317
9738 22913
9739 15694
9739 24395
9740 10796
9740 11206
9740 12190
9740 14414
9740 14585
9740 18468
9740 20561
9741 12763
9741 19630
9741 20082
9741 20794
9742 17978
9742 21005
9743 15612
9743 20647
9744 14365
9744 21029
9744 22365
9744 23502
9745 23968
9745 24187
9746 10643
9746 14808
9746 18054
9746 22577
9746 23497
9747 9945
9747 12897
9747 14637
9747 17885
9747 18919
9748 15400
9748 18335
9749 10659
9750 15483
9751 11650
9751 12533
9751 15230
9752 14457
9752 20179
9752 20193
9752 20926
9753 16994
9753 17511
9754 9756
9754 9757
9754 12996
9754 14992
9754 20426
9754 20427
9754 21726
9755 9757
9755 9758
9755 12993
9755 20426
9755 20427
9755 21726
9756 14992
9756 21726
9756 23786
9757 9758
9757 12993
9757 12996
9758 20426
9758 21726
9759 20376
9759 22287
9760 16054
9761 18335
9761 20665
9762 13295
9762 15804
9762 19217
9762 21872
9763 15802
9763 18816
9764 12038
9764 18336
9765 18342
9765 20735
9765 21556
9765 23087
9766 23138
9767 10761
9767 17545
9767 19252
9767 22415
9768 18406
9770 11870
9770 15615
9771 15482
9771 15847
9771 17772
9771 22800
9772 17646
9773 11916
9773 12671
9774 12359
9774 13786
9774 19929
9775 16868
9775 18526
9776 16658
9778 15751
9778 19108
9779 19731
9779 19770
9780 14978
9780 16692
9780 22309
9780 23400
9780 23887
9780 24038
9780 24087
9781 15258
9781 19473
9783 20153
9783 20309
9784 16469
9784 20619
9785 14124
9785 17148
9785 21285
9786 13617
9786 15569
9786 16907
9787 23052
9787 23306
9787 23326
9788 13276
9788 19635
9788 23590
9789 18501
9789 19594
9791 21381
9791 24215
9792 13183
9792 13873
9793 15538
9793 21894
9794 17357
9795 21783
9796 10434
9796 12631
9796 19744
9797 10773
9797 12561
9797 14265
9798 17923
9798 18515
9798 21190
9798 22485
9798 23179
9799 20396
9800 12627
9800 12791
9800 17285
9800 18292
9800 18405
9800 21225
9801 11365
9801 12463
9802 23200
9803 13122
9803 22138
9804 11176
9804 11794
9804 15396
9804 18820
9804 18827
9805 13261
9805 13996
9807 19559
9807 23739
9807 24094
9807 24439
9808 19197
9808 19611
9808 20461
9809 14495
9809 23329
9811 10420
9811 13750
9811 21186
9812 15096
9812 22417
9812 22807
9813 10053
9813 10583
9813 13379
9813 14162
9813 21556
9814 13252
9814 14217
9814 14252
9814 17562
9814 18163
9815 10052
9815 10245
9815 10873
9815 11089
9815 11395
9815 12591
9815 12880
9815 13884
9815 14592
9815 14595
9815 18942
9815 22904
9816 15275
9816 17182
9817 21681
9817 21820
9818 10907
9818 23850
9819 22284
9820 19096
9820 21721
9823 11423
9823 14336
9823 17255
9824 16641
9825 10088
9825 10902
9825 12115
9825 24313
9826 16173
9827 10108
9827 16510
9827 19215
9828 13153
9828 17910
9828 19321
9829 12282
9830 19136
9830 23691
9831 20137
9831 20882
9832 15641
9832 15644
9833 14325
9833 14326
9833 14327
9833 15304
9834 10577
9834 14354
9834 21799
9834 22791
9835 15376
9835 16916
9835 19729
9836 11872
9837 12334
9837 14277
9837 14846
9837 20333
9838 12949
9838 12950
9838 12951
9839 16863
9839 20020
9839 20866
9840 15425
9841 11910
9841 17305
9842 13689
9842 14659
9843 22529
9844 22642
9845 18402
9845 21992
9846 18286
9846 18375
9846 18998
9846 23100
9847 13162
9847 21396
9848 16746
9848 19386
9848 21511
9848 22944
9849 11031
9849 13917
9850 20463
9851 18846
9852 11609
9852 13673
9854 21903
9856 18138
9856 20444
9856 21881
9856 22483
9857 23413
9858 14385
9858 15381
9858 17977
9859 12990
9860 10962
9860 19952
9860 22386
9860 23501
9863 10828
9863 16753
9863 19046
9863 19275
9863 22648
9864 10405
9864 15510
9864 21167
9864 22886
9865 10559
9865 13215
9865 13608
9865 14086
9865 18803
9866 10219
9866 12126
9866 15944
9866 16311
9866 22370
9867 17992
9867 19318
9867 20107
9868 11545
9868 11674
9868 11977
9868 13484
9868 13693
9868 19043
9868 19712
9868 22810
9868 23129
9869 19635
9869 21105
9869 23073
9870 10526
9870 10890
9870 16095
9870 21019
9871 17687
9871 19572
9872 10358
9872 11355
9872 21339
9872 21536
9872 23743
9873 16615
9873 18201
9873 20845
9873 21814
9874 10358
9874 11355
9874 13983
9874 16676
9874 17629
9874 19680
9874 20706
9874 20771
9874 21191
9874 22719
9874 23470
9874 23743
9875 10798
9875 10973
9875 12735
9875 14653
9875 14941
9875 16419
9875 16914
9875 18188
9875 19113
9875 19715
9876 17840
9876 21252
9877 23637
9877 24269
9879 16325
9880 13487
9880 15360
9881 12943
9881 21942
9882 12376
9882 12559
9882 14814
9882 22465
9883 10977
9883 13007
9883 22848
9884 23791
9885 17305
9886 17583
9886 19363
9887 24125
9887 24180
9888 10379
9888 15867
9888 22664
9888 23722
9888 23844
9889 12858
9889 19248
9890 11588
9890 16812
9890 16827
9890 21414
9891 14430
9891 16864
9891 23141
9892 12759
9892 21090
9893 10653
9893 16256
9893 18489
9894 13027
9894 14031
9894 21976
9894 21977
9894 22570
9895 12106
9895 14914
9896 23820
9897 23979
9897 24164
9897 24427
9898 11423
9898 11705
9898 14336
9898 23454
9899 15612
9899 16329
9899 16619
9899 17801
9899 21848
9899 23450
9900 10221
9900 11183
9900 11211
9900 14976
9900 15959
9901 12502
9901 18415
9901 20539
9902 13159
9902 15737
9902 16424
9902 20880
9903 10584
9903 17671
9903 19578
9903 23649
9904 12615
9905 22551
9906 13503
9906 16429
9906 22359
9907 11407
9907 16420
9907 21381
9908 21631
9909 10616
9909 11152
9909 11537
9909 13092
9909 18763
9909 21376
9909 21553
9910 18902
9910 22298
9911 11031
9911 13952
9911 22967
9912 12303
9912 15735
9912 16275
9912 17498
9913 12339
9913 12786
9913 17855
9913 19811
9914 14128
9914 22112
9915 21893
9916 15351
9916 19371
9917 15720
9917 16921
9918 12585
9918 15207
9918 18967
9919 21437
9920 16366
9920 21294
9920 22364
9920 22366
9920 22367
9920 23371
9920 23491
9921 16941
9921 19758
9921 23023
9922 11971
9922 19622
9923 13697
9924 18939
9924 21429
9924 21736
9925 15649
9925 21634
9926 21181
9926 22885
9927 17736
9927 21496
9928 16868
9929 9931
9929 18568
9930 9931
9930 12952
9930 12953
9930 14381
9930 17613
9930 19194
9931 12952
9931 12953
9931 14381
9931 17250
9931 19194
9931 23082
9932 9962
9932 11311
9932 17207
9932 19839
9933 12380
9933 12416
9934 20598
9934 22138
9935 11139
9935 16405
9935 22097
9937 17411
9938 10324
9938 24304
9939 10540
9939 11385
9940 11514
9940 13314
9940 16960
9941 14612
9941 19898
9941 21907
9942 21439
9942 23331
9943 13284
9943 15718
9943 19109
9943 22352
9944 11112
9944 13311
9944 22629
9945 12897
9946 10139
9946 10959
9946 13197
9946 20735
9946 21556
9947 21437
9948 14729
9948 21975
9949 10853
9949 18644
9950 13706
9950 18533
9950 23619
9950 23838
9950 23913
9950 23998
9950 24213
9950 24456
9951 10825
9951 10879
9952 12079
9953 17644
9953 24200
9953 24246
9954 18978
9955 9956
9955 9958
9955 11042
9955 11043
9955 15391
9956 9958
9956 11042
9956 11044
9956 15391
9957 16272
9957 20990
9957 21899
9957 22597
9958 11042
9958 11044
9958 15391
9959 15121
9959 19834
9961 11397
9961 21253
9961 23753
9961 24203
9961 24229
9962 11244
9962 14916
9962 15764
9962 17589
9963 17096
9964 19997
9964 20463
9965 12413
9965 13005
9965 20248
9966 13675
9967 18346
9967 23276
9968 23775
9968 23871
9968 24287
9968 24398
9969 17535
9969 20878
9969 21385
9970 13898
9970 16613
9971 16781
9971 18550
9971 21556
9972 18867
9973 13620
9974 24083
9975 11586
9975 12895
9975 15240
9975 15650
9975 16139
9975 19742
9975 20838
9975 21195
9975 22689
9976 11060
9976 16374
9976 22660
9977 14431
9977 16513
9977 18290
9977 19289
9977 20297
9977 21850
9978 17200
9979 14170
9980 14600
9980 15041
9980 16651
9980 18582
9981 20537
9982 14909
9982 23244
9983 12800
9983 24333
9984 12679
9984 20404
9985 13887
9985 19094
9985 19242
9986 12264
9986 14408
9986 16810
9986 20969
9987 11861
9987 14363
9987 15991
9987 17687
9988 20022
9988 20027
9988 20031
9988 20032
9989 9992
9989 11810
9989 15507
9989 21559
9989 22684
9989 23408
9990 9991
9990 10013
9992 22616
9992 23408
9993 15797
9993 22008
9993 24348
9994 13835
9994 20820
9995 12792
9995 13001
9995 13181
9995 21316
9996 12897
9997 14475
9997 14999
9997 22913
9998 10165
9998 18300
9998 22836
9999 10351
9999 16795
9999 19553
10001 10245
10001 10571
10001 12029
10001 12348
10002 18892
10003 17637
10003 23038
10004 10702
10004 14344
10004 14552
10004 18358
10004 19119
10004 19434
10004 20554
10004 20857
10004 20866
10004 22075
10005 13453
10005 14487
10005 15945
10005 18631
10005 22365
10006 10809
10007 15957
10007 16360
10008 10409
10008 12426
10008 15986
10009 12237
10010 23910
10010 24010
10010 24398
10011 16285
10011 18178
10012 17305
10012 20107
10014 14877
10014 17419
10015 14622
10015 21596
10015 22046
10016 11141
10016 20966
10017 19687
10017 21902
10018 10045
10018 10968
10018 15075
10018 15115
10018 15684
10018 15744
10018 16858
10018 19680
10018 20626
10018 20706
10018 20771
10018 22894
10021 14050
10021 16616
10021 20173
10021 23726
10021 24073
10021 24409
10022 10485
10022 10503
10022 22592
10022 22904
10023 12551
10024 23150
10024 24056
10025 10073
10025 12630
10025 12890
10025 13885
10025 15587
10025 15714
10025 17993
10025 18558
10025 19209
10025 19959
10026 13448
10026 17195
10026 18197
10026 19125
10027 10163
10027 14817
10027 22526
10028 12120
10028 13210
10029 23033
10030 16229
10030 20494
10031 11902
10031 15940
10031 20634
10032 12557
10032 17691
10032 23516
10032 24122
10032 24153
10032 24470
10033 14059
10033 15791
10033 19196
10034 13901
10034 15672
10034 20448
10034 20624
10034 22531
10034 23085
10035 19789
10036 13334
10036 15107
10036 20123
10037 18685
10037 18918
10038 16847
10038 21486
10038 23056
10039 10503
10039 21129
10039 22904
10040 17055
10041 11116
10041 16716
10042 12974
10042 19946
10043 22450
10043 22649
10044 19171
10045 12540
10045 19999
10045 20771
10046 14917
10046 15776
10046 17290
10046 20587
10046 20834
10046 22108
10046 23878
10046 23908
10046 24057
10046 24310
10046 24443
10047 10365
10047 10369
10047 24260
10048 11114
10048 22067
10049 12612
10049 15175
10049 16817
10049 23542
10050 20568
10051 10189
10051 13997
10051 15921
10051 21670
10051 22814
10052 10571
10052 12029
10052 22904
10053 10122
10053 11457
10053 11725
10053 12183
10053 12832
10053 12918
10053 13379
10053 14162
10053 14749
10053 18898
10053 20915
10053 21556
10054 11777
10054 18050
10054 20717
10054 22391
10055 15145
10055 17773
10056 10112
10056 11391
10056 11660
10056 13199
10056 13833
10056 14701
10056 15233
10056 15585
10056 17573
10056 18523
10056 18524
10056 19656
10056 19661
10056 20610
10056 21689
10056 22588
10056 23186
10057 12615
10057 23870
10057 24096
10058 18504
10058 21698
10059 18750
10059 21073
10060 15537
10060 15769
10060 23145
10060 23657
10063 10395
10063 11329
10063 15747
10063 17119
10063 19547
10063 19882
10063 20135
10063 21482
10066 16549
10066 21557
10066 21559
10066 23705
10067 11340
10067 21558
10068 20771
10068 22499
10069 17612
10070 21760
10071 20554
10072 10196
10072 10508
10072 14491
10074 11711
10075 12569
10075 16855
10075 20472
10076 11336
10076 16122
10076 16937
10076 17920
10077 15744
10077 20771
10079 19633
10080 11157
10080 14318
10081 22053
10082 23749
10083 10647
10083 14247
10083 16585
10084 17681
10085 10545
10085 24370
10086 23792
10087 10858
10089 11528
10089 19248
10090 15725
10090 22349
10091 11648
10091 12775
10091 15792
10091 15893
10091 16261
10091 18260
10091 19483
10091 19944
10091 20507
10091 21522
10091 21905
10091 22674
10091 23137
10092 11514
10092 13314
10092 15074
10093 15033
10093 16275
10093 19084
10094 10709
10094 19634
10095 23850
10095 23942
10097 10567
10098 15315
10100 15717
10100 16779
10100 17675
10100 18573
10101 17248
10101 20110
10102 11619
10102 13210
10102 14623
10102 15648
10102 16068
10102 19456
10103 16458
10104 17814
10104 21470
10105 15786
10105 17935
10105 20527
10106 10143
10106 11675
10106 13604
10106 14301
10106 19514
10106 19855
10106 20949
10106 21029
10107 18708
10108 13118
10108 13681
10108 13815
10108 15349
10110 23784
10110 24135
10110 24285
10110 24436
10111 19197
10111 19611
10112 12776
10112 22281
10113 16768
10113 17447
10113 18632
10113 20973
10114 21767
10115 16317
10115 22775
10116 16763
10116 20674
10117 20645
10117 22055
10118 15325
10119 13838
10119 14009
10119 14872
10119 15019
10119 22906
10119 23634
10120 16312
10120 17094
10120 23032
10121 17434
10122 18898
10122 21556
10123 11980
10123 24093
10123 24154
10124 12264
10124 14408
10124 16810
10124 20969
10126 14077
10126 14883
10127 17765
10127 18846
10128 15440
10128 17270
10129 11247
10129 19601
10130 12860
10130 16983
10130 18469
10131 11937
10131 13320
10131 13690
10131 13905
10131 14189
10131 17180
10131 22389
10133 12560
10133 15320
10133 15788
10133 18152
10133 22182
10135 19687
10136 23962
10137 23654
10138 17816
10139 20234
10139 20861
10140 21787
10141 23785
10141 23827
10141 24095
10142 10328
10142 13440
10142 20998
10142 21272
10143 14301
10143 19855
10144 16584
10144 21234
10145 13207
10145 13487
10145 15360
10146 11977
10147 11233
10147 14772
10147 19035
10148 10940
10148 14567
10148 14688
10148 15679
10148 17286
10148 22557
10149 13295
10149 16755
10149 17593
10151 10327
10151 21041
10152 11512
10152 17951
10152 23189
10153 13723
10155 20694
10155 22732
10156 14021
10156 16288
10157 12608
10157 18777
10157 22866
10158 12978
10158 12979
10158 13120
10159 18612
10159 21067
10160 18168
10161 11636
10161 14460
10161 15152
10162 24067
10162 24321
10163 22526
10164 11571
10164 13190
10164 18177
10164 21614
10164 22822
10165 18300
10165 22836
10166 17608
10166 19214
10166 20980
10167 12578
10167 18586
10168 16075
10168 16077
10168 19710
10169 19953
10169 24436
10170 17841
10172 20794
10172 21486
10174 14360
10174 18304
10174 19946
10175 14676
10175 16809
10176 12994
10176 13664
10176 16355
10177 12160
10177 13317
10178 12310
10178 17734
10178 17736
10178 17737
10178 20932
10179 15123
10179 23244
10180 10691
10180 12527
10180 16771
10180 23243
10181 12864
10181 22365
10182 12457
10182 13550
10182 17260
10182 17617
10182 23319
10183 11648
10183 15893
10183 19294
10183 22674
10184 21856
10184 22702
10186 10872
10186 16470
10186 20010
10186 21968
10186 24046
10186 24173
10188 12759
10188 18136
10190 17202
10191 22701
10191 22757
10192 11378
10192 22080
10192 22770
10193 13921
10193 19691
10193 20717
10194 15087
10194 20763
10194 21296
10195 11528
10196 13023
10196 14446
10196 16855
10196 20472
10198 14840
10198 15700
10199 15457
10200 12051
10200 16720
10200 21050
10201 15022
10201 16031
10201 19529
10202 10203
10202 11269
10202 11270
10203 11268
10203 11270
10203 11283
10203 20984
10203 22837
10204 11270
10204 18011
10205 15146
10206 12381
10206 14890
10206 15583
10206 16273
10206 21896
10207 13786
10208 10279
10208 10450
10208 23009
10209 12149
10209 12606
10209 14783
10209 14886
10209 21853
10210 14877
10211 14050
10211 17223
10211 18767
10211 23353
10211 24383
10212 23952
10214 18849
10214 24080
10215 14251
10216 18198
10216 22251
10218 12897
10219 13336
10219 13404
10219 19797
10219 22796
10220 11913
10220 17354
10220 21064
10221 12313
10221 12340
10221 14976
10221 19006
10221 19331
10222 12113
10222 12596
10223 19968
10223 21457
10224 10650
10225 20916
10226 13870
10227 10232
10227 11319
10227 13528
10227 22764
10228 11320
10228 13423
10228 16582
10228 22762
10229 16232
10229 24441
10230 10574
10230 15466
10230 15669
10230 16094
10230 17084
10230 20378
10230 21130
10231 11319
10231 22764
10233 12247
10233 16473
10233 24402
10234 16609
10235 19108
10236 24054
10237 18366
10237 19878
10238 10608
10238 17623
10238 21483
10238 21717
10239 13795
10240 10959
10240 20861
10240 21556
10241 11442
10241 22554
10241 23693
10243 23822
10243 24249
10244 14212
10244 23013
10245 10758
10245 11150
10245 11834
10245 11960
10245 12563
10245 13399
10245 13884
10245 14389
10245 14529
10245 14608
10245 15157
10245 15297
10245 15591
10245 15983
10245 16465
10245 16564
10245 17489
10245 17624
10245 17867
10245 17947
10245 18171
10245 18715
10245 18756
10245 19227
10245 19618
10245 19845
10245 20697
10245 21057
10245 21973
10245 22618
10245 23313
10246 15111
10246 17341
10246 19272
10246 20421
10246 22772
10247 10320
10247 16631
10247 23488
10248 14131
10248 17211
10248 22681
10249 12990
10249 14551
10250 14496
10250 14963
10250 16024
10250 16805
10250 17146
10250 17472
10250 18482
10250 21209
10250 21635
10250 22315
10251 15495
10251 16880
10251 20913
10251 21489
10253 12639
10253 15257
10254 11336
10254 16122
10254 18946
10255 15835
10255 22759
10256 13653
10257 15807
10257 16714
10257 22486
10258 19652
10258 22916
10258 22961
10259 10365
10259 10369
10259 24260
10260 11500
10260 18664
10260 23286
10261 13171
10261 13759
10261 14713
10262 19713
10262 20451
10263 15792
10263 16898
10264 11583
10264 11707
10264 12473
10264 22696
10265 15473
10265 23304
10266 12353
10267 19687
10268 11093
10268 14002
10269 13426
10269 16641
10269 16861
10269 20050
10269 21292
10271 15805
10271 21398
10272 14555
10272 15244
10272 17717
10273 17120
10273 17136
10273 17916
10273 20536
10273 22840
10274 12506
10274 18629
10274 20635
10274 20997
10275 16844
10276 10764
10276 12735
10276 14521
10276 18886
10277 15156
10277 15680
10277 16363
10277 20894
10278 15991
10278 19338
10279 10450
10279 23009
10281 12433
10281 12929
10281 15098
10281 23162
10282 11774
10282 15103
10282 17758
10282 18148
10282 23461
10283 13889
10283 18228
10284 14938
10284 19602
10285 20413
10286 23859
10286 24176
10286 24225
10287 16612
10287 19535
10288 20743
10289 11019
10289 20565
10291 16623
10291 21348
10293 11634
10293 13365
10294 11634
10295 18806
10295 19069
10295 22407
10295 22414
10296 11986
10296 15734
10297 20835
10298 13062
10298 20354
10298 21335
10298 21610
10298 23477
10300 10555
10301 22220
10302 15093
10302 18215
10302 20382
10303 13332
10303 13656
10303 14537
10303 14562
10303 20013
10304 10977
10304 13007
10304 19992
10304 22848
10304 23350
10305 10539
10305 22046
10305 22474
10306 11463
10306 18565
10306 18926
10307 10441
10307 13289
10307 15131
10307 17254
10307 18774
10308 20970
10308 23390
10309 12303
10309 18900
10309 22053
10310 23067
10310 23302
10311 23987
10312 20531
10312 22344
10313 10315
10313 11123
10313 12588
10313 14067
10314 17635
10315 10316
10315 14067
10315 19989
10316 14067
10317 10893
10317 21711
10318 13189
10318 18282
10319 18755
10320 13463
10320 15455
10321 13427
10321 19460
10322 10472
10322 11289
10322 13606
10322 14089
10323 15298
10323 18040
10323 18511
10323 19283
10323 20486
10324 24304
10325 15564
10325 18514
10325 18712
10326 23952
10327 13282
10327 13650
10327 13790
10327 20080
10327 21041
10328 11398
10328 13906
10328 15060
10328 22346
10328 22789
10328 23597
10329 18748
10329 20586
10330 12957
10331 18116
10332 18308
10332 19237
10333 19398
10334 12095
10334 19973
10335 14102
10336 13414
10336 17813
10337 15260
10337 16664
10339 16107
10340 13285
10340 15801
10340 18288
10340 20437
10340 23410
10341 14285
10341 16462
10341 17767
10341 21891
10341 23411
10342 20909
10345 18632
10346 10540
10346 11385
10346 12830
10346 19481
10347 12752
10347 15359
10347 15782
10347 20519
10347 23603
10348 12946
10348 16319
10348 17543
10348 18971
10348 19893
10348 24297
10348 24319
10348 24321
10350 12891
10350 19318
10351 12283
10351 16795
10351 17663
10351 19553
10351 21286
10351 23248
10352 14071
10352 19198
10352 21725
10352 22156
10353 14284
10353 16238
10353 18477
10353 19949
10354 11243
10354 14170
10354 18315
10355 18075
10357 11061
10358 10983
10358 11355
10358 13983
10358 16676
10358 17368
10358 22719
10358 23470
10359 23331
10360 24284
10361 18451
10361 24316
10363 11346
10363 20093
10364 13807
10364 18671
10364 19975
10365 24334
10366 16498
10367 15580
10368 14012
10368 18885
10369 10373
10370 10372
10370 14064
10370 14947
10370 15081
10370 19245
10370 19246
10370 23445
10371 20810
10371 22779
10371 24260
10372 10373
10372 22687
10373 14947
10373 19245
10373 22410
10373 22687
10374 23969
10374 24005
10375 19414
10375 23988
10376 11545
10376 19043
10377 13787
10377 15851
10377 20791
10377 23254
10378 13676
10378 19063
10380 15851
10380 20791
10381 20209
10381 21415
10382 12099
10383 11260
10384 10765
10384 21555
10385 11914
10385 14574
10385 23040
10386 16318
10386 16740
10387 20816
10388 11199
10390 10767
10390 13678
10390 18021
10390 22145
10391 10716
10391 15072
10391 22630
10392 14580
10392 20623
10393 10880
10393 11780
10394 16087
10395 21556
10396 19687
10397 12028
10397 14428
10397 16364
10397 16717
10397 16938
10397 17752
10397 17766
10397 18216
10397 18597
10397 18598
10397 20556
10397 21598
10397 22491
10398 23221
10399 20122
10400 12551
10403 17197
10403 21786
10404 12557
10404 23315
10404 24147
10404 24264
10406 22907
10407 24458
10409 12426
10409 15768
10409 20899
10409 22106
10409 23911
10409 23965
10410 15398
10410 16579
10412 21181
10413 18277
10413 19872
10414 14037
10414 18488
10414 20482
10415 11083
10415 14946
10415 15009
10416 11151
10416 15665
10416 18779
10417 10618
10417 10754
10417 11066
10417 11178
10417 11732
10417 17403
10417 21543
10417 21632
10417 22591
10418 12883
10418 13461
10418 18069
10418 19023
10418 21904
10418 22522
10418 23968
10419 10443
10419 11126
10419 23837
10419 24023
10419 24136
10419 24403
10420 10931
10420 13750
10420 16617
10421 13453
10421 14487
10421 22365
10422 11567
10422 11724
10422 15137
10422 17167
10423 10433
10423 22788
10424 15314
10424 23533
10425 22310
10426 10611
10426 10721
10426 14889
10426 15898
10426 19398
10427 11435
10427 18363
10427 21039
10428 17471
10428 20676
10428 20878
10429 16425
10429 16782
10429 17748
10429 20108
10429 20544
10431 11364
10431 13775
10431 14716
10431 15535
10431 19838
10431 21960
10432 14474
10432 23365
10433 19649
10434 14339
10434 15403
10434 15770
10434 17175
10434 20337
10435 17003
10435 19604
10436 12579
10436 20278
10436 23548
10437 13275
10437 14034
10437 14059
10438 19545
10438 21556
10440 17287
10440 20209
10440 21415
10441 15131
10441 16982
10441 17254
10442 13623
10443 24097
10443 24158
10444 11428
10444 23851
10444 24281
10444 24468
10445 21614
10445 22156
10446 12254
10446 16965
10446 18701
10446 18818
10446 20149
10447 12055
10447 12161
10447 18475
10448 12326
10448 13100
10448 17097
10448 22863
10449 21572
10449 23142
10450 23009
10451 24145
10451 24488
10452 17738
10452 18088
10452 20784
10452 23441
10453 11120
10453 16754
10453 21735
10454 14475
10454 19042
10454 19988
10454 20003
10454 21009
10454 23121
10455 10864
10455 24145
10455 24476
10455 24480
10456 16713
10456 22685
10457 16706
10457 17679
10457 23464
10458 15802
10458 17006
10459 16758
10460 12841
10460 22889
10460 22985
10460 23362
10461 13522
10461 16306
10462 15810
10462 19021
10464 19769
10464 22356
10464 23065
10465 15684
10465 16858
10465 18491
10465 18499
10465 19790
10465 20639
10465 21013
10465 21446
10465 22928
10466 20408
10467 17541
10467 17626
10467 19772
10468 12391
10468 14874
10468 18781
10469 11824
10469 12704
10469 14045
10469 19611
10469 20461
10469 21488
10470 13490
10470 18305
10470 22168
10471 15062
10471 15079
10471 16168
10471 16975
10471 18141
10471 22422
10473 14288
10474 21711
10475 19744
10476 17583
10476 20485
10476 22890
10476 23002
10477 12324
10477 20258
10478 18286
10479 18232
10479 19329
10480 16584
10480 21234
10481 19339
10481 19486
10482 14227
10482 16089
10482 17303
10482 21762
10483 10805
10483 14782
10485 19824
10485 20806
10486 12483
10486 15097
10486 19660
10487 15527
10487 18584
10489 17959
10489 20302
10490 12997
10490 14135
10490 21007
10491 11579
10491 15802
10492 11973
10492 17600
10492 23337
10493 21359
10494 21162
10494 23509
10496 12031
10496 14693
10497 12897
10497 15818
10497 22716
10498 14267
10499 10543
10499 10905
10499 10908
10499 22726
10499 22727
10499 23971
10499 23976
10500 14735
10500 22285
10501 12338
10501 22453
10501 23932
10501 24091
10501 24216
10502 21186
10503 10599
10503 11934
10503 12053
10503 12156
10503 13346
10503 19210
10503 19824
10503 22735
10503 23269
10504 16791
10504 17463
10504 17724
10505 20160
10505 20788
10505 23043
10506 16233
10506 16726
10506 16927
10506 20377
10506 23349
10507 13885
10508 13023
10509 14581
10509 15628
10509 21256
10509 23352
10510 24177
10510 24299
10511 24392
10512 20870
10512 24164
10513 24099
10514 21760
10515 24413
10516 10518
10517 13203
10517 14675
10517 18532
10517 23655
10517 23830
10518 19990
10518 23973
10518 24414
10519 24014
10519 24468
10521 10736
10521 15935
10521 18172
10521 19302
10522 13731
10522 17697
10522 23475
10524 15073
10524 21183
10524 24446
10526 10832
10526 11484
10526 13448
10526 15626
10526 19170
10526 19366
10526 21019
10527 15199
10527 16732
10527 17253
10527 19588
10527 20886
10528 14365
10528 22365
10529 12746
10529 21854
10529 23508
10530 17037
10530 18923
10530 19868
10531 10550
10531 21556
10532 15527
10532 17366
10534 20388
10535 19687
10535 21902
10536 14278
10536 18925
10537 14059
10537 19196
10537 20517
10538 21988
10539 13057
10539 15971
10539 20872
10540 11385
10540 12830
10540 19481
10540 21499
10541 20473
10541 23614
10542 11021
10542 13572
10542 14145
10542 18426
10543 19784
10543 23996
10544 10547
10544 17200
10545 24142
10545 24347
10545 24456
10546 15178
10546 20781
10546 24071
10547 10548
10547 14926
10547 23571
10548 17200
10549 11513
10549 22913
10550 16636
10551 21587
10552 23000
10553 15538
10553 20718
10554 21903
10555 13870
10555 16233
10555 16726
10555 16927
10556 16461
10556 22662
10557 15415
10558 13240
10558 17392
10558 18448
10558 19068
10558 19554
10558 20119
10558 20327
10558 20496
10558 21590
10558 21957
10558 22149
10559 13608
10559 14086
10560 12954
10560 13457
10560 21188
10561 14594
10562 12321
10562 12793
10562 14767
10562 20051
10563 13781
10563 20967
10566 12400
10566 13457
10566 18851
10566 22774
10567 11316
10567 11728
10567 12104
10567 13356
10567 14223
10567 16828
10567 18086
10567 18385
10567 20753
10568 11649
10568 21792
10569 11685
10569 14333
10569 16974
10569 18271
10570 11408
10570 11409
10570 11719
10570 16152
10570 16153
10570 17444
10570 17445
10571 10873
10571 11395
10571 11543
10571 11720
10571 11834
10571 12029
10571 12038
10571 12563
10571 12584
10571 12591
10571 13304
10571 13358
10571 13399
10571 13734
10571 13884
10571 13947
10571 13979
10571 14529
10571 14595
10571 14608
10571 14794
10571 15297
10571 15983
10571 16277
10571 16564
10571 17624
10571 17867
10571 18707
10571 18715
10571 18738
10571 18838
10571 18908
10571 18942
10571 19590
10571 19618
10571 19845
10571 19922
10571 20410
10571 20538
10571 20667
10571 21764
10571 21973
10571 22451
10571 23313
10571 23314
10571 23469
10571 23576
10572 20359
10574 16094
10575 22024
10575 22178
10576 12204
10576 13468
10576 22585
10577 21799
10578 13274
10578 14195
10578 16006
10578 17296
10578 17440
10578 18162
10579 10581
10579 16019
10579 19092
10580 10581
10580 16019
10581 19092
10582 15120
10583 21556
10584 14754
10584 17670
10584 17671
10584 19090
10585 23915
10585 24004
10585 24243
10585 24372
10586 21578
10586 21990
10586 22281
10587 14690
10587 23610
10588 13412
10588 16402
10589 13178
10589 13798
10589 16607
10589 19639
10590 10892
10590 14897
10590 15885
10591 11786
10591 13098
10591 13680
10591 14202
10591 15246
10591 15740
10592 20388
10593 11169
10593 11929
10593 12065
10593 12098
10593 12219
10593 12559
10593 12712
10593 12821
10593 13145
10593 13169
10593 13193
10593 14360
10593 15144
10593 15383
10593 15742
10593 16235
10593 16365
10593 16774
10593 16788
10593 16967
10593 17045
10593 17279
10593 17875
10593 18744
10593 19825
10593 20737
10593 21215
10593 21764
10593 22070
10593 22405
10593 22451
10593 22977
10593 23459
10594 22116
10594 23100
10595 12971
10596 13854
10596 14478
10596 16270
10597 13958
10598 24130
10599 12242
10599 20853
10600 18530
10601 18249
10601 19427
10601 21792
10602 22200
10603 11063
10603 24159
10604 10784
10604 11007
10604 11858
10604 11861
10604 12620
10604 12781
10604 13669
10604 19234
10604 20487
10604 20567
10604 24455
10605 22116
10606 11790
10606 21507
10607 13807
10607 16056
10607 18671
10608 10978
10608 17623
10608 17632
10608 18672
10608 20405
10608 21483
10608 21717
10608 22769
10608 23528
10609 22748
10609 24220
10610 16162
10610 17109
10610 22785
10611 13207
10611 19398
10612 22883
10613 18631
10614 10946
10614 17870
10614 18006
10614 18821
10614 19009
10614 21886
10615 18472
10616 11152
10616 11537
10616 13092
10616 13408
10616 18763
10617 13442
10617 18348
10618 16076
10619 23487
10620 12321
10620 12793
10620 14767
10621 17927
10621 20885
10621 23230
10622 12496
10622 15243
10622 16177
10623 14740
10623 15955
10624 18632
10625 11621
10625 13933
10625 18631
10625 20618
10626 12819
10626 21834
10627 11544
10627 11638
10627 14352
10627 15408
10627 16396
10628 18323
10628 21978
10628 22141
10629 12546
10629 16173
10630 14871
10630 15843
10631 12033
10632 21461
10633 14776
10633 18903
10633 20143
10633 22934
10634 15969
10634 17011
10635 12204
10635 12864
10635 19545
10636 12673
10636 17070
10636 20401
10636 23103
10637 15997
10638 17637
10638 17883
10639 10712
10639 13924
10639 15493
10639 17838
10639 18016
10639 20039
10639 21391
10639 21975
10639 22538
10640 19810
10641 23934
10642 11397
10642 24229
10642 24454
10644 12864
10645 11864
10645 12777
10645 16666
10645 20017
10646 10651
10646 14675
10646 23655
10646 23830
10646 24248
10647 10786
10647 11976
10647 14247
10647 16585
10647 21688
10647 22277
10648 16394
10649 17628
10650 13191
10650 24429
10651 10908
10651 14763
10651 23827
10652 16734
10653 15064
10653 18489
10653 21827
10654 24256
10654 24318
10656 14612
10656 19978
10656 23095
10657 14797
10657 23267
10658 13492
10658 22988
10659 21405
10660 12801
10661 16370
10661 16538
10661 17443
10661 19582
10662 10853
10662 11569
10662 18644
10662 20660
10663 15167
10663 19631
10664 18261
10664 18631
10665 11513
10665 19611
10667 14126
10667 18442
10667 20914
10668 23810
10669 11063
10669 24159
10670 17405
10670 20999
10671 11758
10671 16331
10671 16943
10671 21161
10672 12511
10672 16097
10672 21267
10672 22173
10673 10986
10673 14052
10673 17072
10673 20825
10673 20873
10675 12854
10675 23152
10677 14921
10678 10968
10678 11949
10678 12632
10678 16858
10678 17900
10678 20601
10678 20771
10679 17394
10679 22986
10679 23666
10680 15869
10680 16130
10680 17539
10680 22462
10680 23316
10681 14645
10681 17344
10682 11114
10682 21630
10682 23277
10683 17887
10684 11255
10684 11280
10684 11608
10684 12389
10684 14879
10684 15288
10684 17768
10685 14372
10685 22914
10685 23161
10686 19371
10688 17305
10689 14482
10689 19515
10689 20103
10690 11372
10690 17071
10690 18854
10690 19843
10691 16771
10691 19015
10691 23243
10692 12079
10692 19381
10693 11256
10693 17935
10694 13111
10695 15110
10695 18234
10696 13163
10696 15046
10696 16604
10696 17730
10696 18509
10696 19249
10696 19421
10696 19450
10696 21742
10698 13349
10698 15406
10698 19560
10698 21626
10699 13658
10699 22915
10700 10701
10700 13323
10700 20020
10700 20021
10700 20866
10701 20019
10701 20020
10702 19434
10703 14606
10703 19537
10703 20971
10703 21341
10703 22936
10704 10845
10704 16004
10704 16734
10704 18585
10705 16700
10705 21958
10705 22195
10706 11194
10707 14573
10707 22193
10708 15705
10709 19648
10710 18692
10711 21596
10711 22474
10712 13924
10712 14383
10712 14729
10712 15493
10712 21975
10712 22636
10713 12943
10713 14168
10713 17183
10714 10715
10714 11796
10714 11797
10715 11081
10715 11797
10716 20115
10716 22376
10717 16769
10717 17669
10717 17846
10717 20282
10718 16696
10718 16912
10718 23047
10720 11904
10720 20146
10720 23094
10720 23697
10721 20219
10722 12912
10722 15590
10722 15691
10723 16538
10724 14423
10725 17868
10725 21953
10726 11375
10727 19370
10727 20554
10727 20866
10728 22678
10728 23319
10729 14743
10729 14909
10729 18095
10729 18272
10730 14138
10730 23264
10731 23067
10732 17347
10732 20927
10733 14429
10733 19777
10733 20818
10734 14412
10734 19670
10734 22820
10735 18285
10736 13060
10736 15935
10736 18172
10736 19302
10737 12049
10737 12209
10737 12354
10737 13070
10737 20728
10739 23297
10740 11980
10740 12665
10740 12940
10740 14232
10740 14279
10740 16378
10740 22197
10740 23646
10740 23919
10740 23920
10740 24400
10741 19439
10741 21197
10742 12802
10742 17898
10743 15458
10744 23395
10744 24075
10744 24164
10745 13602
10746 10853
10746 11569
10746 11765
10746 12885
10746 15248
10746 18644
10748 15392
10748 21043
10749 12258
10749 16939
10749 18957
10750 16343
10750 16852
10750 17384
10750 20190
10750 21474
10750 23524
10751 11079
10751 11354
10751 12138
10751 12682
10751 14750
10751 15335
10751 19746
10751 20777
10751 20839
10751 20911
10751 21930
10752 11939
10752 16563
10752 23054
10753 13115
10753 18709
10753 21933
10754 16300
10755 18846
10756 14440
10757 12044
10757 21235
10758 13884
10759 19442
10759 23059
10760 10794
10760 10885
10760 16418
10760 16654
10761 11662
10761 12486
10761 12965
10761 16412
10761 16702
10761 16801
10761 18388
10761 19372
10761 21422
10761 22276
10761 22415
10761 23062
10762 12568
10762 13164
10762 16948
10762 17248
10762 19293
10762 19377
10762 20110
10763 11424
10763 17375
10764 12943
10764 14521
10764 16227
10764 18886
10765 12629
10766 18461
10766 20898
10766 23472
10767 21387
10768 14672
10768 21800
10768 22521
10768 22607
10769 14589
10769 15990
10769 21151
10770 18103
10770 21126
10771 15086
10771 17400
10773 11717
10773 15630
10774 14582
10774 15271
10774 22565
10775 12099
10776 16856
10777 18782
10778 13122
10779 13590
10779 15589
10779 17661
10779 18982
10779 19465
10780 11131
10781 18940
10781 19026
10781 19633
10782 14901
10782 17546
10782 22214
10783 13034
10783 15972
10783 23813
10784 19234
10785 13855
10785 24282
10786 14247
10787 11830
10787 14315
10787 16563
10788 10853
10788 11569
10788 18644
10788 20660
10788 20746
10791 11362
10791 23778
10792 23734
10793 23783
10793 23926
10793 24151
10794 15519
10795 11621
10795 13933
10795 18631
10795 23344
10796 14261
10796 14293
10796 14585
10796 15613
10797 10841
10797 10972
10797 12460
10797 17339
10797 18708
10797 19087
10797 23023
10798 14637
10800 12542
10800 12958
10800 18972
10800 19058
10801 16017
10801 19756
10801 20066
10802 18717
10803 14336
10803 14498
10803 16647
10804 22126
10805 11250
10805 13677
10805 15090
10805 17385
10805 18795
10805 21233
10806 13008
10806 13609
10806 15596
10806 18882
10807 12699
10808 13783
10808 20100
10808 22392
10808 24061
10808 24205
10809 14533
10809 19052
10809 19418
10809 21811
10809 23339
10810 10995
10810 24438
10811 14804
10812 17816
10812 19831
10813 13870
10813 16927
10814 11929
10814 17279
10815 10955
10815 17259
10815 18236
10817 12343
10817 14015
10817 15878
10817 16987
10817 17374
10817 18386
10817 19774
10817 20000
10817 20117
10818 12047
10818 12193
10819 15086
10819 20239
10819 23565
10820 12327
10820 14104
10820 18804
10821 18364
10821 18909
10821 21449
10822 13870
10822 16927
10822 17992
10823 16071
10823 16493
10823 16608
10823 17233
10823 19628
10823 20506
10823 21150
10823 23466
10823 23563
10824 12303
10824 12735
10825 10879
10825 11173
10825 21813
10827 18569
10828 16753
10828 19046
10829 17546
10830 17504
10830 22461
10831 11313
10831 17847
10831 22822
10832 13448
10832 14316
10833 14833
10833 15350
10833 18962
10833 20617
10834 21283
10834 21550
10835 13181
10836 17712
10836 18035
10837 15868
10837 18193
10837 19151
10837 20341
10838 11379
10838 18034
10838 18314
10839 23881
10840 13958
10840 19223
10842 13750
10842 19032
10842 20902
10843 13125
10843 13413
10843 18862
10843 23270
10844 20092
10844 21603
10845 16004
10845 16734
10845 22363
10846 11936
10846 14797
10846 18078
10847 10984
10848 16478
10849 19109
10849 22352
10850 22349
10851 17598
10851 18717
10852 16007
10853 11765
10853 12186
10853 12408
10853 12432
10853 12885
10853 12906
10853 13679
10853 13858
10853 15226
10853 15570
10853 15693
10853 16778
10853 17879
10853 18056
10853 18644
10853 19895
10853 20621
10853 20746
10853 20805
10853 21876
10853 23751
10854 20189
10854 20771
10854 22894
10855 12225
10855 13312
10855 19060
10855 20904
10855 21948
10856 18998
10856 19318
10857 14037
10858 17505
10858 18508
10858 22350
10859 15123
10860 19497
10861 13908
10861 15506
10861 17228
10861 19820
10861 22895
10862 23825
10863 19070
10863 20523
10864 22898
10864 24117
10864 24461
10864 24465
10864 24476
10865 12607
10865 12610
10865 18294
10866 10867
10866 10924
10866 11550
10866 12245
10866 12662
10866 19375
10866 23689
10866 24204
10867 11550
10867 12245
10867 23921
10867 24204
10868 13808
10868 13826
10868 17788
10868 21757
10868 22994
10868 23763
10870 19687
10870 20087
10872 18496
10872 24046
10872 24129
10872 24156
10872 24458
10873 14592
10874 11448
10874 17558
10875 11488
10875 19721
10876 12142
10876 14059
10876 15761
10876 16596
10876 16627
10876 20517
10877 21200
10878 14048
10878 18992
10878 19466
10878 20380
10879 13091
10879 21813
10880 11069
10880 22602
10881 12499
10881 16782
10881 19181
10881 19981
10881 20108
10882 11752
10882 19685
10883 11649
10883 14851
10884 21844
10885 15519
10886 18114
10886 20474
10887 20073
10888 16173
10888 20208
10889 14997
10889 19840
10889 21529
10890 16095
10890 19170
10891 12256
10891 13918
10891 21849
10892 14897
10892 15885
10892 16712
10893 11185
10893 11653
10893 11741
10893 12683
10893 13221
10893 13566
10893 13945
10893 14001
10893 14319
10893 14598
10893 14838
10893 15125
10893 15332
10893 15372
10893 15721
10893 15875
10893 15962
10893 16371
10893 16553
10893 17135
10893 17321
10893 17571
10893 17601
10893 19177
10893 19948
10893 20184
10893 20582
10893 20863
10893 22287
10893 22327
10894 17068
10894 18381
10894 21222
10895 11467
10895 14089
10895 18543
10895 20419
10895 22193
10895 23098
10896 21614
10897 19041
10897 20645
10897 22055
10898 12926
10898 17361
10899 20636
10899 22525
10900 13329
10901 13910
10901 14732
10901 16877
10902 12115
10902 24444
10903 15323
10903 16373
10903 17343
10904 14191
10904 16924
10904 21369
10904 23397
10905 10908
10905 13203
10905 23901
10905 24234
10906 24320
10906 24465
10907 12036
10907 13640
10907 16451
10907 23850
10908 13203
10909 19330
10909 19424
10910 17756
10910 21273
10911 19822
10913 13055
10913 14969
10913 17719
10914 13441
10914 13545
10914 15089
10914 15228
10914 15842
10914 16136
10914 17272
10914 17488
10914 19106
10914 21333
10914 21770
10916 12731
10917 22400
10918 22780
10918 22962
10919 19737
10919 21016
10920 16271
10920 17784
10920 23098
10921 13317
10921 13685
10921 16876
10921 22268
10922 15324
10922 16909
10922 18087
10922 19641
10923 12348
10923 21764
10923 22592
10924 11550
10924 23921
10924 24204
10925 11883
10925 18412
10926 13142
10926 20078
10926 20181
10927 20281
10928 16967
10928 23459
10929 12999
10929 16316
10930 12000
10930 12898
10930 17274
10930 17786
10930 18754
10930 19310
10930 22218
10930 23163
10931 22972
10932 13306
10932 14112
10932 15149
10932 16881
10932 18894
10932 19814
10932 20428
10933 22144
10934 14232
10934 14279
10934 23312
10934 24400
10935 13660
10935 19454
10935 19852
10935 20862
10935 22432
10936 12546
10936 19749
10937 15184
10937 17340
10938 11665
10938 24130
10939 11656
10939 16422
10939 19862
10939 20687
10939 20688
10940 14688
10942 19109
10942 21334
10943 15581
10943 17241
10944 16086
10944 19835
10945 13854
10947 12944
10947 17710
10947 20585
10947 21793
10948 12113
10948 12596
10948 23507
10949 13278
10949 18822
10949 18823
10951 19574
10951 20424
10951 22529
10952 12071
10952 18213
10952 20446
10953 15350
10953 15752
10955 12900
10955 17259
10955 18236
10957 19178
10957 22401
10958 13652
10958 17764
10958 19097
10959 15427
10960 13081
10961 21222
10961 22529
10962 23501
10963 11624
10963 18612
10963 22171
10964 23735
10965 14933
10965 16423
10965 21654
10966 14272
10967 20306
10967 20533
10968 12561
10968 12632
10968 22894
10969 13295
10970 13449
10970 14539
10971 18846
10972 20252
10973 14653
10973 19113
10974 12963
10974 13982
10974 14982
10974 15039
10974 16054
10974 16115
10974 17297
10974 18031
10974 19033
10975 14609
10975 15418
10975 22786
10976 12307
10976 21170
10977 13007
10977 22848
10978 15933
10978 22769
10979 16681
10979 17577
10979 21403
10979 22768
10980 11685
10980 12423
10980 21064
10981 18190
10982 11057
10982 12252
10982 23859
10983 21191
10983 21339
10983 23755
10984 11980
10984 24093
10985 11556
10985 14987
10985 15224
10985 17215
10985 19698
10985 20826
10986 12864
10987 13227
10987 18740
10987 19723
10988 23909
10988 23912
10989 11347
10989 14646
10989 22343
10990 11669
10990 21812
10990 21969
10991 12260
10991 19386
10992 18568
10992 20370
10992 23047
10993 13507
10993 13939
10993 22680
10994 17077
10994 17669
10995 12782
10995 17842
10995 18577
10995 23109
10995 24438
10996 18453
10997 11718
10997 16990
10998 14135
10998 21505
10999 17380
10999 21153
11000 11513
11000 14933
11000 21009
11000 22913
11001 17334
11001 19213
11001 20210
11002 11293
11002 11970
11002 12674
11002 14717
11002 18316
11002 19456
11002 20515
11002 23196
11002 23699
11002 24290
11003 22053
11004 15281
11004 17288
11004 17289
11004 23159
11005 15776
11005 20587
11005 22108
11005 24057
11005 24443
11006 14122
11006 20639
11006 22928
11007 11861
11008 17996
11008 20771
11009 17165
11009 18053
11009 22179
11010 11941
11010 12135
11011 14128
11012 15178
11012 23874
11012 24071
11013 19150
11014 11959
11014 13107
11014 15094
11014 15216
11014 18319
11014 18933
11014 19526
11014 20310
11014 21166
11014 21259
11014 23122
11015 16884
11015 19806
11015 19807
11015 23199
11016 11907
11016 21204
11016 23910
11016 24143
11016 24412
11017 15344
11017 21741
11018 15178
11018 23787
11018 23874
11019 19479
11019 19957
11019 20565
11019 23662
11020 11021
11020 13572
11020 14145
11020 18003
11020 18426
11020 20393
11021 11022
11021 15442
11021 20289
11022 14145
11024 19878
11025 19169
11026 12185
11026 22135
11026 22732
11027 13133
11027 13630
11027 15163
11028 23909
11028 23912
11028 24070
11029 12746
11029 21854
11030 21614
11031 13917
11031 13952
11031 23443
11032 21614
11033 14468
11033 17490
11034 12095
11034 18846
11035 11036
11037 11104
11037 24208
11037 24357
11038 13094
11038 15929
11038 17939
11039 16835
11039 18804
11039 22357
11041 13427
11042 15391
11043 11044
11044 22324
11045 12454
11045 17847
11045 20492
11046 13267
11046 13842
11047 13456
11047 15987
11047 18346
11047 20885
11047 23263
11047 23276
11048 16109
11048 17046
11048 17940
11049 18826
11052 18692
11053 18684
11053 23099
11053 23151
11054 18655
11054 22773
11054 23151
11055 12160
11055 13692
11055 16871
11055 21918
11056 12047
11056 12393
11056 14348
11056 15709
11056 19397
11056 21192
11057 12291
11057 16603
11057 23660
11057 23867
11058 13520
11058 14069
11058 14786
11058 18815
11058 18845
11059 12667
11059 15665
11059 18669
11061 19631
11061 20244
11061 20703
11061 22634
11061 22809
11062 14472
11062 20480
11063 11864
11063 17931
11063 21063
11063 23325
11064 11425
11064 13573
11064 14600
11064 16254
11065 12326
11065 16221
11065 17097
11065 17180
11066 16076
11066 16300
11068 14135
11068 20164
11069 11780
11069 14489
11069 18370
11071 13141
11071 18189
11072 12594
11072 16054
11072 18031
11072 19106
11073 15615
11073 20906
11073 21673
11074 11517
11074 11519
11074 15285
11075 13122
11075 22138
11076 14902
11076 14903
11076 20517
11076 21676
11077 11634
11077 14075
11077 19717
11077 23242
11079 20777
11079 22341
11080 17182
11080 19227
11080 19654
11081 11796
11082 23168
11083 15009
11084 16833
11084 18552
11084 21227
11084 21420
11084 21946
11085 15155
11085 18471
11085 22134
11085 22154
11086 13893
11086 14875
11086 21644
11087 12259
11087 20866
11091 16565
11091 20986
11093 13666
11093 18350
11094 14450
11094 15400
11094 19318
11095 17411
11095 20144
11096 18717
11096 22469
11097 12233
11097 12926
11097 14464
11099 12010
11099 24202
11099 24341
11099 24464
11100 11946
11100 13242
11100 16571
11100 22979
11101 16231
11102 16705
11103 15658
11103 16128
11103 18964
11104 12418
11104 24207
11104 24208
11104 24263
11104 24373
11105 15127
11106 12357
11106 18901
11106 22174
11107 12435
11107 15805
11107 19644
11107 21398
11108 14742
11109 23825
11109 24331
11110 15107
11110 16976
11110 20652
11111 14558
11111 22153
11112 14300
11112 22629
11114 14027
11114 15015
11114 18131
11114 21630
11114 22067
11114 23277
11115 23964
11116 12710
11116 15471
11116 21091
11116 22059
11116 23628
11117 18488
11117 20482
11118 23011
11119 12642
11119 15085
11119 22902
11119 24002
11119 24414
11120 12285
11120 13043
11120 14094
11120 15082
11120 15174
11120 16754
11120 17397
11120 20547
11120 23083
11122 12250
11122 20386
11123 12588
11123 20256
11124 14416
11124 19540
11125 23201
11126 24097
11126 24158
11127 17105
11129 11669
11129 11763
11129 18021
11129 18178
11129 21515
11129 22145
11130 11870
11130 12050
11130 14333
11131 12600
11131 22850
11131 23148
11132 15793
11132 19586
11133 16315
11134 11325
11134 11388
11134 12515
11134 13325
11134 14849
11134 20736
11134 20828
11134 22441
11134 23479
11134 23854
11134 23857
11134 23954
11134 23991
11134 24107
11134 24424
11134 24426
11135 23922
11135 24164
11136 20616
11136 21001
11137 12465
11138 20924
11138 21256
11138 23352
11139 12533
11139 16076
11139 19624
11139 20168
11140 13580
11140 15003
11141 11718
11141 19606
11141 20966
11141 22626
11142 18689
11143 18167
11143 23835
11143 24008
11144 15086
11145 15374
11145 16979
11145 21062
11145 22428
11146 14609
11146 19111
11146 21144
11146 22036
11147 14072
11147 18897
11147 22800
11147 23905
11148 11911
11148 15151
11148 22025
11149 22285
11150 12029
11150 12348
11151 15665
11152 11537
11152 13408
11152 21376
11153 19784
11153 21679
11154 19782
11155 12975
11155 23800
11155 24007
11155 24100
11156 16896
11157 11716
11157 14318
11157 23126
11158 12735
11159 16447
11159 17818
11159 21722
11160 14236
11160 15793
11161 16210
11161 17033
11162 24465
11163 13446
11163 23307
11164 11523
11164 12519
11164 17911
11164 20503
11165 13019
11165 15534
11165 17412
11165 20995
11165 22831
11165 23192
11167 12429
11167 13058
11167 21018
11167 21435
11168 20134
11168 22173
11168 23308
11169 17726
11170 18474
11171 17305
11171 22856
11172 13019
11172 14245
11172 17412
11172 20995
11173 13091
11174 12185
11174 21698
11175 11176
11175 11793
11175 12181
11175 12741
11175 18827
11175 21936
11176 11794
11176 12181
11176 12741
11176 15396
11176 18820
11176 18827
11176 19807
11178 16076
11179 24073
11179 24200
11179 24225
11180 11696
11180 12822
11180 22433
11180 23589
11182 13267
11182 21531
11183 11211
11183 12340
11183 14846
11183 15959
11183 21035
11184 23816
11185 22287
11185 23552
11186 17999
11186 19207
11187 23358
11188 11889
11188 13761
11188 15525
11188 18891
11188 23486
11189 14117
11189 20288
11189 21321
11190 13856
11190 14450
11190 22039
11190 22471
11191 18653
11191 19138
11191 23262
11192 17646
11193 13795
11193 21713
11194 22283
11195 17220
11196 11214
11197 15432
11197 19534
11198 14832
11198 15122
11198 17461
11198 17462
11198 21756
11199 14469
11199 17369
11199 23832
11200 19067
11200 23512
11201 11510
11201 19244
11201 20629
11201 22396
11202 19612
11203 13389
11204 21554
11205 12247
11205 23952
11207 12323
11207 22503
11208 19640
11209 16183
11209 17115
11209 18813
11209 19066
11211 12313
11211 12340
11211 19006
11211 19331
11211 20333
11211 20550
11212 20439
11213 11699
11213 16328
11213 17616
11213 21966
11214 11861
11214 12774
11214 13361
11214 13704
11214 14391
11214 14562
11214 15293
11214 15779
11214 18753
11214 20730
11214 24455
11215 11999
11215 13722
11215 22183
11216 18900
11217 12357
11217 20016
11218 16669
11218 17409
11218 21508
11218 21721
11218 22499
11219 13626
11219 19376
11220 13019
11220 14245
11220 15534
11220 20995
11221 11624
11222 12978
11223 12150
11223 17009
11224 15152
11224 18494
11225 13747
11225 15207
11225 18967
11226 13267
11226 22963
11227 16381
11227 18193
11227 19191
11227 21205
11227 22246
11228 14494
11228 15093
11228 21857
11229 15340
11229 21795
11229 22307
11231 12127
11231 18858
11233 12564
11233 16947
11234 21321
11235 16022
11235 24035
11235 24190
11235 24231
11236 20865
11236 23647
11237 16844
11238 12358
11238 12360
11238 22126
11239 19747
11239 23468
11240 18631
11240 21029
11240 22365
11241 16631
11241 23488
11242 15443
11242 22202
11243 18315
11245 11389
11246 13314
11246 16960
11246 19045
11247 12333
11247 14185
11247 20093
11248 11455
11248 20209
11248 22384
11249 12488
11249 13567
11249 16334
11250 13696
11250 17345
11251 12005
11251 17868
11251 18800
11252 15052
11252 18570
11252 22820
11253 11575
11253 23961
11254 16317
11255 12389
11255 14879
11255 16479
11255 17555
11255 17768
11255 19583
11255 20979
11256 14783
11256 17935
11257 13921
11257 19691
11257 20732
11258 12029
11258 12591
11259 11513
11259 14933
11259 21009
11259 22913
11261 15898
11262 15657
11262 22790
11263 18900
11264 20059
11265 14036
11265 23423
11266 13986
11266 14523
11266 16663
11267 13150
11267 16591
11267 16936
11267 22152
11268 11270
11268 11283
11268 20984
11269 11270
11269 11279
11269 11285
11269 11286
11269 16577
11269 20993
11269 22837
11270 11271
11270 11272
11270 11281
11270 11282
11270 11284
11270 11285
11270 11287
11270 14042
11270 16036
11270 16037
11270 16042
11270 16058
11270 16059
11270 16065
11270 16577
11270 18007
11270 20984
11270 22837
11271 11272
11271 11281
11271 11284
11271 20984
11271 22837
11272 11274
11273 11279
11273 11284
11273 11285
11273 11288
11273 16035
11273 16038
11273 16048
11273 16051
11273 16058
11273 16062
11274 11275
11274 11276
11274 11285
11274 16033
11274 16043
11274 16046
11274 16049
11274 16057
11274 16060
11274 16061
11275 11276
11275 16057
11275 16062
11276 11277
11276 16048
11276 16060
11277 16060
11277 16065
11278 11279
11278 11285
11278 14041
11278 16058
11279 14041
11279 16059
11279 20993
11280 11966
11281 11283
11281 11284
11282 22837
11283 11288
11283 22837
11284 11287
11285 11287
11285 16038
11285 16039
11285 16040
11285 20993
11286 14041
11286 20993
11288 22837
11289 18168
11290 11429
11290 12552
11290 21168
11291 12863
11291 23262
11292 23765
11292 24298
11293 23196
11293 23699
11294 23108
11294 24161
11294 24298
11295 12094
11295 14032
11295 16191
11295 16735
11296 23671
11296 24161
11296 24475
11297 11452
11297 14007
11297 21377
11297 24187
11297 24486
11298 17305
11298 18782
11299 15145
11299 17773
11300 12300
11300 15298
11300 16847
11300 17017
11300 19283
11301 13458
11301 19248
11302 13048
11302 14116
11302 18325
11302 22333
11302 23712
11303 12302
11303 12377
11303 13998
11303 14745
11303 15313
11303 17346
11303 18270
11303 18833
11303 20121
11303 21490
11303 22710
11303 23663
11304 15478
11304 15480
11305 17546
11305 17681
11305 19736
11305 20943
11306 16421
11307 19059
11307 21759
11307 22306
11308 13584
11308 16216
11308 20010
11308 23782
11308 24046
11308 24256
11310 16722
11312 12571
11313 15328
11313 15812
11313 22822
11314 20900
11314 23631
11314 24007
11314 24100
11315 15521
11315 20160
11315 23942
11317 14999
11317 15904
11317 19988
11317 22913
11318 20122
11319 22764
11320 11878
11320 13423
11320 14818
11320 15169
11320 15906
11320 16582
11320 22762
11321 20359
11322 23679
11323 11324
11323 23856
11324 11325
11325 24241
11327 15315
11328 15828
11329 12509
11329 12987
11329 20135
11329 22922
11331 18742
11331 19823
11331 20261
11331 23146
11332 24292
11333 20445
11333 24131
11333 24215
11334 12410
11334 17221
11334 24491
11335 12024
11335 18367
11336 16122
11336 17920
11336 18946
11337 11755
11338 23820
11339 21614
11340 21558
11340 22672
11341 22616
11342 12470
11342 13429
11342 14741
11342 17647
11342 17763
11342 17810
11343 11974
11343 12265
11343 19841
11345 17098
11345 17264
11346 14984
11346 18793
11346 19941
11346 21514
11347 11559
11347 13645
11347 14646
11347 18303
11347 19155
11347 20236
11347 22343
11347 22390
11348 15257
11348 15876
11348 21906
11348 23434
11349 23966
11349 23968
11350 13076
11350 21903
11351 17005
11351 18247
11351 19447
11351 22755
11352 16223
11352 19506
11352 22676
11353 22281
11354 14750
11354 15335
11355 21339
11356 12483
11356 15097
11356 17113
11357 12747
11357 13647
11357 13968
11357 14891
11357 14939
11357 15887
11357 18286
11357 18375
11357 18979
11357 18998
11357 20606
11357 22060
11358 14298
11358 16346
11358 21120
11359 12211
11359 13496
11359 15255
11359 16808
11359 18973
11359 21257
11359 21660
11359 23164
11360 15344
11360 20742
11360 21618
11361 14841
11361 22058
11362 12475
11362 13101
11362 13586
11362 23640
11362 23709
11362 23907
11363 12192
11365 12463
11365 18598
11366 13050
11367 19050
11367 20952
11369 17226
11369 21044
11369 22024
11371 12279
11371 12470
11371 17763
11371 22511
11372 12320
11372 17071
11372 18298
11373 12148
11373 13819
11373 14262
11373 21342
11374 13221
11374 23405
11375 12008
11375 12153
11375 14811
11375 15562
11375 19422
11375 20841
11375 22622
11376 23369
11377 15256
11377 17240
11377 18243
11377 19478
11378 22080
11378 22770
11379 13789
11380 11437
11380 18354
11380 22752
11381 15604
11381 20896
11382 12032
11382 12199
11382 12877
11382 14082
11382 15639
11382 16007
11382 16752
11382 16928
11382 17377
11382 20353
11382 21959
11382 22312
11382 23218
11383 23780
11383 23878
11384 15018
11384 19935
11385 12830
11385 21499
11386 14808
11386 18054
11386 22044
11387 14559
11388 20392
11388 23857
11388 23954
11389 15021
11389 17037
11390 12924
11390 17048
11392 11922
11392 15191
11392 19095
11392 19523
11392 20588
11393 11588
11395 12029
11396 17909
11396 20247
11397 23753
11398 11918
11398 20998
11399 17978
11399 19828
11399 22780
11399 22962
11401 11402
11401 18224
11401 18225
11401 21115
11402 18224
11402 18225
11402 18226
11403 11986
11403 15734
11404 16851
11405 21671
11406 15032
11406 20165
11407 21381
11407 24076
11408 14213
11408 16152
11408 16153
11408 16204
11408 16205
11408 17444
11408 17446
11409 11719
11409 16140
11409 16152
11409 16153
11409 17444
11410 13032
11410 17611
11410 23827
11411 20882
11411 22993
11412 12999
11412 16316
11413 12531
11414 13143
11414 18098
11415 22611
11416 12537
11416 16390
11416 17422
11416 18416
11417 14582
11417 15271
11417 15968
11417 17224
11417 17721
11418 12675
11418 23882
11418 23937
11418 24080
11419 18070
11419 19503
11419 20701
11419 23089
11420 18289
11420 19382
11421 11422
11421 11770
11421 12544
11421 15960
11421 19054
11422 11770
11422 12163
11422 17873
11422 19054
11423 14336
11423 16647
11424 13291
11424 20101
11424 20717
11425 13573
11425 13739
11425 16254
11425 19763
11425 22956
11426 12097
11426 19258
11427 13778
11427 15713
11427 17656
11428 24421
11429 12552
11430 21614
11430 22445
11431 19985
11431 22843
11432 23839
11432 23989
11433 17243
11434 11980
11434 12665
11434 23920
11435 18363
11437 22752
11438 16527
11438 23115
11438 24411
11439 11565
11439 14100
11440 18372
11440 19869
11440 22428
11441 22829
11442 18700
11442 20514
11442 20889
11442 22554
11442 23693
11443 21777
11444 14666
11444 16250
11444 16918
11444 23128
11444 23251
11444 23719
11444 24467
11446 20931
11446 22498
11446 23706
11447 14556
11447 16138
11447 18860
11450 18168
11451 12787
11451 18384
11451 21462
11452 23938
11453 23075
11453 24478
11454 14500
11454 19220
11455 12851
11456 11966
11456 15120
11456 16595
11456 18970
11457 13250
11458 23618
11458 23811
11459 12578
11459 16368
11459 17366
11459 18586
11460 18286
11460 18998
11461 11968
11461 15064
11461 16589
11462 18843
11463 18926
11463 21609
11463 22196
11464 14933
11464 19988
11464 22913
11465 11877
11466 11877
11467 16673
11467 17347
11467 18814
11467 20383
11467 21306
11467 23098
11468 12746
11468 18088
11468 21854
11469 19406
11470 23776
11470 23792
11470 23992
11471 24321
11472 13080
11472 14992
11473 16469
11474 12316
11474 14887
11475 17047
11476 12819
11477 18445
11477 23854
11477 24345
11478 21102
11478 22138
11479 15303
11480 17305
11480 22856
11481 17182
11482 12323
11482 18183
11482 20397
11483 19298
11484 14823
11484 15626
11485 16996
11485 17236
11485 18048
11485 20301
11487 23116
11487 23870
11488 11798
11488 19430
11490 13830
11490 18766
11490 20223
11490 21002
11491 11492
11491 14325
11491 14326
11491 14327
11491 16668
11491 19730
11491 19861
11491 23377
11492 13682
11492 14323
11492 14966
11492 16668
11492 16839
11493 12848
11493 13320
11493 13905
11493 14949
11493 16083
11494 13932
11495 11496
11495 19608
11497 19151
11497 20341
11497 22246
11498 12637
11498 13559
11498 23810
11498 24331
11499 16778
11499 17879
11499 19895
11499 20759
11499 21876
11499 22446
11499 23764
11500 15540
11500 18664
11501 24012
11501 24225
11501 24312
11502 11503
11502 19262
11503 21533
11504 18584
11504 20715
11504 23245
11507 15278
11507 20856
11507 21667
11507 22875
11508 23323
11509 18578
11509 23884
11509 24412
11510 12749
11510 22396
11510 23869
11511 13275
11511 16019
11511 18778
11511 19993
11511 20122
11511 21645
11511 22720
11512 15068
11512 23189
11513 13002
11513 14371
11513 14569
11513 14933
11513 14944
11513 16151
11513 17367
11513 17666
11513 18102
11513 18453
11513 18870
11513 19605
11513 19611
11513 19906
11513 20563
11513 21098
11513 21323
11513 21790
11513 22040
11513 22449
11513 22913
11513 24165
11514 12450
11514 13695
11514 14835
11514 15074
11514 16409
11514 16960
11514 17392
11514 18448
11514 19068
11514 19894
11514 20224
11514 20327
11514 21402
11514 21590
11514 22149
11514 22940
11515 11517
11515 11519
11516 11517
11516 11518
11516 11519
11516 12647
11516 15086
11516 19812
11516 20602
11516 20763
11516 22431
11517 11519
11517 15285
11517 20763
11518 11519
11518 15086
11518 20763
11519 14211
11519 15086
11519 17400
11519 17827
11519 20763
11519 22431
11521 11628
11521 13723
11521 16754
11522 11706
11522 12834
11522 19665
11522 22305
11523 11935
11523 12519
11523 14603
11523 15676
11523 16932
11523 17911
11523 19128
11523 20503
11523 21512
11523 21669
11523 23592
11524 11525
11524 11526
11524 11527
11525 11526
11527 23332
11528 12858
11528 13458
11528 14471
11528 17245
11528 19248
11528 21769
11528 22573
11528 22815
11528 23310
11529 13910
11530 13623
11530 14584
11530 19879
11530 20545
11530 21847
11530 22998
11530 23295
11532 16628
11532 17000
11532 18902
11532 19330
11533 20870
11533 23638
11533 24164
11533 24247
11534 17386
11534 17447
11534 18632
11535 12239
11536 13870
11536 19923
11537 13408
11539 24131
11540 17541
11540 19772
11540 20578
11540 22398
11541 24479
11542 22536
11542 22878
11542 23897
11542 23913
11543 19227
11544 14352
11544 15408
11544 19987
11545 19711
11545 21220
11545 23482
11546 14510
11546 16321
11546 17401
11547 14933
11547 22913
11548 14643
11548 20095
11548 21315
11548 22151
11549 22945
11549 22962
11550 12245
11550 23732
11550 23885
11550 23921
11550 24197
11550 24204
11551 18752
11551 22519
11552 15981
11552 22240
11555 17502
11555 17605
11555 23207
11556 14987
11556 17440
11556 20826
11557 12891
11557 15151
11557 19318
11557 19918
11558 14619
11558 18116
11558 21954
11559 14544
11559 18303
11559 21871
11559 22343
11560 14422
11561 19649
11561 22788
11562 19737
11562 21702
11563 23752
11563 24123
11564 19028
11565 12687
11565 21117
11565 23970
11566 18781
11567 17167
11567 19308
11568 19997
11569 12906
11569 13858
11569 18644
11569 20621
11569 20660
11570 14565
11570 20738
11571 13111
11571 21614
11572 11574
11572 15025
11573 11574
11573 15025
11574 15025
11574 20118
11574 21103
11575 14027
11575 22508
11575 23961
11575 24376
11576 15930
11576 17747
11576 20831
11576 22887
11577 11838
11577 12828
11577 14951
11578 16683
11578 16684
11578 16695
11579 15802
11580 13161
11580 13823
11580 15264
11580 15670
11580 18831
11580 19636
11580 22625
11581 14444
11581 16689
11581 16690
11581 16694
11582 14442
11582 14444
11582 14445
11582 14449
11582 15888
11582 16686
11582 16689
11582 16690
11582 16691
11582 16693
11582 16694
11582 16695
11582 17330
11583 11707
11583 11760
11583 12473
11583 15533
11583 18651
11583 22696
11583 23296
11584 14267
11585 20275
11585 21235
11586 18954
11587 17227
11587 17612
11587 20081
11587 21616
11588 17908
11589 17765
11589 18846
11590 15625
11590 18148
11590 23461
11591 12238
11591 13721
11591 13799
11592 15167
11592 18285
11592 19921
11593 23896
11593 24379
11594 21029
11594 22365
11595 20999
11597 16584
11597 18061
11597 21234
11597 23138
11598 20771
11600 16248
11601 14496
11601 21614
11601 21635
11601 22315
11602 14988
11602 16280
11602 21293
11602 22316
11602 22317
11602 22512
11602 22524
11603 11922
11603 13794
11603 15191
11603 19095
11603 19523
11603 20388
11604 12569
11604 12872
11604 18704
11604 21021
11605 13268
11605 23329
11606 17987
11606 18676
11607 22688
11607 23752
11607 24123
11607 24180
11608 12389
11608 14147
11608 19325
11609 17628
11609 21167
11610 12847
11610 13228
11610 14052
11610 14411
11610 14812
11610 14923
11610 15840
11610 16267
11610 19547
11610 19882
11610 19939
11610 20655
11610 21614
11611 17415
11611 22941
11612 23899
11612 24067
11613 16876
11613 19978
11614 17866
11614 19932
11614 21410
11614 22692
11615 13980
11615 15577
11615 22110
11617 20724
11618 13055
11618 14107
11618 17719
11618 20169
11618 21349
11619 11930
11619 12120
11619 13210
11619 15126
11619 16212
11619 18145
11619 18680
11619 18936
11619 20291
11619 21189
11620 14561
11620 15350
11620 18962
11621 13368
11621 13933
11621 18631
11621 23344
11622 13208
11622 15755
11623 14555
11624 11688
11624 11867
11624 17051
11624 20812
11624 21026
11624 21067
11624 22171
11625 12015
11625 13343
11626 15278
11626 20856
11626 21667
11627 15540
11627 21963
11629 19885
11629 20614
11630 12560
11630 15320
11630 15788
11631 16809
11631 17020
11631 19196
11633 22386
11634 23242
11634 23387
11636 15784
11636 16637
11636 16757
11636 19464
11637 13392
11637 17753
11638 12214
11638 21467
11639 13412
11639 16402
11640 14668
11640 22644
11640 22653
11641 24009
11641 24158
11642 14130
11642 22244
11643 12252
11643 23750
11645 14450
11645 15400
11645 16243
11645 19318
11647 24067
11647 24129
11647 24458
11648 12775
11648 14209
11648 15527
11648 16261
11648 18260
11648 18584
11648 19294
11648 20940
11648 21522
11648 21836
11648 22674
11648 23137
11649 14851
11649 15664
11649 19427
11650 16076
11651 20435
11651 23929
11651 24190
11652 13904
11652 17553
11652 18631
11652 21803
11655 12512
11655 22543
11656 16422
11656 19862
11656 20689
11658 23306
11659 16831
11660 13199
11660 23186
11662 18388
11662 19252
11662 19372
11663 23155
11664 11980
11664 23203
11664 24154
11667 24284
11668 13210
11668 15126
11669 20558
11670 12503
11670 16705
11670 17333
11670 18555
11670 21628
11670 23826
11671 21518
11672 14702
11673 12551
11673 24278
11674 13484
11675 13604
11675 14301
11675 19855
11676 15796
11676 18835
11677 21886
11679 24429
11680 14295
11681 21193
11682 18467
11682 21326
11683 19051
11684 11812
11684 17749
11684 18698
11684 19206
11684 19892
11685 12222
11685 15615
11685 16974
11685 17013
11686 13130
11686 17793
11687 15151
11688 11867
11688 20812
11688 21067
11689 20073
11689 24414
11690 11876
11690 12513
11690 14343
11690 16548
11690 16550
11690 18463
11690 22670
11691 17225
11691 19506
11692 19844
11693 13683
11693 16539
11694 15820
11695 15351
11696 12822
11696 22433
11696 23589
11697 12863
11697 13699
11697 14191
11697 16638
11697 22627
11697 23397
11698 13736
11698 14748
11698 22581
11698 23709
11699 12742
11699 14663
11699 16328
11699 16394
11699 17616
11699 21966
11700 23894
11701 13212
11701 13954
11701 14956
11702 22776
11702 23211
11703 12935
11703 19241
11704 13160
11704 14253
11704 14459
11704 15746
11704 16870
11704 17017
11704 21260
11705 14336
11706 12834
11706 22305
11707 12473
11709 15470
11709 19674
11710 19423
11711 12716
11711 15224
11711 17215
11711 21027
11712 20043
11712 20179
11713 13609
11713 15596
11713 16621
11714 14514
11714 14934
11714 15743
11714 22021
11715 14908
11716 13509
11716 14318
11717 14265
11718 16990
11718 22626
11719 16153
11719 17445
11720 12838
11721 21903
11722 20747
11723 12831
11723 22996
11724 17167
11725 13715
11725 21556
11726 13870
11726 18166
11726 19923
11727 19318
11727 20107
11729 13813
11729 14943
11729 15723
11729 16359
11730 15812
11730 21029
11731 15977
11731 22519
11733 14969
11733 21441
11734 17877
11734 18364
11734 18909
11735 14417
11735 17682
11735 18450
11735 22514
11735 22574
11735 23481
11736 11852
11736 17881
11736 20646
11736 21214
11737 21556
11738 12014
11738 16144
11738 16408
11738 20691
11738 23311
11738 23709
11738 23907
11738 24349
11740 12889
11743 12657
11743 14071
11743 17024
11744 13944
11745 13759
11745 14710
11745 14712
11745 23291
11745 23684
11746 12557
11747 14132
11747 19995
11748 23962
11748 24366
11749 16196
11749 21551
11750 16786
11750 16787
11750 18333
11750 18497
11750 19490
11750 20702
11750 23227
11751 21518
11752 21111
11753 11754
11753 11756
11754 12092
11754 14985
11754 20501
11754 23742
11754 23794
11756 14542
11756 23742
11756 23794
11756 24342
11756 24440
11759 11853
11759 16834
11759 17379
11761 12188
11761 19077
11761 20721
11761 21430
11761 21509
11761 21776
11762 15287
11762 20371
11762 21820
11763 19497
11763 23541
11764 12474
11764 12894
11764 15498
11764 15819
11764 18207
11764 18275
11764 19278
11765 20746
11766 14404
11766 15296
11766 19916
11766 23944
11767 15351
11768 11961
11768 23035
11768 23098
11769 16447
11769 21722
11770 12544
11771 23503
11771 23881
11772 17467
11773 16852
11773 17384
11773 18359
11774 15103
11774 15625
11774 17576
11774 17621
11774 19620
11774 21110
11775 12872
11775 13554
11775 15708
11775 20483
11776 14721
11776 19037
11777 18727
11777 19775
11777 19972
11777 20732
11777 22391
11778 12708
11778 15615
11778 21601
11778 23440
11779 22287
11780 11890
11780 14986
11780 20231
11780 20955
11781 22706
11782 18304
11782 19946
11782 22048
11783 11786
11783 15246
11783 18764
11783 20764
11785 14537
11785 21284
11785 22842
11786 22007
11787 14865
11787 15203
11787 17102
11788 22590
11789 13066
11789 22697
11790 13315
11790 17549
11790 18688
11790 21944
11790 21965
11791 23675
11791 23718
11791 24092
11792 13299
11792 22738
11793 15849
11793 18827
11793 19807
11794 15396
11794 18084
11794 22823
11795 16672
11795 23243
11796 11797
11797 20218
11797 20708
11798 13624
11798 14310
11798 24090
11799 14173
11799 16506
11799 22597
11800 19642
11800 22488
11800 22970
11802 14894
11802 21592
11802 23520
11803 14765
11803 20207
11804 13352
11804 15365
11804 17786
11805 22777
11805 23686
11806 21410
11806 22692
11808 14580
11808 16211
11808 16639
11809 12901
11809 12902
11809 12905
11809 15026
11809 17516
11809 17518
11809 18536
11811 13221
11811 13529
11812 19206
11813 12901
11813 12903
11813 18536
11814 12901
11814 12902
11814 12903
11814 15026
11814 17516
11815 12579
11815 14630
11815 20778
11816 17380
11817 17025
11818 18283
11818 18299
11819 12914
11819 18961
11820 19284
11820 21330
11821 15446
11821 17436
11821 20922
11822 22322
11823 13511
11823 14103
11823 14790
11823 15984
11823 17134
11823 18437
11823 22925
11824 15610
11824 20653
11825 19323
11826 20321
11826 22182
11827 14484
11827 21445
11827 23046
11828 13913
11828 17439
11828 21817
11830 11939
11830 16563
11832 14485
11832 14777
11833 21556
11834 13884
11835 18998
11835 22116
11836 12392
11837 16624
11837 16768
11838 21519
11839 16367
11839 22476
11839 23983
11839 24105
11839 24170
11839 24225
11839 24246
11839 24441
11840 12985
11840 13178
11840 15406
11840 15905
11840 19560
11841 20498
11842 18122
11842 24015
11842 24425
11843 11844
11844 13386
11844 19070
11844 20523
11844 23716
11844 24329
11845 16547
11845 16937
11845 18946
11846 12401
11846 13421
11846 19360
11846 20874
11847 12897
11848 12985
11848 13178
11848 13349
11848 17934
11848 19560
11849 13054
11850 19991
11852 20646
11852 20843
11853 12045
11853 21787
11853 22759
11854 12251
11854 23305
11854 24408
11855 23222
11857 13870
11857 16535
11857 20107
11858 16940
11858 19234
11859 23312
11859 24246
11859 24256
11860 21566
11860 22613
11861 11905
11861 12620
11861 12633
11861 12781
11861 13530
11861 14308
11861 15933
11861 18507
11861 18560
11861 19802
11861 20487
11861 20567
11861 21004
11861 21593
11861 22129
11861 22156
11861 22280
11861 22370
11861 23322
11861 24455
11863 19382
11863 23401
11864 17041
11865 13655
11865 19683
11865 20391
11866 11921
11866 21760
11867 20812
11868 13122
11868 15421
11868 16721
11868 22138
11869 23877
11870 12318
11870 12766
11870 12879
11870 13732
11870 13870
11870 14703
11870 15277
11870 15400
11870 17203
11870 18566
11871 13156
11873 13989
11873 17077
11873 18164
11874 18062
11875 13911
11875 22933
11876 22670
11876 23228
11878 13423
11878 14818
11878 15169
11878 15906
11878 16582
11878 22762
11879 19886
11879 20717
11880 18722
11881 22988
11882 12817
11882 13676
11882 14225
11882 15106
11882 20049
11883 18281
11884 13260
11884 20866
11886 19937
11886 20959
11886 21997
11887 11888
11887 11889
11887 15970
11887 19863
11888 11889
11888 16217
11889 16217
11889 19863
11890 15660
11890 20231
11891 13951
11891 14000
11892 23195
11892 23695
11892 24438
11893 15718
11893 19109
11894 22918
11895 17816
11895 20855
11896 13055
11896 21441
11897 13296
11897 14141
11897 20503
11898 13022
11898 16352
11898 18002
11898 20128
11898 23372
11899 13021
11900 12617
11900 17804
11901 18202
11901 20634
11902 15183
11902 15938
11902 18202
11902 22379
11903 20146
11903 21048
11903 21133
11904 21589
11904 23094
11904 23697
11906 20002
11907 23871
11907 23977
11907 24398
11908 14942
11908 23978
11908 24238
11909 13842
11910 12548
11910 13654
11911 12891
11911 13583
11911 14056
11911 14627
11911 14673
11911 14757
11911 15151
11911 15211
11911 16552
11911 18673
11911 19318
11911 19682
11911 20387
11911 21185
11911 21746
11911 21840
11911 22025
11911 22064
11911 22507
11911 22651
11911 23438
11912 19552
11912 21289
11913 12423
11913 13662
11914 12444
11914 18785
11914 21595
11915 17305
11915 18782
11915 19923
11916 12495
11916 18589
11917 14102
11917 14524
11917 15292
11917 22186
11920 22701
11920 22757
11921 13166
11921 16848
11921 17026
11921 21760
11922 15191
11922 19523
11922 20588
11923 15931
11923 21258
11924 18898
11925 16698
11926 23734
11926 24067
11926 24458
11927 20568
11927 22053
11928 18481
11928 20493
11928 20616
11928 20663
11928 21001
11929 21740
11930 14623
11930 15268
11930 15648
11930 16068
11930 18316
11930 19280
11930 19456
11930 23213
11931 23956
11931 24065
11931 24273
11932 17749
11933 11989
11934 22904
11935 13282
11935 14307
11935 15611
11935 20503
11935 23485
11936 14797
11936 18078
11937 14189
11937 22389
11938 17671
11938 17672
11938 23649
11939 16563
11939 23054
11940 23854
11940 23856
11941 12135
11942 19793
11942 20727
11942 20951
11943 13267
11945 23326
11946 13242
11946 16571
11947 15681
11947 17910
11948 17646
11949 12561
11949 12632
11949 22894
11950 13383
11950 17716
11950 19124
11950 23464
11952 15639
11952 17761
11953 18615
11953 21213
11953 24354
11953 24422
11954 13453
11954 18631
11954 20304
11954 22365
11955 15238
11955 22555
11956 22844
11957 14808
11957 15561
11957 16600
11957 18054
11957 22044
11957 22577
11957 23497
11958 13390
11958 15063
11958 19394
11959 13362
11959 14967
11959 15216
11959 18933
11959 19526
11959 19800
11959 20525
11959 21693
11959 22045
11959 22612
11960 12029
11960 12348
11961 13970
11961 23098
11962 13078
11962 19293
11963 17428
11963 19171
11963 19173
11964 20004
11965 17662
11965 21498
11966 16568
11966 16674
11966 17381
11966 18018
11966 18635
11966 20883
11966 21247
11966 22211
11967 14234
11968 15522
11968 16589
11968 17334
11968 19867
11968 20001
11969 12115
11970 12674
11970 23213
11971 12489
11971 16627
11973 13088
11973 15070
11974 11975
11974 12265
11974 12598
11974 15638
11974 17929
11974 19841
11974 20312
11974 22377
11975 15235
11975 15237
11975 16169
11975 23018
11976 15305
11976 20783
11976 23055
11976 23415
11977 21220
11978 22753
11979 16679
11979 19107
11979 22331
11979 23823
11979 24303
11979 24484
11980 12665
11980 13239
11980 15006
11980 16378
11980 21532
11980 22238
11980 23203
11980 23406
11980 23421
11980 23809
11980 24154
11980 24481
11981 13314
11981 16960
11981 17821
11981 19045
11983 18551
11985 17783
11985 18987
11985 24441
11986 12039
11986 12350
11986 12504
11986 13255
11986 13475
11986 14736
11986 15734
11986 15749
11986 16421
11986 18253
11986 20080
11986 21041
11986 21092
11986 22286
11987 12668
11987 13178
11987 16800
11987 20734
11987 21517
11987 23398
11988 12121
11988 14220
11988 14715
11988 21077
11989 15303
11990 14004
11990 15057
11990 16910
11990 17012
11990 21122
11990 21772
11990 22457
11991 16077
11991 21252
11992 13108
11992 14651
11993 18443
11993 22138
11993 22434
11994 17386
11994 17447
11994 20125
11995 23786
11995 24346
11996 14282
11996 18739
11996 19574
11997 20716
11999 13981
11999 21955
12000 12898
12000 17274
12000 17861
12000 19310
12000 21350
12000 22218
12000 23215
12001 14192
12002 13961
12003 13520
12005 18800
12006 22209
12006 22645
12006 23511
12007 14382
12007 23778
12009 23727
12010 17907
12010 24202
12010 24340
12010 24341
12010 24464
12011 13521
12011 24201
12011 24202
12012 15604
12012 18282
12013 17650
12013 19367
12014 23188
12016 12017
12016 12018
12016 22794
12016 23904
12017 12018
12017 23936
12017 24118
12017 24185
12017 24193
12017 24194
12018 22794
12018 24118
12018 24191
12018 24193
12018 24327
12019 13213
12019 17420
12019 17598
12019 18717
12020 13520
12021 13050
12021 14429
12021 16450
12021 20078
12021 20577
12021 20818
12021 21409
12023 16086
12023 18242
12023 19073
12024 12833
12024 18367
12025 20747
12025 21949
12027 12152
12027 14058
12027 14611
12027 15385
12027 17519
12027 18916
12027 19082
12027 19781
12027 19931
12027 20292
12027 21291
12027 22252
12028 16364
12028 18910
12029 13834
12029 14592
12029 14595
12029 14608
12029 16564
12029 18715
12029 19702
12029 21884
12029 21973
12029 23595
12030 14003
12031 12132
12031 13126
12031 14693
12031 17720
12031 20155
12032 12199
12032 13434
12032 19348
12033 16531
12036 22716
12037 12429
12037 13058
12037 15058
12037 16978
12037 21435
12038 15157
12038 15297
12038 19227
12038 19845
12038 20790
12038 22513
12039 15734
12039 22286
12040 15991
12041 14204
12041 15558
12041 17743
12041 22144
12042 22443
12042 24122
12042 24213
12042 24225
12043 19135
12043 20109
12043 23928
12043 24001
12043 24022
12043 24350
12045 22759
12047 12393
12047 15118
12047 15602
12047 16913
12047 21192
12047 21599
12048 13278
12048 16557
12048 18824
12049 12354
12049 12414
12049 13070
12049 16142
12049 19577
12049 19627
12050 15615
12051 16720
12053 12242
12053 20853
12054 12858
12054 19248
12055 12161
12055 21295
12056 12731
12056 19575
12056 20710
12057 17433
12058 12595
12058 24476
12059 15240
12060 24079
12061 15620
12061 16002
12061 19161
12061 19851
12061 19976
12061 23259
12062 18728
12062 20361
12063 19115
12063 19502
12064 13010
12064 18430
12064 19554
12064 20104
12065 13054
12066 15281
12066 17288
12068 12071
12068 17289
12068 23159
12069 12071
12069 15283
12069 17288
12070 18420
12070 18568
12070 19410
12071 13769
12071 15281
12071 15283
12071 17288
12071 19871
12072 12073
12072 15528
12072 18572
12072 23546
12074 13451
12074 13962
12075 14726
12075 19180
12076 23873
12077 12724
12077 16839
12077 18155
12077 21302
12078 12724
12078 12725
12078 16839
12078 16841
12079 12297
12079 13348
12079 13419
12079 13978
12079 14366
12079 14972
12079 15355
12079 16349
12079 16797
12079 19745
12079 19750
12079 19938
12079 20063
12079 20187
12079 22290
12079 22550
12079 22932
12079 23239
12079 23586
12080 13708
12080 18142
12080 18665
12081 12773
12082 18185
12082 23896
12082 24148
12083 23896
12083 24028
12084 12261
12084 16518
12084 22497
12085 12086
12085 12986
12085 17759
12085 18133
12085 20089
12086 12986
12086 17538
12086 21370
12087 19382
12088 16341
12088 16733
12088 21385
12089 18848
12090 12303
12090 12735
12090 18188
12091 15252
12091 15577
12091 22110
12093 15988
12093 18379
12093 19367
12095 19973
12096 14587
12096 19658
12096 19901
12097 19258
12097 22206
12098 13041
12098 17692
12099 15494
12099 18659
12099 19432
12099 20346
12099 23194
12100 23060
12101 12870
12101 12931
12101 13494
12101 15758
12101 16028
12101 16816
12101 18223
12101 20111
12102 12620
12102 17096
12102 18127
12102 18631
12102 19081
12102 22656
12103 18338
12103 19520
12103 21620
12104 18732
12105 13326
12105 21138
12106 14914
12107 19733
12109 15275
12109 19654
12111 14585
12111 21614
12112 16965
12112 18818
12112 20149
12112 20961
12112 22400
12114 12260
12114 14830
12116 23188
12116 24349
12117 15637
12117 19850
12117 21909
12118 18032
12119 20165
12119 22559
12120 13636
12120 14623
12120 15268
12120 15436
12120 16068
12120 17642
12120 19280
12120 20797
12121 14065
12121 14220
12121 15049
12121 15738
12121 17219
12121 21077
12122 12124
12122 12125
12122 22250
12122 22871
12123 22249
12123 22250
12124 22249
12124 22250
12125 22249
12125 22250
12126 19797
12126 21004
12127 17052
12127 18858
12128 15485
12128 17208
12128 19166
12129 14016
12129 15023
12129 16716
12129 18229
12129 19919
12129 20150
12129 21068
12129 21571
12130 12540
12130 17261
12131 12959
12131 21331
12132 14693
12132 15325
12132 20155
12132 22314
12132 22518
12132 22560
12133 18821
12133 19811
12134 21505
12137 18632
12137 20973
12138 16020
12138 20777
12138 22341
12138 23181
12139 17248
12139 19821
12139 20269
12140 13696
12140 16760
12140 20921
12141 17887
12142 19196
12142 20517
12143 15351
12144 12595
12144 24220
12144 24488
12145 13701
12145 18413
12146 14213
12146 15806
12146 16204
12146 16205
12146 16206
12146 18557
12146 20024
12147 19997
12148 21987
12149 17935
12149 21853
12150 17009
12151 12355
12151 21665
12152 17519
12154 15734
12154 18253
12155 16520
12155 16614
12155 18442
12155 22844
12156 22904
12157 13227
12157 19997
12157 21199
12160 13692
12160 17704
12160 18574
12161 14192
12162 21818
12162 23875
12162 23914
12164 13658
12164 18850
12164 22181
12164 22915
12166 19503
12167 12169
12167 12170
12167 12171
12167 14843
12167 14862
12167 23985
12168 12173
12169 12171
12169 12173
12169 14843
12170 12171
12170 12173
12170 14843
12170 23985
12171 12173
12172 17611
12172 23515
12172 23851
12173 14843
12173 23985
12173 24428
12175 23721
12175 24083
12176 23972
12177 17218
12177 20524
12177 22517
12177 23770
12177 23803
12177 24273
12178 18900
12178 22053
12180 12361
12180 13964
12180 21586
12181 18827
12181 22823
12182 12219
12182 15093
12182 22018
12183 21556
12184 12816
12184 16358
12184 22097
12184 22914
12185 12729
12185 12882
12185 13890
12185 15182
12185 20035
12185 22135
12185 22732
12187 13957
12188 12604
12188 22882
12189 21644
12191 14451
12191 14774
12191 17545
12191 18874
12191 19610
12192 16124
12192 17123
12193 15201
12193 20728
12194 15963
12194 16873
12194 18844
12194 20329
12195 19703
12195 22164
12196 20294
12197 12667
12197 18669
12198 21025
12198 22193
12198 23098
12199 13094
12199 19773
12200 22407
12201 12389
12201 14879
12201 18129
12202 22215
12202 23970
12203 13447
12203 16645
12203 17106
12203 18109
12203 20654
12203 22793
12204 12812
12204 15112
12204 17607
12204 18929
12204 22131
12204 22257
12205 12639
12205 20034
12206 13076
12206 21903
12207 22852
12208 15635
12208 18666
12209 12354
12209 19577
12210 16076
12210 16300
12211 12620
12211 18973
12211 23164
12211 23490
12212 14534
12212 17278
12212 20473
12213 14778
12213 15141
12213 19181
12214 13182
12214 13490
12214 15241
12214 19416
12214 19771
12214 19987
12214 21467
12214 21845
12214 22168
12215 22011
12216 14783
12217 14137
12217 17179
12217 17947
12217 18755
12217 21078
12217 22618
12218 12594
12218 13300
12218 15039
12218 16054
12219 18304
12219 19946
12220 15663
12220 16746
12221 20554
12221 21558
12222 21256
12223 12410
12223 12487
12223 13518
12223 16402
12223 17087
12223 17221
12223 24491
12224 14805
12224 15562
12224 22613
12224 22622
12225 14101
12225 14875
12225 15098
12225 20615
12225 21644
12226 17207
12227 14810
12228 16921
12229 13071
12229 14302
12229 19226
12229 21788
12230 13267
12230 22963
12231 18722
12232 13115
12232 16314
12232 18722
12232 19085
12232 19285
12233 14464
12233 17117
12233 19741
12234 21614
12235 16429
12235 21824
12236 13299
12236 13894
12236 18481
12236 20493
12236 21059
12236 22738
12237 12848
12237 15166
12237 15414
12237 16460
12237 17426
12237 21042
12239 13403
12239 24199
12240 15234
12240 15773
12241 23792
12241 24397
12243 23556
12244 16351
12244 18191
12246 14498
12247 13020
12247 14666
12247 14674
12247 16096
12247 18408
12247 19754
12247 20898
12247 23618
12247 23719
12247 23822
12247 23859
12247 24249
12247 24344
12247 24402
12247 24434
12248 13026
12248 13027
12249 21132
12250 14185
12250 20386
12251 23209
12251 24408
12252 23750
12253 12740
12253 17248
12254 18818
12254 22400
12255 13403
12255 23995
12256 12387
12256 13918
12257 15151
12257 19318
12258 23877
12258 23911
12259 12397
12259 12398
12259 12757
12259 18355
12259 18356
12259 18358
12259 19038
12259 20355
12259 20554
12259 22075
12259 23498
12260 14830
12260 16602
12260 18798
12262 13162
12262 14355
12262 15481
12262 18843
12263 19997
12264 16810
12264 20969
12265 15235
12265 15237
12265 20312
12265 23018
12266 21132
12267 15223
12267 18994
12267 20124
12268 17003
12268 19604
12268 23982
12269 12512
12269 15654
12269 22587
12270 13559
12270 15848
12270 15989
12270 18799
12270 23872
12270 23970
12270 24053
12271 23661
12271 23816
12272 14361
12272 15014
12272 17047
12272 17157
12272 22548
12272 22971
12272 23428
12273 17281
12273 18791
12274 20477
12275 17937
12275 22597
12276 18718
12276 21874
12278 15091
12278 16549
12278 23342
12278 23705
12279 15066
12279 17402
12279 17763
12280 13060
12280 21681
12281 19787
12281 24414
12282 19063
12283 18593
12283 19553
12284 12451
12284 22870
12284 23150
12285 17397
12285 21216
12286 12897
12286 21240
12287 21862
12287 23774
12287 24227
12288 18062
12289 12290
12289 23420
12289 23660
12289 23781
12289 24084
12289 24196
12290 12291
12290 14700
12290 23660
12290 23708
12290 24176
12290 24196
12290 24225
12291 14700
12291 23708
12291 24176
12291 24225
12292 17431
12292 24225
12293 17305
12294 15459
12294 17591
12294 21437
12294 22537
12295 20995
12295 22831
12296 18639
12296 23952
12297 15145
12297 17322
12298 20205
12299 13581
12299 21112
12300 15298
12300 18040
12300 20486
12301 13001
12302 14142
12302 15001
12302 21290
12303 12808
12303 12897
12303 13113
12303 13223
12303 13290
12303 13402
12303 13548
12303 13618
12303 13712
12303 13720
12303 14215
12303 14573
12303 14638
12303 14669
12303 15229
12303 15290
12303 16362
12303 17143
12303 17537
12303 17658
12303 17745
12303 18734
12303 19550
12303 20700
12303 21065
12303 22053
12303 22615
12303 23028
12303 23692
12303 23831
12304 20989
12305 21673
12305 22381
12306 15734
12306 18253
12307 17332
12307 20154
12307 20758
12307 21170
12308 17970
12309 13387
12309 20642
12309 20950
12310 15452
12310 17737
12311 14038
12313 14976
12313 15959
12313 19006
12313 20333
12313 21035
12314 15311
12315 24037
12316 14887
12317 24392
12318 14333
12318 15400
12318 20785
12319 14836
12319 20096
12319 23539
12320 18298
12320 18854
12321 12793
12321 14767
12321 20051
12323 18183
12323 22503
12324 12365
12324 20258
12324 20593
12324 22336
12325 13412
12325 14526
12326 14330
12326 17180
12326 22863
12326 22997
12327 18745
12327 21402
12328 16994
12328 22799
12329 24009
12329 24030
12329 24158
12330 22036
12331 13585
12331 13792
12332 15540
12333 14185
12333 19601
12334 14228
12334 14846
12334 15197
12334 20520
12335 14190
12335 16114
12335 20172
12336 16628
12336 17000
12337 18461
12337 20898
12337 23472
12338 23932
12338 24216
12339 18006
12340 20333
12341 23816
12342 15752
12342 20617
12343 14015
12343 15878
12343 18386
12343 19774
12343 20117
12344 18800
12344 21953
12345 15178
12345 23874
12345 24071
12346 13870
12346 14482
12346 19986
12347 13513
12347 14979
12348 12984
12348 14529
12348 14794
12348 18715
12348 20667
12348 21884
12348 21973
12348 23269
12348 23469
12349 12567
12349 24019
12349 24081
12350 20503
12351 20823
12352 18843
12353 15420
12354 12414
12354 13070
12354 19577
12354 19627
12354 20332
12356 12747
12356 13647
12356 13968
12356 14739
12356 14939
12356 15887
12356 18286
12356 18375
12356 18998
12356 20606
12356 22177
12356 22423
12356 23100
12357 18901
12357 20016
12358 12360
12359 13786
12359 19929
12359 20908
12359 22321
12359 22541
12361 13495
12361 22440
12362 12978
12362 12980
12362 13120
12363 12978
12363 12980
12363 14681
12364 14855
12366 21572
12366 23142
12366 23536
12367 18900
12368 13788
12369 12914
12369 13382
12369 15598
12369 17762
12370 23568
12371 12639
12371 14945
12371 22704
12372 21476
12374 13532
12374 15754
12375 21257
12375 21660
12376 15771
12377 15313
12377 21921
12378 14477
12378 17483
12378 17525
12379 12759
12379 18136
12379 19809
12381 19562
12382 21808
12382 23784
12382 24135
12384 15045
12384 16331
12385 23323
12385 24168
12386 12457
12386 14422
12387 13918
12388 13144
12388 23723
12388 23789
12389 17928
12389 19325
12389 23175
12391 13433
12391 14456
12391 14874
12391 18291
12391 18398
12391 18418
12391 18781
12391 18861
12391 22012
12391 22818
12392 21351
12393 12976
12393 15201
12395 14243
12395 21535
12396 14380
12396 23041
12397 18357
12397 20355
12397 20554
12398 15326
12398 18355
12398 18357
12398 21502
12399 17626
12399 19772
12400 18851
12400 21103
12402 23217
12402 24141
12402 24407
12403 12543
12403 21605
12403 21707
12404 17202
12404 17491
12404 18124
12405 13993
12405 14036
12406 12994
12406 22344
12407 13889
12407 18228
12408 15417
12409 15933
12409 22769
12409 23322
12411 18012
12411 22568
12412 23009
12413 21911
12415 18698
12417 14324
12417 15392
12418 24357
12418 24373
12419 16280
12420 12765
12420 16350
12421 12707
12421 16653
12422 18286
12422 18998
12423 17354
12424 15724
12424 15739
12424 22879
12425 24085
12425 24226
12426 22106
12426 23911
12426 23965
12427 24085
12427 24226
12429 12753
12429 14744
12429 15058
12429 16574
12429 17865
12429 18176
12429 21018
12430 16108
12431 20144
12434 19878
12436 13809
12436 22760
12436 22763
12436 22765
12437 12439
12437 18341
12437 22880
12438 14138
12438 21729
12438 21730
12439 15377
12439 18341
12439 18343
12439 21125
12439 21729
12439 22760
12440 17387
12440 17740
12440 21785
12440 21890
12441 13439
12441 23757
12442 13388
12442 22679
12442 23828
12443 18782
12444 14356
12444 14574
12444 17004
12444 23040
12445 17992
12445 19318
12446 19245
12446 24260
12447 21704
12448 13412
12449 18058
12449 19973
12449 20566
12451 23150
12452 15129
12452 19189
12452 23298
12454 13369
12454 13538
12454 14993
12454 15124
12454 15896
12454 18758
12454 19548
12454 21743
12454 22094
12455 13310
12455 13581
12455 17320
12455 18072
12455 21112
12456 22985
12456 23361
12457 17260
12458 20445
12459 21030
12460 17903
12460 18352
12460 18708
12461 19709
12461 22757
12462 17527
12462 17580
12462 18616
12462 18955
12462 20259
12463 17752
12464 17752
12465 22775
12466 16466
12466 23784
12466 24135
12466 24285
12467 24188
12468 15576
12469 23534
12470 13429
12470 14741
12470 17763
12470 17796
12470 17918
12471 15877
12471 20144
12472 15002
12472 17046
12474 15498
12474 18207
12474 18526
12474 19278
12474 21320
12474 23661
12475 23709
12476 13103
12476 17235
12476 18017
12476 18780
12476 22701
12476 23345
12477 20721
12477 21430
12477 21509
12478 13911
12479 12916
12479 16762
12480 14222
12481 12916
12481 14222
12482 15650
12482 16586
12483 15097
12484 18369
12484 19455
12485 21339
12486 18388
12486 19252
12486 19372
12488 14592
12488 16334
12488 16465
12488 17677
12488 18942
12488 19218
12488 19236
12488 21043
12489 14676
12491 20771
12492 17369
12492 19323
12492 23460
12493 13097
12493 14698
12493 23380
12494 14513
12495 12671
12496 14740
12496 16177
12497 14273
12497 22141
12498 18543
12498 22193
12499 20108
12501 13107
12501 18933
12501 19526
12502 13302
12502 18415
12502 20539
12503 17333
12503 18852
12503 21484
12505 16288
12505 16648
12505 18812
12505 21054
12507 23129
12508 14833
12509 13900
12509 17119
12511 16097
12511 20134
12512 13670
12512 13732
12512 13793
12512 14553
12512 14703
12512 15654
12512 21056
12513 14343
12513 16550
12514 13958
12514 19223
12515 20392
12516 13496
12516 13782
12516 14670
12516 15399
12516 16198
12516 17500
12516 18258
12516 18512
12516 19338
12516 21660
12517 17908
12517 22155
12518 13035
12518 14143
12518 15016
12519 14141
12519 14307
12519 14603
12519 17664
12519 17911
12519 18392
12519 20503
12519 21512
12520 18116
12522 14984
12522 19452
12523 18886
12524 13991
12524 14996
12525 15153
12525 16215
12525 16498
12525 23679
12525 23725
12525 24258
12526 20237
12527 14834
12527 19853
12528 18333
12528 24087
12529 14877
12529 23369
12530 16573
12530 18320
12530 22501
12531 19199
12531 20566
12532 17416
12532 20349
12533 16076
12533 19624
12533 20285
12535 12536
12535 12539
12535 20903
12535 21951
12535 21952
12535 22700
12536 21951
12536 21952
12537 17422
12538 13314
12538 13695
12538 14431
12538 16513
12538 16960
12538 17821
12539 21951
12540 13803
12540 16854
12540 17261
12540 19406
12540 19999
12541 16714
12541 19965
12541 21453
12541 22486
12542 12958
12542 20133
12542 20713
12542 23021
12543 21605
12544 17873
12545 17972
12545 18828
12546 15172
12546 16173
12546 16453
12546 17153
12546 17209
12546 19749
12548 17305
12549 14755
12549 15671
12549 17338
12549 19970
12549 20045
12549 20216
12549 21281
12549 22782
12550 13697
12550 15152
12550 15784
12550 16757
12550 18399
12550 18494
12551 14007
12551 23348
12551 24278
12551 24413
12553 12892
12554 13071
12554 14302
12554 18441
12554 20058
12554 21788
12555 18061
12556 21609
12556 22196
12557 17691
12557 22476
12557 23124
12557 23627
12557 23983
12557 24390
12558 13412
12559 14479
12559 15802
12559 20151
12560 15677
12560 20178
12561 17900
12561 18864
12562 15347
12562 18014
12562 22984
12563 22841
12564 16159
12564 23402
12565 15818
12565 17174
12565 20559
12566 24040
12567 24086
12567 24105
12567 24299
12567 24411
12568 17248
12568 20110
12568 21889
12568 23457
12570 15874
12570 16234
12570 16738
12570 17683
12570 21367
12571 14091
12571 15814
12571 16132
12571 16865
12571 17612
12571 17994
12571 18856
12571 21569
12571 21915
12571 23191
12571 23602
12572 13870
12572 20107
12572 23200
12575 18036
12576 14272
12576 14351
12576 17556
12577 13680
12577 15246
12578 20363
12579 15588
12579 16481
12579 16646
12579 16661
12579 17871
12579 17878
12579 18306
12579 19347
12579 20416
12579 21485
12580 14373
12580 19842
12582 19043
12583 15282
12583 19809
12584 19227
12585 15207
12585 18967
12585 19286
12585 22539
12586 20039
12587 17819
12589 18954
12590 23912
12590 24078
12591 16465
12591 17489
12591 18942
12591 20105
12591 22904
12592 14016
12593 13608
12593 15067
12594 16054
12594 18147
12595 19059
12595 21759
12597 20545
12598 13853
12598 15638
12598 16682
12599 14695
12599 14929
12599 15912
12599 16202
12599 20085
12599 21196
12599 22169
12599 22923
12599 23287
12599 23414
12600 14599
12601 17201
12602 18286
12602 22116
12603 14178
12603 15754
12604 14990
12604 19077
12604 19417
12604 22206
12604 22882
12605 13296
12606 17935
12606 21853
12607 17129
12607 17139
12607 18294
12608 18232
12608 21426
12609 12988
12610 12611
12610 17129
12610 17139
12610 18295
12610 18296
12610 20821
12611 17129
12611 20821
12613 20994
12613 23802
12614 24124
12615 12649
12615 22201
12615 24345
12616 18310
12616 18594
12616 21137
12616 22935
12617 17804
12617 20526
12618 24421
12619 20107
12620 12774
12620 13367
12620 13530
12620 14543
12620 14665
12620 15293
12620 16078
12620 16080
12620 17173
12620 17986
12620 18507
12620 20487
12620 20567
12620 21418
12620 22656
12620 23011
12620 23490
12621 13713
12621 21639
12622 24152
12622 24428
12623 18635
12623 24140
12624 22419
12624 23709
12625 14156
12625 17785
12625 17992
12626 23460
12627 17285
12627 19198
12628 22025
12629 21555
12630 15587
12630 16499
12631 19378
12632 12892
12633 24455
12634 18476
12635 14705
12636 14016
12636 15023
12636 17169
12636 18240
12637 23247
12638 13295
12639 14133
12639 14544
12639 14945
12639 20034
12639 20762
12639 21625
12640 24436
12641 14102
12641 18888
12641 22957
12642 22139
12642 22902
12642 24002
12642 24245
12643 18290
12643 19502
12643 20297
12643 20529
12643 21397
12644 17260
12644 19182
12645 23548
12646 24228
12647 15087
12647 20763
12647 22431
12648 23910
12648 24010
12648 24398
12649 23870
12650 23921
12650 23974
12650 24204
12651 22913
12652 16010
12652 22797
12652 23333
12653 15311
12654 14732
12654 22685
12655 16232
12655 24441
12656 14558
12656 22153
12657 20319
12657 20612
12658 12989
12658 17162
12658 21881
12659 24367
12660 23509
12661 17077
12661 22422
12662 23921
12662 23974
12662 24204
12663 23042
12663 23845
12663 24106
12664 24382
12665 15978
12665 23646
12665 24074
12665 24154
12666 16427
12666 17510
12666 22416
12667 15198
12667 18669
12667 18779
12668 21359
12669 18631
12669 19564
12669 22365
12670 21786
12671 18589
12672 20467
12672 23170
12673 17070
12673 20401
12673 23103
12674 23196
12674 23266
12674 23699
12674 24290
12675 17702
12675 18074
12675 19167
12676 22006
12677 15958
12678 15284
12678 22945
12679 18674
12679 19350
12679 20404
12679 22551
12680 19378
12681 16807
12681 18773
12682 15740
12682 19470
12682 20777
12683 15239
12683 17193
12683 20107
12684 19209
12684 22585
12684 23387
12685 14596
12685 22329
12686 13260
12686 20866
12687 16934
12687 21117
12687 23970
12689 16002
12689 17773
12690 18781
12692 20680
12693 13131
12693 15337
12694 14501
12694 19121
12694 20480
12695 16438
12695 19013
12696 17305
12696 17992
12697 17815
12698 13532
12698 14178
12699 17257
12700 22941
12701 22525
12702 17697
12703 23775
12703 23910
12703 23977
12703 24287
12703 24398
12704 14933
12704 21927
12705 20358
12705 20775
12706 19318
12707 12856
12707 20372
12709 13294
12709 14215
12709 14573
12709 14669
12709 15453
12710 15471
12710 22059
12711 19225
12711 22749
12712 20188
12712 20667
12712 21428
12713 13299
12713 15484
12713 18481
12713 22738
12714 13954
12714 14956
12714 15941
12715 20771
12715 21508
12715 22499
12716 15513
12716 15845
12716 20228
12716 21782
12717 14226
12718 18846
12719 14787
12719 20338
12720 23158
12721 19348
12722 13934
12722 14025
12722 14080
12722 14146
12722 15868
12722 17561
12722 18193
12722 19151
12722 19191
12722 19980
12722 20341
12722 20846
12722 20965
12722 22246
12722 22301
12723 20459
12724 16839
12724 21302
12725 16839
12725 16841
12725 18155
12725 21302
12726 13201
12726 15503
12726 23004
12726 23452
12727 15207
12727 18869
12727 18967
12727 19629
12728 15430
12728 22768
12728 23133
12729 20035
12729 22732
12730 13603
12730 14953
12730 19761
12731 16560
12731 17345
12731 18245
12731 20710
12731 23616
12732 16529
12732 17185
12732 20433
12733 13519
12733 14641
12734 16053
12734 20025
12734 20028
12734 20029
12735 13113
12735 14653
12735 14845
12735 16227
12735 16419
12735 18090
12735 19715
12735 21065
12735 21136
12735 23692
12735 24018
12737 12892
12737 19122
12738 22757
12739 14960
12739 16506
12739 22597
12740 16981
12740 17248
12740 19722
12740 22667
12741 18827
12741 19807
12742 14663
12742 15511
12742 17616
12742 21966
12743 18910
12744 13454
12744 17919
12744 18174
12746 16931
12746 17085
12747 18998
12748 23135
12748 24275
12749 20629
12749 22396
12749 22766
12749 23869
12750 17326
12750 17373
12750 17482
12750 21072
12750 22655
12751 15360
12752 14806
12752 22849
12753 13058
12753 20099
12753 21435
12754 13549
12754 23292
12755 17579
12755 21182
12755 21550
12757 18357
12757 20866
12758 14875
12758 20615
12759 19809
12760 17598
12760 18717
12760 23210
12761 17996
12761 19632
12761 20771
12762 13146
12762 13575
12762 22172
12764 18142
12764 20879
12764 22079
12765 23255
12766 14333
12766 15400
12767 17280
12767 17531
12767 18423
12768 15033
12768 20925
12768 23028
12769 23401
12770 15202
12770 21346
12770 22931
12772 14427
12772 23476
12772 23853
12774 13704
12774 18753
12774 23011
12775 15893
12776 13544
12776 13949
12776 15132
12776 15322
12776 15351
12776 17706
12776 18523
12776 19371
12776 20156
12776 20610
12776 22281
12776 23540
12776 23768
12779 22917
12779 23585
12779 23839
12780 17712
12780 18735
12780 22981
12781 13669
12783 15215
12783 15877
12784 23932
12784 24162
12785 17213
12785 19428
12786 17625
12786 18006
12786 21886
12787 21500
12788 15643
12789 13546
12789 19308
12791 17285
12791 18126
12792 13181
12793 14767
12794 17718
12794 19716
12795 17327
12795 19716
12796 16197
12796 19716
12797 14312
12797 18998
12797 19573
12797 22116
12798 13683
12798 16539
12798 22275
12799 22064
12801 12937
12801 13482
12801 14043
12801 14813
12801 16025
12801 16195
12801 19813
12801 20946
12801 21127
12801 22026
12801 23206
12802 15192
12802 18140
12802 18318
12802 24250
12804 15178
12805 14877
12805 19061
12806 18622
12806 19580
12806 22834
12807 16703
12810 14363
12811 21487
12812 13745
12813 13099
12813 13941
12813 14558
12814 22092
12815 13055
12815 17248
12815 17719
12816 16625
12816 22914
12817 17685
12818 22283
12818 23147
12819 14392
12819 15445
12819 18784
12819 19022
12819 20268
12819 20945
12819 21223
12819 21685
12819 22388
12820 18077
12820 21116
12820 23373
12821 12981
12821 18371
12822 22433
12823 19747
12823 23519
12824 23274
12824 24326
12825 14645
12826 15996
12826 16380
12827 14465
12827 15439
12827 22930
12828 21519
12829 13744
12829 22450
12830 21499
12831 20864
12831 21780
12831 22079
12833 17656
12833 18367
12834 12875
12834 23027
12836 15634
12836 17481
12836 18986
12837 24225
12838 14788
12840 15704
12840 18631
12840 19855
12841 24262
12842 15958
12842 20891
12843 14109
12843 16327
12844 24014
12844 24468
12845 13702
12845 15310
12846 18088
12846 19557
12847 22445
12849 14251
12849 17825
12849 19410
12850 18653
12850 19138
12852 13827
12852 14737
12852 14784
12852 16995
12853 17020
12853 17212
12853 21682
12854 16756
12854 21343
12854 23007
12854 23008
12854 23152
12855 13603
12855 14953
12855 18938
12855 19761
12857 22378
12857 23528
12858 19248
12859 14128
12859 21652
12860 13225
12860 14317
12860 16485
12860 16983
12860 18469
12860 19104
12860 22552
12861 14247
12862 23028
12863 13699
12863 14191
12863 16924
12863 21369
12863 23567
12864 13057
12864 13864
12864 18080
12864 18631
12864 20825
12865 15651
12866 16926
12866 19413
12867 14734
12867 17643
12867 20204
12868 20713
12868 21556
12868 21614
12870 14752
12870 15758
12870 16028
12871 15473
12871 17018
12871 23022
12872 15708
12872 20240
12873 16350
12873 23255
12874 13709
12874 21660
12875 19665
12875 20662
12875 22305
12876 18328
12876 19086
12876 21699
12877 19348
12878 13442
12878 16282
12878 20748
12878 23096
12878 23300
12879 14166
12879 15440
12879 16192
12879 17701
12879 18939
12879 19186
12881 13795
12882 15182
12882 22135
12882 22732
12883 23912
12883 23961
12884 16268
12884 18925
12885 20746
12887 12994
12887 13609
12888 16100
12889 13313
12890 13885
12890 15587
12891 13583
12891 15151
12891 15760
12891 16179
12891 19159
12891 19318
12891 19682
12891 19684
12891 20387
12891 22025
12892 14165
12892 14287
12892 15238
12892 17792
12892 22865
12893 15064
12893 19411
12893 21827
12893 23611
12894 15819
12894 19278
12895 16441
12895 18954
12895 20473
12896 16742
12897 12938
12897 13551
12897 13607
12897 14152
12897 14155
12897 14334
12897 14959
12897 15361
12897 15608
12897 15668
12897 15705
12897 15818
12897 16337
12897 16446
12897 16467
12897 16770
12897 16922
12897 16945
12897 17231
12897 17410
12897 17885
12897 18305
12897 18919
12897 20671
12897 20968
12897 21226
12897 21240
12897 21546
12897 21568
12897 21611
12897 21680
12897 21732
12897 21823
12897 22351
12897 22547
12897 22716
12897 22885
12897 23028
12897 23208
12897 23836
12897 24018
12897 24077
12898 19310
12899 18554
12899 21452
12900 13665
12900 18924
12903 15026
12903 17917
12904 15425
12904 16544
12905 15506
12905 17516
12905 18536
12906 15366
12906 18644
12907 13675
12907 18886
12908 12910
12908 12911
12909 18631
12909 22365
12910 12911
12910 18355
12911 12995
12911 20554
12911 21502
12912 15659
12912 20413
12913 20771
12914 13382
12914 17762
12914 20484
12914 22406
12915 16993
12915 19887
12916 16762
12917 23372
12918 21697
12918 21781
12919 16963
12920 14475
12920 19988
12920 23121
12921 13514
12922 20868
12923 14178
12923 15754
12924 14413
12924 15803
12924 17048
12924 17540
12924 18262
12924 21703
12925 23563
12926 13489
12926 14464
12926 16375
12926 17117
12926 22478
12928 15818
12928 17918
12928 21181
12929 20597
12929 22115
12930 13418
12930 17584
12931 23369
12932 13207
12932 16237
12933 21162
12933 23509
12934 15785
12936 14619
12936 18116
12937 16195
12937 21127
12939 15143
12940 24225
12941 17015
12942 18723
12942 22906
12943 14168
12943 15397
12943 16227
12943 17858
12943 18025
12943 18886
12943 19290
12944 17710
12945 13791
12945 18569
12945 20434
12945 23525
12946 24461
12947 24221
12947 24222
12948 14309
12948 18918
12949 12950
12949 12951
12949 12953
12949 12955
12950 12951
12950 12952
12950 12953
12951 12952
12951 13578
12951 14381
12951 14983
12951 19472
12952 12953
12953 12955
12953 14303
12954 21245
12954 22260
12954 22817
12955 13578
12955 14381
12955 14983
12955 19472
12957 17678
12957 21074
12959 13122
12959 13157
12959 15004
12959 15247
12959 15472
12959 16448
12959 18149
12959 18443
12959 20705
12960 12961
12960 21261
12961 23680
12962 21029
12963 16054
12963 19033
12963 19670
12964 13365
12964 23387
12965 18388
12965 19252
12965 22415
12967 15350
12967 18962
12968 15988
12968 19367
12969 19712
12970 17734
12970 17736
12970 20932
12970 21496
12971 14281
12971 16372
12971 20137
12971 20882
12971 21399
12972 15549
12972 19572
12974 13837
12975 18447
12975 24007
12976 15201
12977 17538
12977 21370
12978 12979
12978 14681
12979 12980
12980 14681
12981 17045
12981 18492
12981 18744
12981 22070
12981 23431
12982 13836
12982 16680
12982 21556
12983 14229
12983 14377
12983 18974
12983 19598
12983 23303
12984 14324
12985 13349
12985 15905
12985 17934
12986 17538
12986 17759
12986 21370
12986 24066
12987 17119
12987 19822
12987 23344
12988 17398
12989 13238
12989 14252
12989 17836
12989 18163
12989 23052
12990 20866
12991 14556
12991 16138
12991 17832
12991 21327
12991 22270
12992 18841
12994 13664
12994 16355
12994 17122
12994 18730
12994 18954
12994 20974
12994 21149
12994 22100
12994 22344
12994 22955
12996 20426
12996 20427
12997 14622
12997 15539
12997 17708
12997 20164
12997 21970
12997 22974
12997 23380
12998 19912
12999 16316
12999 17332
13000 14484
13000 21445
13000 23046
13001 21316
13002 16930
13002 22913
13005 20248
13006 15704
13006 19228
13006 19634
13006 20718
13006 21894
13007 22848
13007 23350
13008 13609
13008 15596
13008 21763
13009 15716
13009 16278
13010 18430
13010 19193
13010 19554
13011 14509
13012 18286
13012 22116
13013 17131
13014 14099
13014 16543
13014 18051
13015 19679
13015 19950
13015 20530
13016 22200
13016 22226
13017 13166
13017 14874
13017 18781
13018 21030
13019 15534
13019 17412
13019 22831
13019 23192
13020 18461
13021 16352
13021 20128
13021 23372
13022 23372
13023 14446
13023 14491
13023 15916
13023 18404
13023 18802
13023 20283
13023 20472
13023 22334
13025 18065
13025 21478
13025 21582
13026 13027
13026 21977
13027 13923
13027 20395
13027 21977
13029 15129
13029 17800
13029 21520
13030 13481
13030 14935
13031 13621
13031 15772
13031 18640
13032 17370
13032 18373
13032 23515
13033 15317
13033 21133
13033 23932
13033 24442
13034 23813
13034 24388
13036 15337
13036 17724
13037 14626
13037 15575
13037 20912
13038 16993
13038 21995
13039 18393
13039 21798
13040 13632
13040 21672
13041 22849
13042 17384
13042 18359
13044 14102
13044 15292
13044 21961
13044 22957
13045 14020
13045 17781
13046 24428
13047 15622
13047 17590
13047 21593
13047 23030
13048 15232
13048 18993
13049 16631
13049 19186
13052 17457
13052 18227
13052 21073
13054 15263
13054 18118
13054 19462
13055 15465
13055 17719
13055 20169
13055 20905
13055 21349
13055 21889
13055 22319
13055 23480
13055 23551
13056 16994
13057 15017
13058 14144
13058 15058
13058 16978
13058 17865
13058 20381
13058 21018
13058 21435
13059 20447
13059 20703
13059 22634
13060 21681
13061 20771
13062 14779
13062 21335
13062 21610
13063 13090
13063 17609
13064 13065
13064 13751
13064 14520
13064 20583
13065 14520
13065 17452
13065 17453
13065 17454
13065 20583
13065 23527
13066 15473
13067 14005
13067 16820
13067 17033
13067 21242
13068 16260
13069 16741
13069 21856
13069 22702
13070 19577
13070 19627
13070 20728
13071 14302
13071 18441
13072 19037
13072 20348
13072 21003
13072 23478
13073 20004
13074 17428
13074 19173
13075 13221
13075 23405
13076 16874
13076 18146
13076 21903
13077 16980
13077 19676
13078 17248
13078 19293
13079 15450
13079 16492
13079 19328
13079 19445
13080 20038
13081 16853
13082 19343
13083 18323
13084 14616
13084 15023
13084 19780
13085 14385
13085 17897
13087 18334
13087 19479
13087 23242
13090 20552
13090 21893
13094 13865
13094 15929
13094 17377
13094 17939
13094 18250
13094 19255
13094 19773
13094 20097
13094 20186
13094 21312
13094 21480
13094 21613
13094 22808
13094 23435
13096 13925
13096 14918
13096 17163
13098 13680
13098 19428
13098 20683
13098 23201
13099 13941
13100 13320
13100 16221
13100 17180
13101 23709
13101 23779
13102 21666
13102 23521
13103 18780
13104 21595
13105 13593
13106 18476
13107 18933
13107 20525
13108 20814
13109 18954
13110 17393
13110 20394
13110 21560
13110 21561
13111 13190
13111 13752
13111 15133
13111 17147
13111 17955
13111 18177
13111 21425
13111 21922
13111 23381
13114 16508
13115 18709
13115 18722
13116 21783
13116 22628
13117 16221
13117 17180
13117 22863
13118 13681
13118 15349
13119 16572
13119 18759
13120 14681
13121 15755
13122 13157
13122 15004
13122 15472
13122 16117
13122 16340
13122 16721
13122 16998
13122 18149
13122 18443
13122 22434
13122 22468
13122 22847
13126 15325
13126 16377
13126 22314
13127 14876
13127 15865
13127 20986
13128 15128
13128 19486
13129 15756
13132 14524
13132 16796
13132 17525
13132 18008
13133 13630
13133 22533
13134 13921
13134 20717
13135 23069
13135 23321
13135 24144
13136 13931
13136 14747
13136 14913
13136 15448
13136 16012
13136 20420
13136 20937
13136 22482
13136 22596
13136 23258
13137 13246
13137 18043
13137 20664
13138 14535
13138 18409
13140 17712
13140 18735
13140 19681
13140 21653
13140 22981
13141 15047
13141 16759
13141 17215
13141 18189
13141 23430
13142 13727
13143 18098
13144 23789
13145 18371
13146 16900
13146 23608
13147 15971
13147 16789
13148 16406
13148 19407
13148 21411
13148 23766
13150 16591
13151 14359
13152 15285
13152 20763
13153 17910
13153 19321
13155 15727
13155 21975
13156 18368
13156 20309
13157 15421
13157 20705
13157 22103
13157 22138
13158 18082
13158 22335
13159 15737
13159 16424
13161 15795
13161 18831
13161 21427
13162 15481
13162 18843
13162 21396
13162 22816
13163 15046
13163 17730
13163 18452
13163 19421
13163 19450
13163 21742
13164 17248
13164 20110
13164 23157
13165 16506
13165 22695
13166 13433
13166 14508
13166 14874
13166 15404
13166 16832
13166 17026
13166 18291
13166 18365
13166 18556
13166 21760
13166 21866
13166 22413
13168 14877
13168 23369
13171 14710
13172 23798
13173 17353
13173 17860
13173 18943
13173 19927
13174 23940
13174 24060
13176 17651
13176 18421
13176 18938
13176 20002
13176 21307
13176 23212
13177 23969
13179 17363
13180 14593
13180 14730
13180 15745
13180 16629
13180 17755
13181 14657
13181 14806
13181 15109
13181 15359
13181 15782
13181 17844
13181 17871
13181 18930
13181 19036
13181 20278
13181 20519
13181 21316
13181 22849
13181 23537
13181 23603
13182 22168
13184 20685
13185 20572
13185 22102
13186 17605
13186 19136
13186 20179
13186 23691
13187 15538
13187 18261
13187 20718
13187 21894
13188 21585
13188 23006
13189 14829
13189 15536
13189 18282
13189 19930
13189 21860
13190 21614
13191 24429
13192 24169
13193 16774
13194 13503
13195 13196
13195 15071
13196 15071
13196 18537
13197 20861
13197 21556
13198 15306
13198 19210
13198 19824
13198 22904
13199 15633
13199 19327
13199 21689
13199 21870
13200 15351
13200 16729
13200 21693
13200 22612
13201 18115
13201 20518
13204 23720
13204 23979
13205 22343
13205 22390
13205 22488
13206 14235
13206 22819
13207 13487
13207 15994
13207 19398
13208 13953
13208 15755
13208 16086
13208 17142
13208 18242
13208 20090
13208 22861
13209 17384
13210 20291
13210 20491
13210 20797
13210 21189
13211 19153
13212 17378
13212 20999
13213 23210
13214 24186
13215 14086
13216 14877
13218 15662
13218 22988
13219 23724
13219 24158
13219 24176
13220 19532
13221 13753
13221 15599
13221 17256
13221 17293
13221 17524
13221 20568
13221 21329
13221 21908
13221 22399
13222 21505
13224 14324
13224 15392
13224 15607
13225 16485
13225 22552
13226 17034
13226 19367
13226 20241
13227 19997
13227 22598
13228 13460
13228 19576
13229 24067
13229 24321
13230 14363
13230 20640
13234 18823
13235 15302
13235 21008
13236 16239
13236 20629
13236 22371
13237 21806
13238 17162
13239 23203
13239 24154
13240 13314
13241 18695
13243 15898
13243 21145
13244 13870
13244 23200
13246 14174
13246 15531
13246 16126
13246 16743
13246 18043
13246 20643
13246 20664
13246 21934
13247 13545
13247 21770
13248 17411
13248 20144
13249 13323
13249 13557
13249 20866
13250 17173
13252 17162
13253 19737
13253 21702
13253 22792
13253 23088
13254 13524
13254 18737
13255 15734
13255 22286
13256 14833
13258 14220
13259 21319
13260 17154
13260 20866
13261 13996
13262 14403
13262 17782
13262 22643
13263 13304
13263 16742
13263 23314
13264 17697
13264 18518
13264 19440
13265 15185
13266 15217
13266 22009
13267 14991
13267 19267
13267 19297
13267 20336
13267 20644
13267 21531
13267 22090
13269 17570
13269 17669
13270 19110
13270 20000
13272 13689
13272 14451
13272 14774
13272 17545
13272 17930
13272 20263
13272 21095
13273 16792
13273 17039
13273 19897
13273 20347
13273 22057
13273 22741
13274 14844
13274 16006
13275 14059
13275 15791
13275 18985
13275 19956
13275 23530
13276 23590
13278 18607
13278 18822
13278 18824
13279 16427
13279 17510
13279 23288
13280 17765
13280 18846
13281 13577
13281 18105
13281 21347
13281 22505
13281 23204
13283 15908
13283 16353
13283 17267
13284 22352
13284 23155
13286 15547
13286 15563
13286 16248
13286 17266
13287 14396
13287 20306
13289 17254
13290 15735
13290 16275
13290 17498
13290 21731
13291 14363
13291 16914
13291 17687
13292 13767
13292 15980
13292 16295
13292 17181
13292 20047
13293 15273
13294 14215
13294 15453
13295 16755
13295 19798
13295 20574
13295 21181
13295 21440
13295 21872
13295 22192
13295 22718
13296 13859
13296 20503
13297 23363
13298 19582
13299 13894
13300 16054
13300 19106
13301 13874
13301 13875
13301 13877
13301 13878
13301 15833
13301 15834
13301 15836
13301 15837
13301 15838
13302 24392
13303 22807
13304 13358
13304 13947
13304 19833
13305 14442
13305 14444
13305 14449
13306 14112
13306 16881
13306 19815
13307 24073
13307 24383
13307 24409
13308 15991
13309 17765
13309 19973
13310 17320
13310 21112
13311 22629
13312 19060
13312 21644
13313 21789
13314 13984
13314 15074
13314 18448
13314 19016
13314 19045
13314 19068
13314 19603
13314 20023
13314 20119
13314 20327
13314 20496
13314 21590
13314 22149
13314 22255
13314 22940
13315 16067
13316 19506
13316 20937
13316 22482
13317 19504
13319 21614
13320 13690
13320 14949
13320 16083
13320 17180
13322 24284
13323 16862
13323 16863
13324 15930
13324 17747
13324 20831
13324 22887
13325 23857
13325 23954
13326 20849
13326 21138
13327 17783
13327 18987
13328 17447
13328 18632
13329 14047
13330 20320
13330 22298
13331 21614
13332 16852
13332 22347
13333 15207
13333 18967
13333 23561
13334 15107
13334 16976
13334 17552
13334 20652
13335 16697
13335 17987
13335 18676
13335 19689
13336 15944
13337 23742
13338 14958
13338 20091
13338 22219
13339 18597
13340 23938
13340 24427
13341 21029
13342 23235
13342 23409
13342 24154
13344 14964
13344 14965
13344 14981
13344 15104
13344 15509
13344 16157
13344 16437
13344 17187
13344 20262
13344 22813
13345 23488
13346 22904
13347 15751
13347 18464
13347 23198
13348 15145
13348 20063
13348 21437
13349 13930
13349 15406
13349 19560
13349 21626
13350 13351
13351 20238
13352 17786
13353 21194
13353 22773
13355 23962
13355 24392
13357 16747
13357 24400
13358 13979
13358 19833
13358 22679
13358 23314
13359 13962
13359 18130
13360 13534
13360 19673
13360 23240
13362 15216
13362 18933
13364 14720
13364 16154
13364 19369
13364 20384
13365 13468
13365 14075
13365 22061
13365 22176
13365 23242
13365 23387
13366 15084
13366 15222
13366 16289
13366 21658
13367 15293
13370 18846
13370 19973
13370 20566
13371 16403
13373 14154
13373 21154
13373 21352
13374 16021
13374 18867
13375 17770
13375 21603
13375 22033
13376 17775
13376 17776
13376 18789
13377 17687
13378 21316
13379 21556
13380 14833
13380 15350
13380 20617
13381 17723
13381 17857
13381 21087
13381 21321
13382 22406
13384 14952
13384 15931
13384 19830
13384 21258
13384 21897
13385 13434
13386 19070
13386 20523
13387 13519
13388 16008
13388 22679
13389 14054
13389 19584
13390 19394
13390 22162
13391 13780
13391 13977
13391 14955
13391 16814
13391 19664
13391 19786
13391 21428
13392 17753
13392 18662
13393 14956
13394 18432
13394 21169
13396 15584
13396 19110
13396 22288
13397 14244
13397 15356
13397 15400
13397 19270
13398 15924
13399 22696
13400 18950
13400 19784
13400 21679
13401 24135
13401 24285
13401 24436
13402 22053
13403 23995
13404 19797
13405 14826
13405 17698
13405 20868
13406 17305
13406 20107
13407 14877
13407 23369
13408 18763
13408 21376
13409 23724
13409 24030
13409 24086
13409 24158
13410 14044
13410 17029
13410 21251
13410 22095
13411 14619
13412 13518
13412 14399
13412 16525
13412 21887
13413 23270
13414 14351
13414 16830
13415 16722
13415 20440
13416 17420
13416 17598
13416 18041
13417 19997
13417 20463
13418 13435
13418 18001
13418 18170
13419 18490
13419 19381
13419 21165
13419 22290
13422 17067
13422 19569
13422 20836
13423 15906
13424 20144
13425 16197
13425 16201
13425 19876
13425 22760
13426 16327
13426 22227
13427 14541
13427 15181
13427 17638
13427 18561
13427 18733
13427 19261
13427 19460
13427 20744
13427 21106
13427 21232
13427 22091
13428 21200
13428 22374
13430 14455
13430 19943
13430 22803
13431 14896
13431 16411
13431 18967
13431 19286
13431 19640
13431 21274
13431 21718
13431 22539
13431 23580
13432 16253
13432 21031
13432 23220
13432 23458
13434 16752
13434 16928
13434 18792
13434 19348
13434 19773
13434 20353
13434 21959
13434 23218
13435 18001
13438 13439
13438 23757
13439 20975
13439 23757
13440 18467
13440 20998
13441 13776
13441 16680
13441 21770
13442 20197
13442 22455
13443 17541
13443 17626
13443 19772
13444 24051
13445 15672
13445 18169
13445 20989
13445 23589
13446 14651
13446 22165
13446 23512
13448 14010
13448 17195
13448 18197
13448 21019
13449 15163
13449 22533
13451 13962
13451 15720
13451 17464
13451 18932
13452 14759
13452 23188
13452 24349
13453 14078
13453 15357
13453 17820
13453 18322
13453 19001
13453 21029
13453 21491
13453 22365
13454 18174
13454 20761
13454 21631
13455 15027
13455 19052
13455 19418
13455 19834
13455 21811
13455 23339
13456 16379
13456 20331
13457 22774
13458 19248
13458 21779
13458 22132
13458 23310
13459 13635
13459 14786
13459 20260
13460 14071
13460 21614
13460 22156
13461 23912
13461 23961
13462 24043
13463 23488
13464 14993
13464 20637
13465 21560
13465 21563
13466 17091
13466 19266
13466 19274
13466 21375
13466 22076
13467 15868
13467 20341
13470 14230
13470 15161
13470 17300
13470 18551
13470 20631
13470 20858
13471 18918
13471 23531
13473 15630
13473 17813
13474 16956
13474 17393
13474 20394
13476 19158
13476 20175
13476 22412
13477 16076
13477 18089
13478 22365
13479 13509
13480 14272
13481 18337
13482 16195
13483 14556
13483 18860
13484 18233
13485 14241
13485 15185
13485 17077
13485 18164
13487 15927
13487 19168
13488 15786
13489 13850
13491 19741
13492 22988
13493 18721
13493 22365
13494 14364
13494 23369
13495 19115
13495 19502
13495 20529
13495 21586
13495 21805
13495 22440
13496 21660
13497 17419
13498 15688
13499 13643
13499 17935
13499 21853
13500 17893
13501 14384
13501 15689
13501 19740
13501 20657
13502 13774
13502 16166
13503 15762
13504 15595
13504 17291
13504 17553
13504 17744
13504 21803
13505 15044
13505 17676
13506 14496
13506 21614
13506 21635
13506 22315
13507 21274
13508 17649
13509 14318
13509 15339
13509 16224
13509 21401
13509 22027
13509 23126
13510 14481
13510 16173
13510 17999
13511 14790
13511 22925
13513 13970
13513 17984
13515 18066
13516 14251
13516 17351
13517 20771
13517 23454
13518 14526
13518 16402
13519 20642
13519 20840
13520 14069
13520 16186
13520 18845
13520 20260
13521 24201
13521 24202
13521 24341
13522 16306
13522 20927
13523 17054
13526 21614
13529 15599
13529 16161
13529 21356
13530 23011
13531 15662
13532 14178
13532 18121
13532 18460
13532 22393
13534 14313
13534 19673
13534 23240
13535 17636
13535 18663
13535 23223
13536 19355
13537 18238
13538 15124
13538 18758
13539 13826
13540 14156
13540 15439
13541 18918
13543 14410
13543 15447
13544 19371
13545 13836
13545 19972
13545 21770
13546 16494
13546 19024
13546 21030
13547 15774
13547 17702
13547 18074
13547 18842
13547 21637
13547 24352
13548 18900
13549 13907
13549 22175
13550 17260
13550 22678
13551 18900
13553 18631
13553 21029
13555 23015
13556 15818
13556 21306
13557 16863
13557 21319
13558 14568
13558 21812
13559 18799
13560 22889
13560 22985
13560 23446
13560 23958
13560 24259
13561 18901
13562 13696
13562 16116
13562 17781
13563 13722
13563 15433
13563 17061
13564 14628
13564 15750
13564 18366
13564 23499
13565 19954
13565 23028
13566 17992
13567 16334
13567 19218
13567 19236
13568 21163
13569 19632
13569 20771
13570 13962
13570 15720
13570 18130
13570 18932
13571 14288
13571 15114
13572 15442
13572 15800
13572 18426
13573 14600
13573 16254
13573 17362
13573 17901
13573 22956
13574 15609
13574 15757
13574 18380
13574 22571
13575 22172
13576 14600
13577 14303
13578 14381
13579 14381
13580 15003
13580 21542
13583 15151
13583 16179
13583 19318
13584 23782
13584 24048
13584 24256
13585 13792
13585 15413
13586 23640
13586 23709
13586 23779
13586 23907
13587 16523
13587 20497
13588 13639
13588 14566
13588 20366
13588 22721
13589 17864
13589 22983
13589 23019
13590 15589
13590 21006
13592 22237
13593 23399
13594 18222
13594 20710
13595 15448
13595 20420
13595 23258
13596 14541
13596 19460
13597 13632
13597 21672
13598 13798
13598 22631
13599 14309
13599 18918
13599 21719
13600 14300
13600 21469
13600 23160
13601 14395
13601 15428
13601 19064
13602 20502
13603 14358
13604 14301
13604 19018
13605 17421
13605 18714
13605 19612
13605 22212
13606 20985
13607 17025
13608 14086
13610 16933
13610 22473
13611 14486
13611 18900
13613 22269
13615 13616
13615 23090
13616 23061
13616 23090
13617 13740
13617 15569
13617 16907
13617 21173
13617 22235
13618 22053
13619 15231
13619 17061
13620 15650
13620 17363
13621 15772
13621 18640
13622 18689
13622 19224
13623 17191
13623 18161
13623 18234
13623 18628
13623 19879
13623 20545
13623 22527
13624 24090
13625 18921
13625 19373
13625 22191
13626 17337
13626 19376
13626 22586
13627 23960
13627 24337
13628 17944
13629 18285
13630 22533
13631 21798
13632 21672
13633 15963
13633 23444
13634 22361
13635 19222
13637 15381
13637 16639
13638 19737
13639 22721
13640 22716
13641 22430
13642 14768
13642 20318
13643 14886
13643 17935
13644 16994
13644 22799
13645 20236
13646 16592
13646 17320
13646 19910
13647 18286
13647 18375
13647 18998
13648 19723
13649 23266
13650 16505
13650 16932
13650 17619
13650 21328
13651 15678
13651 17305
13651 18782
13652 16027
13653 17637
13653 20678
13653 23038
13656 14537
13656 22842
13657 19447
13657 21081
13658 22181
13658 22915
13659 22708
13660 19454
13660 20862
13661 19655
13662 21064
13663 15307
13663 15328
13663 17709
13663 18602
13663 19198
13663 19476
13663 20220
13663 21504
13663 22294
13664 21149
13664 22100
13665 18236
13665 18924
13666 14002
13667 16007
13667 16928
13668 17428
13668 19171
13668 19173
13669 16940
13669 19234
13669 21113
13669 23433
13670 15504
13671 15674
13672 14324
13672 19655
13674 19502
13675 20159
13675 21552
13676 17975
13676 19063
13676 21917
13677 17345
13680 15948
13680 19428
13681 15349
13683 16539
13683 17027
13684 15142
13685 15437
13685 16876
13685 21666
13686 17334
13686 19213
13686 20916
13687 15253
13687 16718
13687 17054
13688 15807
13688 16714
13688 19965
13689 14799
13690 16644
13690 23118
13691 21614
13692 18574
13693 18984
13693 19711
13694 16565
13694 16845
13694 21198
13695 21402
13696 14020
13696 15386
13696 16116
13696 16560
13696 17345
13696 17781
13696 18795
13696 18904
13696 20921
13696 21233
13696 21686
13696 22516
13697 15152
13697 22911
13698 14936
13698 16536
13699 14191
13699 16638
13699 16924
13699 20522
13699 20720
13699 21369
13699 22627
13700 23765
13700 24298
13700 24374
13701 13816
13701 18413
13702 15310
13702 23282
13703 17669
13704 23011
13707 14117
13707 20568
13707 22991
13708 16472
13708 18142
13708 20879
13708 22101
13709 16893
13709 19972
13709 21257
13710 14457
13710 20179
13710 20193
13710 20926
13711 15329
13711 22795
13713 14510
13713 17401
13714 14285
13714 18354
13714 21700
13714 23366
13715 19637
13716 22934
13717 17937
13717 22597
13718 15265
13718 16414
13719 14602
13720 18900
13721 19756
13723 17646
13723 19100
13723 20547
13724 13725
13724 13726
13724 16439
13725 16439
13726 16439
13727 20181
13728 15952
13728 17984
13728 22193
13729 17334
13729 20916
13730 15001
13731 16118
13731 16210
13731 17347
13731 18645
13731 21356
13731 21993
13731 23475
13732 20243
13733 23670
13733 24311
13734 15315
13735 14475
13735 21009
13735 21614
13736 23779
13736 23907
13737 16103
13737 18775
13737 22225
13738 15471
13738 21068
13738 22059
13738 23628
13739 15041
13739 15619
13739 16651
13740 21173
13741 18075
13742 14656
13742 23924
13743 15877
13743 17411
13743 20144
13745 17607
13745 18929
13745 22257
13746 14423
13746 18028
13747 15411
13747 17368
13747 18967
13747 19629
13747 19640
13747 20132
13747 23755
13748 18324
13748 20120
13749 14251
13749 15645
13750 16617
13750 19143
13750 21186
13750 22972
13751 17452
13752 14579
13752 21505
13752 22578
13753 23405
13754 18181
13754 19404
13754 22637
13756 18114
13756 18551
13757 23098
13758 14179
13758 15947
13758 21297
13758 22234
13759 14710
13759 14711
13759 14712
13759 23291
13760 21269
13761 13762
13761 15525
13761 15526
13762 15525
13762 23486
13763 13764
13763 13994
13763 17474
13763 17476
13763 18059
13763 18060
13763 18485
13763 23224
13764 18059
13764 23224
13766 14135
13766 18177
13768 21605
13769 17289
13770 15281
13770 15283
13772 22170
13773 18299
13773 18771
13774 16166
13776 16189
13776 22435
13777 18332
13778 14193
13778 15713
13779 18500
13780 13977
13780 19396
13781 20967
13782 14670
13782 21257
13783 22392
13784 18978
13784 23567
13785 15600
13785 21039
13786 15063
13786 15675
13786 18807
13786 18887
13786 19929
13786 20470
13786 20829
13786 20908
13786 22541
13787 15851
13787 16707
13787 21865
13788 16429
13788 16687
13788 20287
13788 21824
13788 22359
13790 22286
13791 22275
13791 23525
13793 18075
13795 17646
13795 21216
13796 18846
13796 19973
13797 16429
13797 22359
13798 16607
13799 16017
13799 19756
13801 18864
13801 22272
13802 20572
13803 19999
13804 23955
13804 24166
13804 24309
13805 23802
13805 24279
13805 24309
13805 24332
13806 23893
13807 19975
13808 17788
13808 19739
13808 22835
13809 16197
13809 16201
13811 15033
13811 19084
13811 22868
13812 19824
13812 21129
13813 14943
13813 15723
13813 16359
13814 14780
13815 15349
13816 18413
13817 18846
13817 21655
13818 18631
13818 21029
13818 22365
13821 15363
13821 15726
13822 16492
13822 19445
13822 20467
13822 21298
13822 23170
13823 15670
13823 19636
13823 22625
13823 22645
13824 15051
13824 16456
13824 20325
13825 17162
13825 21881
13826 17788
13826 22994
13827 14784
13827 15209
13827 16995
13827 17110
13827 18841
13827 20385
13827 21574
13827 22912
13827 23599
13828 18006
13828 19811
13829 21171
13829 22492
13830 23105
13831 21505
13831 21614
13832 17011
13833 16546
13834 20179
13835 16953
13835 23621
13836 21770
13837 15076
13838 14009
13839 15416
13839 24415
13840 14324
13841 15811
13841 21724
13842 19267
13842 20336
13842 21448
13843 15609
13843 20884
13843 23746
13844 15208
13844 18382
13844 21412
13845 22701
13845 22757
13846 14769
13846 15173
13847 23358
13848 18800
13848 19819
13848 22342
13849 16767
13849 19525
13850 22478
13851 14270
13851 16541
13851 18820
13851 21819
13852 15350
13852 18962
13853 15638
13853 16682
13854 15080
13854 15831
13854 16011
13855 24282
13856 19318
13857 23318
13857 24350
13858 15366
13858 18644
13860 17419
13860 21673
13861 23912
13862 14747
13862 16223
13862 19506
13862 22676
13863 18613
13863 21169
13863 22833
13864 22801
13865 20186
13865 23435
13866 15381
13866 17506
13866 20401
13866 23103
13867 23200
13868 16361
13868 22049
13869 17996
13869 19505
13869 20771
13870 13899
13870 14140
13870 14918
13870 15205
13870 16726
13870 17138
13870 17742
13870 17769
13870 17967
13870 17992
13870 18134
13870 19083
13870 19253
13870 19315
13870 19320
13870 19726
13870 20443
13870 20508
13870 20681
13870 20947
13870 21421
13870 21516
13870 21662
13870 21747
13870 22339
13870 22373
13870 22383
13870 23049
13870 23349
13871 18916
13872 23740
13873 13874
13873 13875
13873 13876
13873 13877
13873 13878
13873 14647
13873 14650
13873 15452
13873 15832
13873 15833
13873 15834
13873 15836
13873 15837
13873 15838
13873 18274
13874 21229
13875 13876
13875 15832
13875 15834
13875 21229
13876 15834
13876 15837
13876 21496
13877 21229
13879 16653
13879 17887
13879 19888
13879 21288
13880 15921
13880 21670
13881 14955
13882 14724
13882 20495
13883 20543
13883 22805
13884 14595
13884 17489
13884 17867
13884 18171
13884 18756
13884 21043
13884 22904
13885 18558
13885 22061
13886 15890
13887 19242
13888 17715
13888 19185
13890 15182
13890 16069
13890 22732
13891 24167
13891 24308
13892 17261
13892 21162
13893 19060
13893 20786
13893 20904
13893 21644
13893 21948
13895 13913
13895 18634
13896 19619
13897 17579
13897 18703
13898 15444
13898 16613
13898 19519
13899 16535
13900 14880
13900 15866
13900 16711
13900 17100
13901 18372
13902 14875
13903 22776
13903 23211
13904 17744
13904 18631
13904 21311
13905 17180
13906 19374
13907 22175
13908 17228
13910 19079
13910 19305
13911 15020
13913 17251
13913 17439
13913 18634
13913 20228
13913 20800
13913 20851
13913 21817
13914 18028
13915 14016
13915 14892
13915 17771
13915 18240
13916 14893
13916 15979
13916 16923
13916 18959
13916 20844
13917 13952
13917 15993
13917 22967
13918 14123
13919 17347
13919 19600
13919 20674
13919 20768
13920 15358
13921 19691
13921 20717
13921 21668
13921 22391
13922 23362
13924 18016
13926 15289
13927 16135
13927 22436
13928 20460
13930 15406
13930 15905
13930 21626
13931 14913
13934 18193
13934 21205
13935 17568
13935 19847
13935 22322
13938 20882
13938 21399
13939 21082
13939 21405
13940 16706
13940 17716
13940 23464
13941 16501
13942 14597
13942 21029
13943 23960
13944 17163
13944 23492
13945 17992
13947 23314
13948 17225
13948 19506
13949 19371
13950 14504
13950 18406
13951 14000
13951 17388
13951 18917
13953 17142
13953 20090
13954 14337
13954 17378
13955 22760
13956 19311
13956 19703
13956 21629
13957 18588
13958 14919
13958 19392
13959 15244
13959 15681
13959 17717
13959 17910
13959 19321
13960 24014
13960 24468
13961 15338
13962 15720
13962 17464
13962 18130
13962 20488
13962 20533
13962 22207
13963 21090
13964 19115
13964 19188
13964 19256
13964 21397
13964 21805
13964 22440
13965 16936
13965 17654
13965 20936
13965 22152
13966 19027
13966 20047
13967 16530
13967 18969
13967 20120
13967 23297
13968 18286
13968 18998
13968 23100
13969 16680
13969 16942
13969 18332
13970 14979
13970 15388
13970 16748
13970 20594
13970 22062
13970 23035
13970 23253
13971 18846
13972 17419
13972 22599
13973 20112
13975 15351
13975 20924
13976 18395
13977 14955
13977 19786
13978 14366
13978 15145
13978 19745
13978 22290
13978 22932
13980 15252
13980 15577
13980 22110
13981 22183
13982 16054
13982 20510
13983 21339
13984 19045
13985 14138
13985 21125
13985 23264
13986 14523
13986 17602
13986 21962
13987 18061
13987 21612
13990 19021
13991 14996
13992 14930
13992 16641
13992 20050
13994 18059
13995 15719
13995 20073
13995 22273
13995 24414
13996 14828
13996 17012
13997 22814
13998 22710
13999 24310
14000 17388
14000 18917
14001 20376
14001 22287
14003 20052
14003 22243
14004 18124
14005 15272
14005 16820
14005 17033
14006 23210
14007 23938
14008 19314
14008 23028
14010 18197
14011 16230
14011 20041
14013 17854
14013 21744
14013 22063
14014 15999
14014 18923
14014 20888
14015 15878
14015 23154
14016 14616
14016 15023
14016 17771
14016 18240
14016 20150
14016 22929
14017 16652
14017 18364
14017 20362
14018 14259
14018 15350
14019 17646
14020 17781
14021 18618
14022 14565
14023 22903
14024 15027
14024 21086
14025 14576
14025 14680
14025 18193
14025 20846
14025 22246
14026 14173
14026 22597
14027 21630
14027 23277
14028 17550
14028 21801
14028 21858
14030 14678
14030 18223
14030 20343
14030 20987
14030 21290
14030 23106
14031 22570
14033 21713
14035 20178
14037 18488
14038 17434
14039 19828
14040 22154
14041 16039
14042 16040
14042 16050
14043 14813
14044 18857
14046 14216
14046 16013
14046 23566
14047 17271
14048 15951
14048 17893
14048 19466
14048 20380
14049 15061
14049 22207
14050 24473
14051 14865
14051 21147
14052 20873
14053 20933
14054 17570
14054 17669
14054 19584
14054 20352
14054 20772
14055 24169
14056 19318
14058 19082
14058 21291
14058 23076
14059 14902
14059 14903
14059 16594
14059 19196
14059 19956
14059 21701
14060 14620
14060 14711
14060 17688
14060 23506
14060 23684
14061 24157
14062 24015
14062 24425
14063 14645
14063 17344
14064 19246
14065 14220
14065 14715
14066 22237
14067 19989
14067 20256
14068 14492
14068 14878
14068 16084
14068 19872
14069 22120
14070 15743
14070 22021
14071 14088
14071 15029
14071 15110
14071 16620
14071 18342
14071 19198
14071 20319
14072 18897
14073 22773
14073 23905
14074 15461
14074 18897
14075 23242
14076 17162
14076 21881
14078 14365
14078 21029
14079 15350
14080 15868
14081 23033
14083 16995
14084 24225
14086 18803
14087 14557
14087 15486
14087 15831
14088 16508
14089 17042
14089 18543
14090 15086
14090 23268
14092 19635
14092 23073
14094 20547
14094 21735
14096 15093
14096 18215
14096 20382
14097 21834
14098 24395
14099 18051
14100 23970
14101 23162
14102 22186
14102 22957
14102 23130
14103 14790
14103 15984
14103 18809
14104 15253
14104 16718
14104 16835
14104 18804
14104 22357
14105 18782
14106 23811
14106 24017
14106 24451
14107 14969
14107 20169
14107 23551
14108 23358
14109 16327
14109 16861
14110 15845
14110 21782
14111 16114
14111 20881
14112 14113
14112 16881
14113 15104
14113 16157
14113 16495
14113 17238
14113 18894
14114 14790
14115 16213
14116 23712
14118 19555
14118 22240
14119 19314
14119 19954
14119 23028
14120 14251
14120 14257
14120 16951
14120 19608
14121 15715
14121 18035
14122 15684
14122 18491
14122 18617
14122 19301
14122 19429
14122 19790
14122 21446
14122 23500
14124 15142
14124 16440
14124 17148
14124 21285
14126 18442
14127 18154
14127 20919
14129 16994
14131 19706
14133 18725
14133 21625
14135 20490
14135 20780
14135 20958
14135 23070
14136 19803
14136 21617
14139 15643
14139 15644
14139 16988
14140 23200
14140 23369
14141 23485
14142 19195
14142 19597
14142 20121
14143 17001
14144 14744
14144 19118
14144 21018
14145 15442
14145 20393
14146 19191
14146 21513
14149 16030
14149 17593
14151 14877
14153 14585
14153 21593
14154 14292
14154 21154
14155 22716
14156 17992
14157 16820
14157 17033
14158 17060
14158 22865
14158 23079
14159 20989
14160 20840
14161 15934
14161 21864
14161 22617
14162 21556
14163 17243
14163 22821
14164 20334
14165 23504
14166 14482
14166 21736
14167 14207
14167 21097
14167 21903
14168 17858
14168 18886
14168 20673
14169 14668
14169 16218
14169 18588
14169 21386
14170 18315
14171 14300
14172 16909
14172 23146
14173 16680
14173 23581
14174 15531
14174 16126
14174 18043
14175 22365
14176 17420
14176 17598
14176 19426
14177 15307
14177 15328
14177 17634
14177 17709
14177 19476
14177 23596
14178 21839
14179 15947
14179 21297
14179 22463
14179 22854
14181 14704
14181 17134
14182 18372
14183 18146
14184 17337
14184 21050
14185 15177
14185 19601
14186 19044
14186 20208
14186 21365
14187 19073
14187 21591
14188 17525
14188 18405
14188 19198
14189 16644
14189 22389
14190 16114
14191 16638
14191 16924
14191 17567
14191 20522
14191 20720
14191 21369
14191 22204
14191 22627
14191 23397
14192 18475
14192 21295
14193 16533
14193 17806
14193 22614
14194 21711
14195 17440
14196 22772
14197 20100
14198 17384
14199 20617
14200 15125
14200 22287
14201 15485
14202 15740
14203 15975
14203 19316
14203 19757
14204 14779
14204 15136
14204 16260
14204 19569
14204 20769
14204 23024
14205 21650
14207 20707
14207 21097
14208 15752
14209 19294
14211 15285
14211 20763
14212 23013
14213 16204
14213 16206
14214 19899
14214 22663
14215 15453
14217 16618
14218 18631
14219 14322
14219 15055
14219 15575
14219 15873
14219 18000
14219 18746
14220 14715
14220 21077
14221 15033
14221 20925
14221 22868
14222 16761
14223 18732
14224 18124
14227 16089
14227 17303
14227 22143
14227 22937
14228 14846
14228 15197
14228 20333
14229 14377
14230 18551
14231 15278
14231 23338
14234 15979
14234 18635
14236 15793
14237 18580
14237 20393
14238 22467
14238 23246
14239 15971
14240 18261
14240 21029
14241 15185
14241 17077
14241 17093
14241 18135
14241 18164
14242 17216
14242 22397
14243 14732
14243 16958
14243 21535
14243 22685
14244 15400
14244 16259
14244 19270
14245 23192
14246 19004
14247 14519
14247 16585
14247 18278
14247 23055
14248 15778
14248 21378
14248 22241
14249 16612
14251 14257
14251 14578
14251 16458
14251 17351
14251 19808
14251 20254
14251 20370
14251 22563
14251 23047
14252 17162
14253 16285
14254 19224
14255 19613
14256 14874
14257 18158
14258 17351
14258 20254
14259 15350
14260 23802
14260 23955
14260 24279
14261 15267
14261 20803
14262 19296
14263 19171
14264 20800
14265 15630
14265 20827
14266 15898
14266 21145
14267 16000
14267 16742
14267 19719
14269 24164
14270 18820
14272 19071
14272 20136
14272 21361
14272 21468
14272 22583
14272 23273
14273 18323
14273 18519
14273 22141
14274 17620
14275 22283
14275 23147
14276 16317
14276 21171
14277 14846
14277 15197
14277 16265
14277 22447
14278 16268
14278 18925
14279 23919
14279 24400
14280 15002
14280 19733
14280 20433
14281 20137
14282 18307
14283 15505
14283 18539
14283 22210
14284 16238
14284 19949
14285 17767
14285 21700
14286 14338
14286 15270
14286 19047
14287 20479
14289 18142
14289 22079
14290 17838
14291 20882
14291 22993
14292 21154
14293 14585
14293 14923
14293 16267
14293 20561
14294 15302
14296 15995
14296 16700
14296 21958
14297 16135
14297 18023
14297 18667
14297 20300
14297 20935
14297 22436
14297 23453
14298 23156
14299 19392
14300 21469
14301 19514
14302 18441
14302 19226
14302 20058
14302 21788
14303 14381
14304 20237
14305 14661
14305 17030
14305 19563
14306 18587
14306 23888
14307 17911
14308 15933
14308 18672
14309 21719
14311 16506
14311 20351
14312 16213
14312 18998
14313 15120
14313 17292
14313 23584
14314 18864
14315 16563
14315 20991
14316 14823
14316 22099
14317 21459
14317 23593
14317 23688
14318 15339
14318 16224
14318 19443
14318 21401
14318 22027
14319 17305
14321 18459
14321 23369
14322 19520
14322 21620
14323 14326
14323 14327
14323 15304
14323 19730
14324 17155
14326 14327
14326 16668
14326 19861
14327 16667
14327 19730
14327 23377
14328 19371
14330 16221
14331 15491
14331 20458
14332 14512
14332 18736
14332 20787
14333 16974
14333 18271
14333 21256
14333 21310
14335 17163
14335 23200
14336 16647
14336 18761
14336 19917
14336 20225
14336 20938
14336 21733
14337 14956
14337 15941
14338 15270
14338 19047
14339 15403
14339 16569
14339 20337
14340 18404
14341 21697
14341 21781
14341 22254
14342 14938
14342 22599
14343 16550
14344 20866
14345 19248
14346 17182
14346 22148
14349 21728
14350 18782
14352 19987
14352 21467
14353 18420
14354 19727
14354 22791
14355 22816
14356 21595
14357 17267
14358 14953
14359 14560
14359 16959
14360 22977
14361 17047
14362 19358
14362 22442
14363 14820
14363 15024
14363 15515
14363 15882
14363 16014
14363 16590
14363 16764
14363 17426
14363 17585
14363 18560
14363 18570
14363 18949
14363 19565
14363 19700
14364 19061
14364 19849
14365 20304
14365 22365
14366 19381
14367 14442
14367 14444
14367 16689
14368 18467
14369 22475
14370 14475
14370 22040
14371 14933
14371 21009
14371 22913
14372 16358
14372 22097
14372 22914
14373 19842
14373 20066
14374 17884
14374 17958
14374 19248
14375 20572
14375 21074
14376 19959
14377 16490
14377 19598
14378 18150
14379 15991
14379 17687
14379 22156
14380 15393
14380 20436
14381 14983
14382 24038
14383 21975
14384 19509
14385 18200
14386 15939
14386 21381
14386 23807
14386 24131
14387 16189
14387 17551
14387 21793
14392 19022
14392 21685
14393 22631
14395 15428
14395 16737
14395 20632
14396 15018
14396 20533
14396 22910
14397 15231
14397 15433
14397 16989
14397 17061
14398 15434
14398 18077
14398 21116
14398 21923
14399 16402
14400 14548
14400 19755
14401 15027
14401 19418
14405 15646
14406 22053
14408 16810
14408 19185
14408 20969
14408 20977
14410 15447
14410 19793
14411 15840
14411 19198
14411 21614
14412 15398
14412 22156
14412 22820
14413 18262
14413 21527
14414 14585
14414 15613
14415 17458
14415 19615
14415 21992
14417 17682
14417 18450
14417 22514
14417 22574
14417 23481
14418 16273
14418 19562
14419 21269
14420 19685
14421 17096
14421 18631
14421 22365
14422 16292
14422 18353
14422 23319
14423 22701
14424 16878
14424 22984
14424 23093
14425 20376
14425 22287
14426 15413
14426 21625
14427 19968
14427 23853
14429 16450
14429 17780
14429 19000
14429 20818
14429 21409
14430 15221
14430 16399
14430 16862
14430 23141
14431 20431
14432 17082
14433 22969
14433 23628
14434 17493
14435 23792
14436 15993
14437 15473
14437 17018
14437 23022
14438 14719
14438 16207
14438 18853
14440 14478
14441 14444
14441 14445
14441 14485
14441 19958
14442 14444
14442 14449
14442 15886
14442 16912
14443 14447
14443 15478
14444 14447
14444 14449
14444 14899
14444 15886
14444 15888
14444 15889
14444 16691
14444 21125
14444 23643
14445 14449
14445 14485
14445 15479
14445 16689
14445 17330
14445 19958
14446 18404
14446 21265
14446 22334
14447 15478
14447 19958
14448 15426
14448 19050
14448 20952
14448 21723
14449 15480
14449 16689
14449 19958
14449 23643
14450 17002
14450 17485
14450 18144
14450 18998
14450 19130
14450 19318
14450 19412
14450 21304
14452 18549
14452 21677
14453 18747
14455 18829
14455 20412
14455 21916
14456 14874
14456 18781
14456 18861
14457 16966
14458 22885
14459 16870
14459 21260
14460 18494
14462 22621
14463 20696
14464 17117
14464 17205
14465 15439
14465 22930
14466 19687
14466 21902
14468 23193
14468 23748
14470 15121
14470 19926
14470 22019
14471 15299
14472 15193
14472 17499
14472 19121
14472 20480
14472 20709
14472 22619
14473 18202
14473 20634
14474 18884
14474 23365
14475 15685
14475 16156
14475 16400
14475 17880
14475 18811
14475 19988
14475 21009
14475 22040
14477 17790
14477 17896
14477 18855
14477 21982
14479 17116
14479 17608
14480 21764
14482 15499
14482 16163
14482 16192
14482 16476
14482 17529
14482 17701
14482 17967
14482 18939
14482 19912
14482 19986
14482 20906
14482 21736
14483 17137
14483 17353
14483 17860
14483 19927
14484 20368
14484 23046
14485 14777
14485 19958
14486 15318
14486 15516
14486 16643
14486 16906
14486 17143
14486 17745
14487 18631
14488 14940
14488 17642
14488 18680
14489 15251
14489 22602
14490 14877
14490 23369
14492 16084
14493 15549
14493 17687
14493 19075
14494 15093
14495 18906
14496 14963
14496 16024
14496 17146
14496 18482
14496 21051
14496 21209
14496 21635
14496 21661
14496 22071
14496 22315
14496 22982
14497 16669
14497 21721
14497 22499
14498 18761
14498 20771
14498 21733
14499 15034
14499 22597
14500 18862
14500 19220
14501 20709
14502 18624
14503 19164
14503 20955
14504 18406
14505 18683
14505 22668
14506 15485
14506 19166
14508 18781
14508 22818
14509 21511
14509 22944
14510 21639
14511 16242
14511 20850
14512 16442
14512 17572
14512 18736
14513 14789
14513 16504
14513 16650
14513 18108
14513 18566
14513 19923
14513 22623
14513 23507
14515 16768
14515 17447
14515 20973
14516 16660
14516 21658
14517 15820
14518 15751
14518 22504
14519 18278
14520 17452
14520 17454
14520 20583
14520 23527
14521 18886
14522 15769
14522 23607
14523 20471
14524 15010
14524 17525
14524 17790
14524 17896
14525 19160
14525 22829
14526 16525
14527 18334
14527 19957
14528 22305
14530 18599
14532 17340
14532 18331
14532 20923
14533 16819
14533 23339
14534 17278
14534 20473
14535 14681
14535 14686
14535 15369
14536 23265
14536 23585
14536 23839
14537 23605
14538 18512
14539 17969
14540 23879
14540 24106
14541 18561
14541 19211
14541 19619
14543 15991
14543 17687
14543 22156
14544 15413
14544 21871
14544 22343
14544 22390
14545 14960
14545 20360
14547 22138
14548 16098
14548 16908
14548 19755
14549 16413
14549 22637
14550 14607
14550 14681
14550 14798
14551 20866
14552 20866
14553 22543
14554 17432
14554 19789
14554 23092
14555 15244
14556 16138
14556 18860
14556 22270
14558 17197
14558 22767
14561 15350
14561 18962
14562 16853
14563 18844
14563 22701
14564 15251
14565 15502
14565 16245
14565 19670
14565 20452
14566 22721
14568 21812
14569 18102
14569 18944
14569 19605
14569 19611
14569 19830
14569 19906
14569 20199
14569 20653
14569 21897
14569 22449
14569 22677
14571 20856
14572 14653
14573 15453
14573 21119
14575 17785
14576 18193
14576 21513
14577 17553
14577 17744
14577 18631
14580 16639
14581 21256
14581 23352
14582 17224
14582 17721
14583 17304
14584 15017
14584 20545
14584 22998
14585 14859
14585 14923
14585 15395
14585 15613
14585 15687
14585 16361
14585 16955
14585 19106
14585 21593
14585 21614
14585 21650
14585 21878
14585 22049
14585 23583
14586 15406
14586 15905
14587 19658
14587 19901
14589 20738
14590 15470
14590 15624
14590 15903
14590 22154
14591 14596
14592 16465
14592 17677
14593 14730
14593 15745
14593 17074
14593 21863
14598 20376
14598 22287
14599 17550
14600 15041
14600 15619
14600 16651
14600 17362
14600 17901
14600 18582
14600 19724
14600 19763
14600 20088
14600 22956
14602 18073
14602 18675
14602 20277
14602 23219
14604 20144
14605 15868
14605 19191
14606 19796
14607 14681
14609 15418
14610 14855
14610 16551
14610 18372
14611 20098
14611 20723
14613 22024
14614 21825
14614 23277
14615 17921
14615 18529
14615 22031
14616 18280
14616 20150
14616 21571
14617 14877
14618 18286
14618 23100
14619 18116
14620 14710
14620 14713
14620 17492
14620 23506
14621 17583
14621 19363
14622 14714
14623 14940
14623 18680
14625 20904
14626 23843
14627 19318
14627 22025
14628 15750
14630 15614
14630 20778
14630 21485
14631 14632
14631 14635
14632 14635
14633 14635
14634 21200
14635 21200
14637 14653
14637 19113
14639 19601
14639 20127
14639 20638
14640 22400
14641 20840
14642 16309
14642 22535
14643 15354
14643 16973
14643 20095
14643 20813
14643 21315
14643 22151
14643 23190
14644 14936
14644 18906
14644 19593
14644 23063
14644 23329
14645 17344
14646 22343
14648 15640
14649 15640
14650 18274
14650 22920
14651 15130
14652 23717
14652 23952
14652 24318
14653 14791
14653 14941
14653 18188
14653 22590
14654 17984
14654 22193
14655 21596
14655 22046
14655 22474
14656 23924
14656 23930
14657 16704
14657 17871
14657 19769
14658 15817
14658 16703
14659 14799
14659 23071
14660 22097
14660 22914
14661 21926
14662 23638
14662 24164
14663 16328
14663 17616
14664 17525
14664 19198
14665 17687
14665 22004
14666 23952
14666 24384
14668 16218
14668 21386
14668 22653
14668 22730
14670 21660
14671 16729
14672 21800
14673 20920
14673 21256
14673 22028
14674 24402
14675 23655
14675 23830
14676 17020
14676 22425
14678 19597
14678 20343
14678 20987
14679 21724
14680 21513
14681 14684
14681 14685
14681 14686
14681 15369
14681 21395
14681 22050
14681 22372
14682 15529
14682 23494
14683 14686
14684 14685
14686 15369
14687 17712
14687 18035
14687 21653
14687 22981
14688 17286
14688 17459
14689 15086
14689 15087
14689 17103
14690 23610
14691 15311
14693 17720
14693 22314
14693 22518
14695 16202
14696 15168
14697 15977
14697 20061
14699 14966
14699 16839
14699 21565
14700 24176
14702 21303
14704 15984
14704 18809
14707 24279
14708 17349
14708 19341
14709 23281
14710 14711
14710 15640
14710 23291
14710 23684
14712 14713
14714 15539
14714 16781
14714 17708
14714 21627
14714 22974
14715 15738
14716 15035
14716 15225
14717 23213
14717 23699
14718 15350
14719 16207
14720 18943
14721 19037
14721 22429
14722 19198
14724 20495
14725 18077
14726 20554
14726 20866
14727 23671
14727 23765
14727 23800
14727 24099
14728 19382
14729 17838
14730 17755
14730 21863
14731 23802
14732 16877
14732 16958
14732 20751
14733 16807
14734 16849
14734 17643
14734 20204
14734 22939
14735 22285
14735 23623
14737 15209
14737 16526
14737 16995
14737 17110
14737 18948
14737 21574
14737 22912
14738 16181
14738 18005
14738 22217
14739 18286
14739 18998
14740 16177
14741 17078
14741 17763
14742 21132
14743 14909
14743 16296
14743 19385
14744 16978
14744 21018
14745 15313
14745 18833
14745 23663
14746 16586
14747 23258
14748 23709
14748 23907
14750 19470
14751 17995
14751 18440
14751 18665
14751 18689
14751 19224
14752 15758
14752 16816
14753 17553
14753 18631
14753 19692
14754 19578
14755 14800
14755 20216
14755 21624
14756 24254
14756 24284
14757 21840
14757 22064
14758 17224
14759 23188
14760 17687
14761 15914
14761 18760
14761 22730
14762 15190
14762 18050
14762 19972
14762 21257
14763 22274
14763 23793
14763 23976
14764 23793
14765 15497
14765 18660
14766 22261
14766 23648
14766 24159
14767 20051
14768 15003
14768 20318
14769 18600
14769 20402
14770 18193
14771 20107
14772 17945
14772 19035
14773 15898
14773 21145
14773 22562
14774 17930
14775 14958
14775 15416
14776 20143
14776 22934
14778 15141
14778 16632
14778 19181
14779 15194
14779 16260
14779 23024
14781 17216
14781 17602
14782 21233
14782 22811
14783 18066
14784 15209
14784 16526
14784 21417
14784 21574
14785 21356
14786 22120
14787 20338
14787 21070
14787 23149
14789 23449
14789 23496
14790 15984
14790 18329
14790 22925
14791 22590
14792 23135
14792 23694
14792 24275
14793 23672
14793 23975
14793 24461
14794 20667
14794 22904
14796 23514
14797 23267
14798 17455
14799 19445
14799 20467
14800 17338
14800 18729
14800 21423
14801 16209
14801 20686
14801 21038
14802 23155
14802 23401
14803 18894
14803 19815
14803 21462
14804 19382
14804 22352
14804 22657
14806 15782
14807 17427
14807 17450
14807 17834
14807 20279
14808 15561
14808 16600
14808 18054
14808 23497
14810 21816
14812 21614
14813 20946
14813 21127
14814 15802
14815 23775
14815 24287
14816 17999
14816 20619
14817 22526
14818 15906
14819 16871
14819 17704
14820 19776
14821 16157
14821 19455
14821 20573
14822 17591
14823 19366
14824 22515
14825 17765
14825 18846
14826 20799
14826 20868
14827 15454
14827 21355
14829 18282
14830 15720
14830 16602
14830 18798
14832 17462
14832 21755
14833 15977
14833 16640
14833 17833
14833 18327
14833 18752
14833 18962
14833 19359
14833 20083
14833 20704
14833 21276
14833 22519
14834 16262
14835 21402
14836 15673
14836 17648
14836 20096
14836 23539
14837 21486
14837 23056
14838 21711
14840 16879
14840 18600
14844 16006
14846 15197
14846 20333
14848 15708
14849 23854
14849 23857
14851 15664
14851 21792
14852 14861
14852 16932
14852 22964
14853 16328
14853 16394
14854 15033
14854 19084
14854 20925
14854 22868
14855 18211
14855 20499
14855 22665
14856 23955
14856 24279
14856 24423
14857 15744
14857 20771
14858 16723
14859 21593
14859 21614
14860 16310
14860 16894
14860 19827
14863 21713
14864 15740
14864 17631
14864 20765
14865 19139
14865 21147
14866 14867
14866 15843
14866 15844
14867 14868
14867 14869
14867 19449
14868 14871
14868 15844
14869 14871
14869 19449
14872 15316
14873 17188
14873 18264
14873 20262
14874 15783
14874 18291
14874 18861
14874 21883
14874 21900
14874 22413
14875 20904
14875 21948
14876 15865
14876 20986
14877 15559
14877 15699
14877 16624
14877 16964
14877 18981
14877 19099
14877 20244
14877 20703
14877 22594
14877 22901
14878 16084
14879 17768
14879 17928
14879 18129
14879 23175
14880 17100
14881 21208
14884 17486
14884 18179
14885 17305
14885 18782
14888 16562
14888 19221
14889 15677
14889 15700
14890 19562
14891 18286
14891 18375
14891 18998
14892 15023
14892 17169
14892 18240
14893 20844
14894 15542
14894 21592
14894 22740
14895 17498
14895 19528
14895 19585
14895 23104
14896 18869
14896 18967
14896 21718
14896 21869
14896 22610
14896 23860
14897 15885
14897 16712
14897 17467
14898 16689
14899 16689
14900 14906
14900 19322
14900 19688
14900 21343
14900 22128
14901 17546
14902 19956
14903 19956
14904 15888
14904 15891
14904 15895
14904 16683
14904 16685
14904 23643
14905 16684
14906 19322
14906 22128
14907 19304
14907 19368
14907 21761
14907 22324
14909 18095
14910 23200
14910 23492
14911 16915
14911 23280
14912 20265
14913 16012
14913 20420
14913 20937
14915 24282
14916 16567
14916 17589
14917 24310
14918 20216
14919 18625
14920 15151
14920 19318
14921 15342
14921 15401
14921 16722
14921 17430
14922 18035
14924 17411
14925 19476
14926 17200
14927 16935
14927 16952
14927 21458
14927 21775
14928 15948
14928 19428
14928 20683
14928 23201
14929 15912
14929 16202
14929 20085
14929 22923
14929 23287
14929 23414
14930 22227
14932 15266
14932 19356
14932 21264
14933 15463
14933 16324
14933 16423
14933 17367
14933 18643
14933 19988
14933 20824
14933 21098
14933 21654
14933 21927
14933 22913
14934 15743
14934 15920
14934 22021
14937 15393
14937 15410
14938 16519
14938 22300
14939 18998
14940 15126
14940 15436
14940 15648
14940 15923
14940 16068
14940 16212
14940 17642
14940 18145
14940 18936
14940 19280
14941 16227
14942 23960
14943 15723
14946 15009
14946 20054
14947 19245
14947 19246
14948 24288
14950 18631
14950 21894
14952 15931
14952 19830
14952 21258
14953 16353
14953 17267
14953 19761
14954 18380
14954 23808
14955 16814
14955 19396
14955 19786
14956 17378
14956 20999
14957 16506
14957 18127
14957 20013
14958 15416
14958 15943
14958 17795
14961 22051
14962 16483
14963 17307
14963 17884
14963 21635
14964 16157
14964 16437
14965 15102
14965 16437
14965 18265
14966 16839
14967 15216
14967 18933
14968 16530
14968 18969
14968 20120
14968 23297
14969 15465
14969 17719
14969 20169
14969 20905
14969 21441
14969 22319
14969 23551
14972 15145
14973 23138
14975 19183
14977 19371
14978 16692
14978 18333
14978 20483
14978 20606
14978 23400
14979 15388
14979 15952
14979 20852
14979 22062
14979 22150
14980 15416
14980 15811
14980 21724
14981 15509
14981 16950
14981 21400
14982 16054
14982 18031
14988 20102
14989 20146
14989 21048
14989 22285
14990 21509
14990 22882
14991 15581
14991 20644
14992 17007
14992 20038
14993 17847
14993 20492
14993 20637
14993 23545
14994 19021
14995 24429
14996 20040
14997 21529
14997 22082
14998 15975
14998 20996
14998 23019
14999 15904
15000 23057
15001 15313
15001 16626
15001 19195
15001 22710
15001 23663
15003 20318
15004 20705
15005 23808
15005 23868
15007 23765
15007 24017
15007 24152
15008 22231
15009 20054
15010 17525
15010 17896
15010 18855
15010 21982
15011 15485
15011 20369
15013 21293
15013 22524
15015 18131
15015 21825
15015 22067
15015 23301
15017 17191
15017 18161
15017 19879
15017 23295
15018 19935
15018 22910
15019 15316
15021 15999
15021 19868
15021 20888
15021 22604
15021 23197
15022 18612
15022 21633
15023 17169
15023 17771
15023 18229
15023 18240
15023 18280
15023 19780
15025 20118
15027 19834
15028 21074
15029 19205
15030 15127
15031 19537
15031 20971
15031 21341
15031 22936
15032 18387
15032 20165
15032 22424
15032 22853
15033 15593
15033 15735
15033 16275
15033 17145
15033 18244
15033 20983
15033 21758
15033 22345
15034 22597
15034 23624
15035 15535
15035 15689
15035 19740
15035 19838
15036 18014
15036 22984
15036 23093
15037 19399
15037 21556
15038 16994
15038 22799
15039 18031
15040 15356
15040 16259
15041 15619
15041 17362
15041 17901
15042 22644
15042 22653
15043 18645
15043 19902
15044 15615
15045 16331
15045 22653
15047 18189
15047 23430
15049 18104
15049 19238
15049 20134
15049 20425
15050 16859
15051 16456
15051 18312
15051 20326
15052 15105
15052 15729
15052 16155
15052 16385
15053 16819
15053 19052
15053 19834
15053 22221
15053 23424
15053 23553
15054 16595
15054 16902
15054 18970
15054 18999
15054 19181
15054 20158
15055 15575
15055 18000
15058 20381
15059 18258
15059 19886
15063 15675
15063 18063
15063 18807
15063 20829
15063 22162
15063 22321
15064 15522
15064 16256
15064 20001
15064 21827
15064 22047
15064 22387
15064 23611
15065 21487
15066 17402
15066 17763
15068 17951
15068 19437
15068 19566
15070 15762
15070 17785
15072 17649
15073 21183
15073 22360
15075 20771
15077 16856
15078 19674
15079 20801
15080 15831
15083 21614
15084 16305
15084 21664
15085 19805
15085 22902
15086 17103
15086 20239
15086 20763
15086 23268
15086 23565
15087 17103
15087 20763
15087 23268
15088 24076
15089 21452
15089 21770
15090 17345
15090 17385
15091 17933
15091 19854
15091 23342
15091 23705
15092 17266
15093 21857
15094 18933
15095 16315
15095 19439
15096 22807
15096 23006
15097 17113
15098 21948
15099 16978
15099 20314
15100 15725
15100 20157
15100 22349
15101 17411
15102 17238
15103 17621
15103 17758
15103 18148
15103 21110
15103 21248
15103 22187
15103 23461
15105 18570
15105 22820
15106 20049
15107 20123
15107 22189
15108 16671
15108 20796
15109 19273
15110 19198
15110 21725
15110 22156
15110 22444
15110 22460
15110 23569
15111 17341
15111 20421
15112 18929
15112 22458
15113 19852
15113 22432
15115 20771
15116 15127
15116 17264
15119 21339
15120 16674
15121 19418
15121 19834
15121 19926
15121 22975
15122 17462
15122 17660
15122 21756
15123 15631
15125 15332
15125 15721
15125 16553
15125 17321
15125 17571
15125 19177
15125 22287
15125 23552
15126 17642
15126 18680
15126 20291
15126 22208
15127 17098
15127 17264
15127 18068
15128 19339
15129 17800
15129 19189
15129 21124
15129 21520
15130 20814
15130 22165
15133 21614
15134 16593
15134 17565
15134 19554
15134 21837
15135 16748
15135 18960
15135 22193
15135 23098
15139 15772
15139 18640
15139 19393
15140 20164
15141 19181
15142 17148
15145 16349
15145 16797
15145 17773
15145 18210
15145 18490
15145 19381
15145 19732
15145 19750
15145 20187
15145 21165
15145 21437
15145 22271
15145 22290
15145 22550
15147 20056
15147 20254
15147 21547
15148 15578
15148 21100
15148 24407
15149 15509
15149 16950
15149 18384
15149 21888
15150 16495
15151 15336
15151 16179
15151 16287
15151 18517
15151 18673
15151 19159
15151 19318
15151 19760
15151 21709
15151 22025
15152 16757
15152 19464
15153 24260
15154 17305
15154 18782
15154 20107
15155 22154
15156 18377
15156 20894
15156 22326
15158 15824
15158 20305
15159 19040
15160 19180
15160 19370
15160 20866
15160 23382
15161 16219
15161 21501
15161 22188
15162 16438
15163 20422
15164 15460
15164 18973
15164 23164
15164 23184
15165 17029
15165 20576
15165 21251
15166 15414
15166 17426
15167 18285
15167 20447
15167 22634
15167 22809
15168 19738
15169 22762
15171 18975
15171 20364
15171 20629
15172 16173
15172 17209
15173 15700
15173 20402
15174 16754
15176 23597
15177 19601
15178 15698
15178 19065
15179 16758
15179 23827
15180 19162
15182 15627
15182 19510
15182 20043
15182 21479
15182 22135
15183 15940
15184 17340
15184 17414
15185 17093
15186 22287
15186 23552
15187 20366
15187 22721
15188 17958
15189 22676
15189 22919
15190 19972
15190 20717
15192 21868
15193 19121
15194 18301
15194 18580
15194 20354
15194 23024
15195 16191
15195 21465
15196 16191
15196 20590
15197 20333
15197 22447
15197 23182
15198 17101
15199 20886
15200 16191
15200 20590
15201 15602
15201 16913
15201 16925
15201 17938
15201 20320
15201 20332
15201 21012
15201 21192
15201 21588
15201 22298
15202 18220
15202 18630
15202 22931
15205 16927
15206 15812
15207 16411
15207 18427
15207 18869
15207 18967
15207 19286
15207 22001
15207 22539
15207 23561
15207 23580
15208 18382
15208 21412
15209 16995
15209 17110
15210 17806
15211 16552
15211 21764
15211 23459
15212 19022
15212 22329
15213 17228
15213 17917
15213 19820
15214 17554
15214 18548
15214 23123
15215 20144
15216 19800
15217 19947
15217 21360
15218 17886
15219 23929
15220 18980
15222 21658
15223 18994
15224 19677
15227 15538
15227 18261
15227 19018
15227 21894
15228 21452
15228 21770
15229 22053
15230 15932
15230 19459
15231 15433
15232 22333
15233 17269
15233 19661
15235 16169
15235 20312
15235 22377
15235 23018
15236 16768
15236 17447
15236 18632
15236 20973
15237 22377
15237 23018
15238 17560
15238 20934
15238 22555
15238 22828
15239 15394
15239 16371
15239 20459
15240 15650
15240 16139
15240 17408
15240 18566
15240 18729
15240 19742
15240 21195
15242 18380
15242 22571
15243 16177
15245 21585
15246 15409
15246 15579
15246 18764
15246 19496
15246 20764
15246 22007
15247 16978
15248 20660
15249 16297
15249 20554
15250 17206
15250 19047
15250 22003
15251 18370
15252 15577
15252 22110
15253 17054
15254 23623
15255 15460
15255 18973
15255 23184
15256 18243
15256 19247
15256 19478
15256 24432
15257 15876
15257 21906
15258 19473
15260 16664
15260 19779
15261 16076
15262 22456
15262 23762
15264 15670
15266 19356
15266 19969
15266 21264
15268 18680
15269 16802
15269 18335
15269 20298
15269 20665
15270 17206
15270 19047
15270 19666
15270 22003
15271 15968
15271 22072
15272 17033
15273 17852
15273 22715
15274 16101
15274 22927
15275 19654
15275 20679
15276 15663
15276 16746
15277 15400
15277 17203
15277 23200
15278 23338
15279 22691
15280 21921
15281 17288
15281 23159
15283 17288
15283 23165
15284 22962
15286 20152
15286 20202
15286 21971
15286 23407
15287 19778
15287 21345
15287 21820
15289 16255
15289 22348
15291 22267
15292 19571
15292 22734
15293 15779
15293 17828
15293 18753
15293 23011
15294 16072
15294 16148
15294 20432
15295 16200
15295 17315
15296 23776
15296 23792
15296 23992
15298 18511
15298 19283
15299 23310
15300 22475
15301 21029
15305 16771
15305 23243
15306 19824
15306 22735
15308 23326
15309 23955
15309 24279
15310 23282
15311 21749
15312 23817
15312 24222
15313 16626
15313 18833
15313 20274
15313 23663
15314 15489
15314 22054
15314 22387
15314 23533
15315 15389
15315 16277
15315 17947
15315 22618
15315 22696
15317 23932
15319 17431
15319 23652
15322 15351
15322 19371
15322 22281
15323 17343
15323 19831
15324 18087
15325 16377
15326 21583
15327 16374
15328 20220
15329 21606
15329 22795
15330 19007
15330 20315
15330 21005
15330 22962
15331 22890
15331 23002
15332 20376
15332 21394
15332 22287
15334 18376
15334 21907
15335 20777
15336 19318
15337 18699
15337 21284
15337 23290
15339 17359
15339 21401
15339 23126
15340 22307
15341 20476
15342 16722
15343 23028
15344 20742
15344 21618
15344 21741
15346 18846
15347 22984
15348 20437
15350 16784
15350 17456
15350 18230
15350 18422
15350 18962
15350 19359
15350 20399
15350 21128
15350 21712
15350 21809
15350 22418
15350 23858
15351 16507
15351 16729
15351 17125
15351 19371
15351 20656
15351 22191
15351 22199
15351 22281
15352 17194
15352 18195
15352 18770
15352 23182
15353 16239
15353 16630
15353 20629
15353 22371
15354 16440
15355 19381
15355 21437
15355 22290
15356 15400
15357 19692
15358 15808
15359 22849
15360 15927
15360 15949
15360 17954
15360 18868
15360 19168
15360 23518
15362 18058
15362 19973
15363 18175
15363 19053
15363 23289
15365 17786
15365 22334
15366 15520
15366 18644
15366 20660
15367 24173
15367 24458
15369 15370
15369 22050
15370 15371
15370 22564
15370 23140
15371 15373
15371 21314
15372 16213
15372 18998
15373 23140
15374 16979
15374 18873
15374 22034
15375 15641
15375 15644
15376 16916
15378 21927
15378 22913
15380 22286
15381 16383
15381 16443
15381 19924
15381 20401
15381 22858
15383 22048
15384 21834
15386 20921
15387 23792
15387 23990
15387 24420
15388 15952
15388 17984
15389 19227
15390 16074
15390 23109
15394 17193
15394 20107
15395 21593
15397 17183
15397 17858
15397 18025
15398 22820
15399 21257
15400 17083
15400 18144
15400 19130
15400 20462
15402 17507
15402 18724
15402 20929
15402 21806
15402 22163
15403 16569
15403 17175
15403 20337
15405 24476
15406 15905
15406 16489
15406 17934
15406 21626
15407 15538
15407 16581
15408 19431
15408 19987
15408 20185
15409 19496
15409 20764
15411 20132
15411 22259
15413 19155
15413 22390
15414 21042
15416 15943
15416 17795
15416 24415
15417 16778
15417 17879
15417 18056
15417 19048
15417 19895
15417 20660
15417 23751
15418 19111
15421 22138
15422 24111
15423 16156
15423 23121
15424 16743
15424 17469
15425 16544
15425 19072
15425 19164
15426 19050
15427 20861
15427 21556
15429 17121
15430 21403
15430 22768
15431 22894
15432 17043
15432 20009
15433 22850
15434 16151
15434 18077
15434 19731
15434 21116
15434 22992
15434 23373
15436 18680
15437 19823
15437 20261
15437 23146
15438 21710
15438 23468
15438 23519
15439 22930
15440 16516
15440 20649
15440 23302
15441 22005
15441 22116
15442 18426
15442 20289
15443 16127
15443 21638
15443 22202
15444 16613
15445 19022
15445 20268
15445 20693
15445 20945
15445 21223
15446 17436
15446 19903
15446 20922
15448 19395
15450 19445
15450 23170
15451 16675
15451 18666
15452 16280
15452 18274
15452 22512
15454 15811
15454 18132
15456 16072
15456 17309
15456 17803
15457 15458
15458 22138
15459 17591
15459 22537
15460 18973
15460 23164
15461 23905
15462 17854
15462 18065
15462 22063
15464 18782
15465 21349
15466 17084
15466 18493
15466 20378
15467 16706
15468 18722
15469 18998
15469 22005
15470 15903
15470 18004
15470 18534
15470 22154
15471 22059
15471 22969
15471 23628
15472 22138
15473 16137
15473 17018
15473 23304
15474 16111
15474 18775
15474 19963
15474 22225
15475 19400
15476 19202
15476 21455
15476 21489
15477 22144
15477 23609
15478 15479
15479 15480
15480 19614
15480 22528
15482 17772
15483 18006
15483 19811
15483 19977
15484 20663
15484 22738
15485 19166
15485 19964
15485 20369
15488 18005
15488 20751
15488 22217
15489 23533
15490 17887
15491 15514
15493 17838
15495 19202
15495 21455
15497 20207
15498 15819
15498 16532
15498 16868
15498 18275
15499 19986
15500 15695
15500 15718
15500 19109
15500 21334
15500 22352
15500 22544
15501 21192
15503 20518
15503 23452
15504 22064
15505 22210
15507 21557
15507 21559
15507 22684
15508 21557
15508 21559
15508 22684
15509 16542
15509 16950
15511 16394
15511 17616
15512 23856
15512 24113
15513 15845
15514 20458
15515 15991
15517 15998
15517 16728
15517 20226
15518 18453
15519 17411
15519 20144
15519 23102
15520 20660
15521 17694
15521 18093
15521 20788
15521 22274
15521 23043
15522 16589
15522 20001
15524 19318
15525 15526
15525 23486
15526 18891
15526 23486
15527 16701
15527 18584
15527 19342
15527 19483
15527 20507
15527 22369
15527 23866
15529 18052
15529 23494
15530 19696
15530 19826
15530 20275
15531 18043
15531 20664
15531 20839
15532 22990
15533 23296
15536 20896
15537 23425
15538 15704
15538 16242
15538 16581
15538 16777
15538 17739
15538 18085
15538 18261
15538 19228
15538 20453
15538 20718
15538 21442
15538 21822
15538 21894
15538 21956
15538 22801
15538 22826
15538 23074
15539 21393
15541 16402
15542 22740
15543 21770
15544 18631
15544 20718
15545 15735
15545 17498
15546 18375
15546 18998
15546 23100
15547 16248
15548 16921
15548 21615
15548 21852
15549 17687
15550 20295
15550 20604
15550 21931
15550 22259
15551 18286
15551 22116
15551 23100
15552 19785
15553 17992
15553 19318
15553 20107
15555 19427
15556 20342
15558 16839
15558 22144
15559 19361
15559 23369
15560 19675
15560 23909
15560 23912
15560 24070
15560 24477
15561 22044
15563 17266
15564 18082
15564 18309
15564 18712
15565 20495
15566 16194
15566 17096
15566 18631
15566 22365
15568 19174
15569 16907
15569 22235
15570 20660
15572 17094
15573 17304
15574 15805
15574 21398
15575 19520
15577 22110
15578 18414
15578 21100
15578 24407
15579 19496
15579 20764
15579 22007
15580 23064
15580 24274
15582 19805
15582 21634
15583 19562
15586 22751
15587 18558
15587 19129
15588 15614
15588 18306
15589 17661
15590 16196
15591 22904
15592 24281
15592 24379
15593 19084
15593 20925
15593 22868
15594 21293
15594 22524
15595 21029
15596 18882
15597 17404
15598 17762
15598 17926
15598 22406
15599 16161
15600 19856
15601 17434
15602 20320
15603 16469
15603 16944
15604 18282
15604 19930
15604 20896
15605 18326
15605 23217
15605 23996
15605 24407
15606 18261
15606 18631
15607 21567
15609 20884
15609 23808
15610 20653
15610 21488
15610 21671
15611 20503
15611 21512
15612 16329
15612 17801
15612 18881
15612 21848
15612 23450
15613 18468
15614 20416
15614 20778
15615 15629
15615 16959
15615 17210
15615 20924
15615 21256
15615 21310
15616 17734
15616 17737
15616 20932
15616 21496
15617 22027
15618 19131
15618 20570
15618 22286
15619 16651
15619 18582
15619 19724
15620 17040
15620 19161
15620 19976
15620 23259
15621 17032
15622 17590
15623 19102
15623 22827
15624 19674
15625 17621
15625 19620
15625 23461
15626 19366
15627 21479
15627 21698
15628 20924
15628 21256
15628 23352
15629 19693
15629 22510
15630 20827
15630 20910
15630 21529
15632 20107
15632 20376
15632 22287
15633 18524
15634 17988
15634 21000
15635 16675
15636 19371
15636 23369
15637 18474
15637 19587
15638 16682
15639 20353
15640 17079
15641 15642
15641 15643
15641 15644
15641 15647
15641 16988
15642 15643
15642 15645
15642 19093
15643 15647
15644 15647
15644 16988
15645 15647
15645 19093
15646 17563
15648 15923
15648 16212
15648 18680
15648 20291
15648 20797
15648 21189
15648 21325
15649 17990
15649 19568
15649 20842
15649 21634
15649 22881
15649 23386
15650 16586
15650 18433
15650 19742
15651 23026
15652 18624
15653 16655
15653 19076
15654 22587
15656 23823
15657 17504
15658 18542
15658 18964
15659 23383
15660 20955
15663 16746
15663 21033
15664 17414
15664 21792
15665 18669
15665 22886
15666 15731
15668 17025
15669 17740
15669 18173
15670 19636
15670 22625
15670 22645
15671 19970
15671 22465
15672 20989
15672 23589
15674 19492
15674 22611
15674 24325
15675 19929
15677 15700
15678 17305
15678 18782
15681 17910
15682 17765
15682 18846
15683 19147
15683 22941
15684 20771
15685 19988
15685 22040
15685 23121
15686 15766
15686 22873
15686 23601
15687 19939
15687 21614
15688 22179
15689 19509
15689 19838
15689 20657
15690 17922
15691 18947
15691 19798
15691 21727
15692 17447
15692 20973
15693 18644
15695 15718
15695 22352
15696 16866
15696 17494
15696 21587
15697 17465
15697 17467
15698 19065
15698 23874
15698 24071
15699 19371
15699 23369
15702 17972
15702 18828
15702 24323
15703 21593
15703 21614
15704 16581
15704 18261
15704 18661
15704 19634
15704 20718
15704 21894
15704 21956
15704 22801
15704 22826
15704 23074
15705 17025
15705 17410
15705 21611
15705 21732
15705 22756
15706 16777
15706 19074
15707 16942
15707 19637
15708 20240
15710 17075
15710 18111
15710 21207
15710 24189
15711 20144
15712 21129
15712 22904
15713 17656
15715 15732
15715 18035
15715 20854
15716 16278
15716 21774
15716 22385
15716 22838
15717 17675
15718 21334
15718 22352
15718 22544
15718 23573
15721 20376
15721 21394
15721 22287
15723 16172
15723 16359
15724 15739
15726 18175
15726 23289
15727 21975
15728 20274
15728 23663
15729 18570
15729 22578
15730 20726
15732 17712
15732 18035
15733 17877
15733 18364
15733 20540
15733 21449
15734 15749
15734 16421
15734 19131
15734 21041
15734 21328
15734 22286
15735 16362
15735 17484
15735 20700
15737 20880
15738 17219
15738 21308
15739 22879
15740 20765
15740 20777
15740 23745
15741 18799
15741 19480
15741 23247
15743 22021
15744 20771
15745 17074
15746 17017
15746 22330
15747 19547
15749 18253
15750 16394
15750 17616
15753 17419
15753 19913
15753 21673
15757 20177
15757 22571
15758 16028
15759 23529
15759 24326
15760 19318
15760 22025
15763 17224
15765 18683
15765 22740
15765 22843
15767 23952
15767 24053
15768 23911
15768 23965
15769 23425
15770 17971
15770 19303
15772 18640
15773 19329
15774 18074
15774 19153
15774 19167
15774 21637
15774 24404
15775 16190
15776 23987
15776 24057
15778 22242
15780 17216
15780 17602
15781 21795
15782 22849
15783 18781
15784 18494
15785 18417
15785 19647
15786 16949
15786 17935
15786 18403
15786 22872
15789 18047
15790 19172
15791 19956
15792 16898
15792 19596
15792 20048
15793 23080
15794 18178
15794 20397
15795 21109
15796 18835
15796 20962
15796 22933
15798 15991
15798 17687
15799 17757
15801 18288
15801 20437
15802 19607
15803 18262
15804 21872
15805 15830
15805 16967
15805 19644
15806 16053
15806 20024
15807 16714
15809 21943
15810 19021
15810 22439
15810 23690
15811 22337
15812 15880
15812 16461
15812 17171
15812 17787
15812 22262
15813 18257
15813 19642
15814 18199
15814 22140
15815 23694
15815 24006
15816 19318
15818 16770
15818 19003
15818 21181
15818 21392
15818 21568
15818 22303
15818 23208
15818 24077
15819 16868
15819 21320
15821 21301
15822 17817
15822 18844
15822 20329
15822 23444
15823 19898
15824 20305
15825 20692
15825 21537
15826 15991
15826 21556
15826 22156
15827 16030
15827 17593
15827 20534
15828 18796
15828 22045
15829 19318
15829 22025
15832 15837
15833 15837
15834 15836
15834 15837
15834 15838
15834 21496
15835 19606
15836 21229
15838 21229
15839 18806
15839 19567
15840 16267
15840 21614
15841 20798
15843 15844
15845 21782
15846 16994
15848 23765
15848 23970
15849 15850
15849 16884
15849 18626
15849 18827
15849 21494
15850 19806
15850 21936
15850 23199
15851 18961
15852 15855
15852 15858
15852 16887
15852 18029
15853 15854
15853 15858
15854 15855
15854 15858
15854 18029
15855 15856
15855 16887
15856 15858
15856 15859
15856 18029
15856 19663
15857 15859
15857 15861
15857 15862
15857 16889
15857 19663
15858 15860
15858 15861
15858 16885
15858 16890
15858 18029
15858 19663
15858 22802
15859 15861
15859 15863
15859 16885
15859 19663
15859 22802
15859 23642
15860 16889
15860 19663
15861 15862
15861 16885
15861 16886
15861 16889
15861 16890
15861 19663
15861 23642
15862 15863
15862 16885
15862 16890
15862 17825
15862 22802
15863 16889
15863 19663
15864 24175
15864 24403
15866 17100
15866 18121
15866 22393
15868 17561
15868 17727
15868 19151
15868 19191
15868 19345
15868 19686
15868 20139
15868 20965
15868 21084
15868 21094
15868 22085
15868 22246
15868 23834
15869 16130
15869 22462
15870 16130
15870 17539
15870 22462
15870 23316
15871 16208
15871 17513
15871 18436
15871 21167
15873 18000
15873 18338
15873 19520
15873 21620
15874 21367
15876 23434
15877 17390
15877 17411
15877 20144
15877 22361
15877 23039
15877 23236
15878 16698
15878 22401
15879 23786
15879 23999
15879 24053
15881 20719
15882 19776
15882 19954
15883 16461
15883 17171
15883 17756
15884 19382
15885 16712
15886 15891
15886 16912
15887 18998
15887 23100
15888 16683
15888 18865
15890 19215
15891 16685
15892 24016
15892 24050
15892 24452
15893 17915
15893 18260
15893 19294
15893 22674
15893 23137
15894 15895
15894 16683
15895 18865
15896 17847
15897 20967
15898 21145
15899 16994
15900 17248
15900 20110
15900 22728
15901 16529
15901 17924
15901 19733
15901 20976
15904 17880
15904 22913
15905 21626
15906 16582
15906 22762
15907 17646
15909 21844
15909 24011
15910 21844
15912 16202
15912 16392
15912 20085
15912 22169
15914 18487
15914 22730
15915 16377
15916 17786
15917 16805
15917 21635
15917 22315
15919 22893
15919 23417
15919 24024
15922 16763
15922 19217
15922 20059
15923 17642
15923 18680
15924 18937
15924 20163
15924 21066
15925 18311
15925 19518
15926 16986
15926 21134
15929 16055
15929 17939
15929 20097
15929 21613
15929 21835
15929 22808
15929 23435
15930 17028
15930 17747
15930 20831
15931 19830
15931 21897
15931 22864
15931 22876
15933 17632
15933 20405
15933 21717
15934 19662
15934 22920
15935 19302
15936 17751
15936 19353
15936 19672
15936 21175
15936 22798
15937 20376
15937 22287
15938 23412
15940 20116
15940 22379
15941 17378
15944 17470
15944 19797
15944 22370
15944 22796
15945 22437
15947 22692
15947 22854
15948 17213
15948 19428
15950 18873
15950 21062
15950 22034
15951 19826
15951 21235
15952 22193
15952 23253
15953 18940
15954 19178
15954 21393
15954 21970
15954 23380
15956 18117
15956 19525
15956 22952
15957 20776
15958 16457
15958 16567
15958 17589
15958 18510
15958 20891
15959 21035
15960 19054
15961 20122
15962 17992
15963 16873
15963 17399
15963 17817
15963 17837
15963 18866
15963 19858
15963 20329
15963 22147
15963 23437
15963 23444
15964 23100
15965 18918
15965 23531
15966 17033
15966 21242
15967 21048
15967 21133
15967 23094
15967 23416
15968 22072
15968 22565
15969 17011
15971 16789
15971 18234
15972 16169
15972 22888
15973 21262
15974 16933
15975 19316
15975 19757
15975 20996
15975 21089
15978 24078
15978 24325
15979 16568
15979 16923
15980 19027
15980 21503
15981 22240
15982 18258
15984 17134
15984 18437
15984 22925
15985 16067
15985 21696
15986 22106
15986 23965
15987 16488
15987 17050
15987 17927
15987 20819
15988 18379
15988 18654
15988 19291
15988 21925
15988 22943
15989 23418
15991 16014
15991 16842
15991 17687
15991 17797
15991 18507
15991 18949
15991 19198
15991 19700
15991 19802
15991 19941
15991 20127
15991 20159
15991 20487
15991 20567
15991 20672
15991 21164
15991 21579
15991 22156
15991 22717
15992 22053
15993 18769
15996 16754
15997 17328
15997 23644
15998 17102
15998 20094
15999 17037
15999 20888
15999 22604
16001 17078
16001 17402
16001 22511
16002 19851
16002 23259
16003 19656
16005 20674
16006 17296
16006 18162
16007 19348
16007 21480
16008 23828
16010 20572
16010 21074
16010 22102
16012 20420
16012 23258
16015 16819
16015 19052
16015 19418
16015 19834
16016 20669
16018 23912
16018 23947
16018 24020
16019 19092
16021 18867
16021 23557
16022 24035
16026 16659
16026 22248
16028 16816
16029 20572
16029 21074
16030 17593
16031 18563
16032 16865
16033 16035
16033 16048
16033 16058
16033 16060
16033 16062
16034 16040
16034 16045
16034 16057
16035 16058
16035 16060
16036 16045
16036 16047
16036 16049
16037 16038
16037 16051
16037 16057
16037 16060
16038 16059
16039 16040
16039 16044
16040 16051
16040 16065
16041 16057
16041 17350
16042 16049
16042 17350
16043 16046
16043 16047
16043 16061
16043 16063
16044 16045
16044 16046
16044 16047
16044 16049
16045 16049
16046 16047
16048 16058
16051 16063
16054 16115
16054 17063
16054 17297
16054 18147
16054 18439
16054 18875
16054 19033
16054 20510
16054 23493
16055 17058
16055 19435
16056 19975
16057 16058
16057 16060
16057 16061
16057 16062
16060 16062
16063 16065
16064 18958
16066 19767
16066 21102
16067 21944
16067 21989
16068 18680
16069 20179
16069 21698
16071 23466
16072 16148
16072 17803
16072 20324
16072 20432
16073 16859
16073 21841
16074 16075
16076 16300
16076 17086
16076 17127
16076 17324
16076 17403
16076 18089
16076 19624
16076 20168
16076 20285
16076 21632
16076 22591
16078 17096
16078 20718
16079 22182
16080 17687
16080 22004
16085 23108
16086 17711
16086 19073
16086 20148
16086 20815
16087 17690
16087 18988
16087 18989
16087 19996
16088 22365
16089 22143
16089 22937
16091 20458
16093 22757
16094 18493
16094 18681
16096 24402
16097 17890
16097 20134
16097 21267
16098 16908
16099 21178
16102 18355
16103 16110
16103 16111
16103 17095
16103 18775
16103 19962
16103 19963
16103 22225
16104 16111
16104 17095
16104 18775
16104 19963
16104 22225
16105 17095
16105 19963
16105 22225
16107 21083
16108 21373
16108 21374
16109 17046
16109 17940
16110 16111
16110 17095
16110 19963
16111 17095
16111 22225
16113 19004
16113 23615
16115 20510
16116 17635
16116 17781
16116 20921
16117 22138
16118 21356
16118 21993
16119 24189
16120 16317
16121 18926
16121 21609
16121 22196
16122 16937
16122 19937
16122 20959
16123 18457
16123 18531
16123 23674
16127 21638
16128 21140
16129 19887
16130 23316
16131 16645
16131 17106
16131 20509
16132 16865
16132 17830
16133 18527
16133 18978
16133 22394
16134 19164
16134 19753
16134 20955
16135 16700
16135 17066
16135 20300
16136 21452
16136 21770
16138 16368
16138 17084
16138 17832
16138 18584
16138 20363
16138 20940
16138 21327
16138 22223
16139 20473
16140 16153
16140 17444
16140 17445
16140 17446
16141 23770
16141 24273
16144 24349
16145 16758
16146 16167
16147 17462
16147 21262
16148 17803
16148 20432
16149 17096
16149 18631
16150 19929
16152 17445
16152 17448
16153 17444
16153 17445
16153 17446
16154 17353
16154 19927
16155 18570
16155 22820
16156 19988
16156 23121
16157 17187
16157 18384
16157 18894
16157 21400
16157 21462
16157 21941
16158 18631
16159 16947
16162 22785
16164 20640
16164 23102
16164 23888
16165 21684
16166 20306
16168 16975
16168 21211
16169 23018
16170 21090
16171 23258
16173 16453
16173 16869
16173 17153
16173 19749
16174 21554
16174 24490
16175 18571
16175 20899
16178 17046
16178 17940
16179 19318
16179 19682
16180 17305
16180 18782
16182 17527
16182 17580
16182 18616
16183 19066
16183 20417
16183 21058
16184 16706
16184 17716
16185 16851
16187 19923
16188 23635
16188 24058
16188 24275
16189 20585
16191 16735
16191 21465
16194 17096
16194 18238
16194 18391
16194 19564
16194 19890
16195 19813
16196 21060
16196 21551
16197 16201
16197 17327
16197 19876
16198 21257
16199 21205
16199 21513
16200 17315
16200 17319
16201 19876
16202 23414
16203 18843
16203 22816
16204 16205
16204 16206
16206 20024
16207 18853
16208 17513
16208 18436
16209 16847
16209 20686
16211 16639
16211 22586
16213 18113
16213 19573
16213 22549
16214 22365
16214 23502
16218 18588
16218 23183
16219 18114
16219 18551
16219 21501
16220 22164
16221 17180
16221 22863
16221 23118
16222 23813
16222 23833
16222 23912
16222 24078
16223 18522
16223 20972
16223 21053
16223 22493
16223 22676
16224 23126
16226 17260
16226 19182
16226 23319
16227 18886
16230 16826
16230 17697
16230 19440
16230 20041
16231 18905
16232 17267
16234 16738
16234 17683
16236 17466
16237 20719
16238 22832
16239 16630
16240 24191
16240 24194
16241 17785
16241 18998
16241 20107
16242 20718
16242 22266
16242 23532
16243 18144
16243 19130
16243 20243
16245 20452
16245 21481
16245 23852
16246 21859
16246 22056
16246 22709
16247 17207
16248 17266
16248 18540
16250 23952
16250 23999
16251 17765
16251 18846
16252 17278
16252 17475
16252 20473
16252 23614
16253 17031
16253 23458
16254 17362
16254 17901
16254 22956
16254 23793
16255 21123
16255 22008
16256 18489
16257 17248
16257 17495
16258 21599
16261 22674
16263 18580
16263 23096
16264 23096
16265 19751
16265 20333
16266 19178
16266 19822
16267 16636
16268 18925
16268 19866
16269 18083
16269 19782
16269 19974
16269 20954
16271 17784
16271 23098
16272 21899
16272 22597
16272 23605
16274 17249
16274 19455
16275 16362
16275 17578
16275 19084
16275 20700
16275 20925
16275 22868
16275 23028
16278 17438
16278 22838
16279 18246
16279 19254
16279 22163
16283 20435
16284 19090
16285 18178
16286 17841
16286 23195
16287 19318
16287 22025
16288 16648
16288 18812
16288 19334
16288 21600
16289 21658
16290 18362
16290 19443
16291 21763
16293 16999
16293 18737
16293 20313
16294 17148
16295 23647
16299 17992
16299 19318
16299 20107
16300 17403
16300 22591
16301 17830
16303 21181
16304 16342
16304 18961
16304 19368
16304 21761
16305 21658
16305 21664
16307 22295
16308 18984
16309 22535
16310 19827
16311 19797
16312 17094
16313 22287
16313 23552
16315 21197
16317 19176
16317 21171
16317 21406
16317 22492
16317 22775
16318 17959
16318 20302
16318 22069
16318 23112
16319 23949
16319 24321
16320 23305
16321 24017
16321 24446
16322 17277
16322 19332
16322 21702
16322 23683
16323 24221
16323 24222
16324 20824
16325 19981
16327 16861
16327 22227
16328 16394
16329 16619
16330 19923
16331 16943
16331 17151
16331 22342
16332 24177
16332 24225
16333 22349
16337 21181
16337 22885
16339 21338
16340 22138
16341 16733
16341 21385
16342 18961
16342 23535
16343 16852
16343 22081
16344 17746
16344 19022
16347 20568
16348 22005
16349 17322
16349 17773
16349 17961
16349 18210
16349 19732
16350 16555
16350 17707
16350 20253
16351 23006
16352 23372
16353 20344
16354 19319
16355 21149
16358 21821
16358 22097
16358 22914
16358 23161
16360 20729
16360 20776
16360 20964
16362 17498
16362 21731
16365 18371
16366 22364
16366 22366
16366 22367
16366 23371
16367 24225
16367 24312
16368 18586
16369 23765
16371 17193
16371 20107
16372 20137
16373 17343
16374 18339
16374 18608
16375 17117
16376 22419
16377 22560
16378 22238
16378 24048
16378 24154
16379 18346
16379 23276
16380 16754
16381 18193
16381 19191
16382 16593
16382 18221
16382 19537
16382 19554
16382 20037
16382 20235
16383 20401
16383 23103
16384 18580
16386 23738
16386 23820
16387 18286
16387 18998
16389 21700
16390 17422
16390 18416
16391 20661
16391 21020
16392 16921
16393 23792
16393 23945
16394 18710
16394 21966
16396 19431
16396 19987
16400 21009
16402 16525
16402 21887
16403 19355
16404 17305
16404 20107
16405 22914
16406 23766
16407 17674
16407 21753
16407 21834
16408 24349
16409 21402
16409 22940
16410 16469
16411 18967
16411 21869
16412 16702
16412 18388
16412 19372
16412 21422
16412 23062
16413 19404
16413 22635
16413 22637
16414 21748
16416 20554
16416 20866
16416 21502
16416 22671
16417 19914
16420 21381
16421 17124
16421 20044
16422 19862
16422 20689
16423 16659
16425 16511
16425 17748
16425 20108
16425 20544
16425 21076
16426 21011
16427 17510
16427 22416
16427 22624
16427 23288
16428 16506
16429 21824
16429 22359
16430 16963
16430 21256
16431 16768
16431 20973
16433 23306
16435 17712
16436 17794
16437 17238
16438 19013
16438 23267
16440 16973
16440 18297
16441 20473
16441 20838
16441 21910
16441 22689
16441 22694
16444 17003
16445 17003
16445 23982
16447 21722
16448 22138
16449 24123
16451 22716
16452 16657
16452 17435
16452 22927
16454 22710
16454 22716
16455 18355
16455 19040
16455 20355
16457 19022
16457 19839
16459 17814
16459 21470
16459 22477
16460 17426
16460 21042
16461 22641
16462 17767
16462 23366
16463 23719
16463 23805
16463 24318
16464 16845
16464 23473
16466 23784
16468 23023
16469 17336
16469 17822
16469 18302
16469 18407
16469 19207
16469 20098
16469 20619
16469 20723
16469 22252
16470 24129
16471 19235
16471 24008
16472 18142
16472 18665
16472 20879
16472 22101
16473 23931
16474 17971
16475 21487
16478 19022
16479 20129
16479 21872
16484 17436
16484 20922
16486 17243
16487 22655
16488 23230
16489 19560
16489 21626
16491 17697
16492 20467
16492 23170
16493 21150
16493 22921
16495 16950
16495 21400
16495 21462
16496 20306
16496 20533
16497 21554
16499 19129
16499 23450
16500 16854
16502 18713
16502 18993
16504 23449
16504 23496
16505 16932
16506 17986
16506 20351
16506 20873
16506 22656
16506 23581
16508 19205
16509 17548
16510 19215
16513 20418
16513 20431
16514 19719
16515 17305
16515 22856
16517 17002
16517 18237
16517 19318
16517 19412
16517 22025
16518 18782
16519 19602
16520 18442
16521 22053
16522 22664
16522 23722
16523 19694
16523 20497
16523 23010
16526 20385
16527 24199
16527 24225
16528 17501
16528 19484
16529 19733
16533 20558
16533 22614
16535 17992
16535 18166
16535 19083
16535 20202
16535 20508
16535 20947
16535 22383
16535 23049
16536 22184
16536 22812
16537 18718
16537 19042
16537 20651
16538 19582
16540 17096
16543 18051
16543 21674
16545 23594
16546 18036
16546 18434
16546 19014
16546 19495
16546 20340
16547 16937
16547 18946
16548 19433
16548 22670
16548 23228
16549 17933
16549 23705
16553 22287
16554 20498
16556 21614
16557 18822
16557 18824
16558 18012
16560 17345
16560 17781
16562 19221
16562 19904
16563 20991
16563 23054
16565 20986
16568 16923
16570 16926
16570 19141
16570 21804
16570 22017
16571 22979
16572 18096
16572 18759
16572 21364
16572 21748
16573 18320
16573 19966
16573 21917
16573 22501
16574 16978
16574 21018
16575 18648
16576 23326
16578 18584
16578 20715
16578 23245
16580 23242
16581 16957
16581 21287
16581 21894
16581 22266
16584 17754
16584 20350
16584 21234
16584 21612
16584 22353
16584 23138
16586 18433
16586 18633
16587 19388
16588 20503
16590 20640
16590 21856
16592 17320
16592 19208
16592 19910
16593 16897
16593 17565
16593 18221
16593 18594
16593 19554
16593 20037
16593 20235
16598 21556
16598 23429
16600 22044
16602 19386
16603 24225
16604 19421
16604 19450
16605 23729
16605 24032
16605 24446
16606 17130
16606 19683
16606 20391
16607 19295
16608 20189
16609 17046
16610 19358
16612 17526
16612 19535
16612 19568
16613 19519
16614 18442
16614 22844
16615 18201
16615 21580
16615 21814
16616 24383
16618 17562
16618 18163
16618 20512
16618 21881
16619 23450
16620 21614
16620 22156
16622 18455
16622 18692
16622 23038
16623 17220
16624 19361
16624 20580
16627 16809
16627 21682
16628 21283
16629 17755
16630 20629
16630 22371
16631 17328
16631 20449
16631 21131
16631 22859
16631 23644
16634 23452
16635 19479
16636 17383
16637 18494
16638 22627
16639 17337
16639 22586
16643 18900
16643 22053
16644 17180
16645 18109
16646 17871
16646 17878
16647 17255
16647 18761
16647 19917
16647 20225
16649 17681
16649 21014
16649 22214
16650 16678
16650 18042
16650 22968
16652 20362
16652 21965
16653 17502
16653 19888
16653 20372
16653 21754
16653 23207
16654 20640
16655 19078
16656 23912
16657 17435
16658 18154
16660 21658
16661 17871
16661 19347
16662 20007
16662 22583
16664 17263
16664 20520
16665 18476
16665 20254
16665 22232
16666 20017
16667 19861
16667 23377
16668 19730
16668 19861
16669 17409
16669 21508
16669 21721
16669 22499
16670 24177
16673 19513
16674 22074
16677 22005
16679 24484
16680 16781
16680 17488
16680 18554
16680 20296
16680 21452
16680 21770
16680 23101
16681 23133
16683 16684
16683 16685
16683 16695
16683 16696
16684 16685
16684 16693
16684 18865
16685 16688
16685 16696
16685 18865
16685 23134
16686 16693
16686 16695
16687 21824
16688 16696
16688 23134
16689 16691
16689 16694
16689 17330
16689 22528
16690 16695
16690 16696
16692 18333
16692 23400
16692 24087
16693 16695
16694 16695
16694 16696
16696 23134
16697 19689
16698 19613
16698 21336
16698 23154
16700 22436
16701 18584
16702 18388
16703 16935
16703 16952
16703 17433
16703 22747
16705 18555
16705 18852
16708 18053
16708 22179
16711 19613
16713 21535
16713 21972
16714 22486
16715 18503
16715 19558
16716 22969
16718 17054
16718 18804
16719 17651
16719 18938
16720 21050
16721 22138
16722 17336
16722 17358
16722 17430
16722 17515
16722 18267
16722 20440
16724 22223
16725 20989
16727 17684
16727 23010
16728 17102
16732 19588
16735 20590
16736 23081
16737 19064
16737 19563
16737 21586
16738 21367
16739 17198
16739 19652
16739 21962
16739 22569
16739 22980
16740 17959
16740 22069
16741 23000
16743 17469
16744 20205
16744 23542
16745 22064
16747 18070
16747 18218
16747 23089
16749 17202
16750 19914
16752 16928
16753 19046
16753 22648
16754 20547
16756 23007
16756 23008
16758 19530
16758 19776
16758 20752
16759 18189
16759 23430
16760 17781
16761 16762
16766 23823
16766 23969
16766 24303
16767 18117
16768 18632
16768 20211
16768 20580
16768 20973
16769 18547
16771 19015
16772 23153
16773 18119
16773 19537
16774 16967
16774 20541
16774 22405
16776 17436
16776 18702
16776 20006
16777 18686
16777 19074
16777 19634
16777 22266
16778 20660
16780 19203
16780 19518
16781 19637
16782 17748
16783 20237
16783 20266
16783 22589
16784 18962
16785 22636
16786 23227
16787 20702
16788 20666
16788 23260
16789 18390
16791 17724
16792 17874
16792 20466
16793 18962
16794 18331
16795 17705
16795 18593
16795 19553
16795 19617
16795 23248
16796 17896
16796 21982
16797 21437
16797 22290
16798 19744
16799 18551
16799 21501
16799 22188
16800 19041
16801 17413
16801 17545
16801 18388
16801 18429
16801 22415
16802 20665
16802 23388
16803 20207
16805 21209
16805 22315
16806 17339
16806 20252
16808 18512
16808 22391
16809 17020
16809 19622
16809 21682
16809 22425
16810 20969
16812 16827
16812 23329
16813 20717
16817 20811
16817 23542
16818 18658
16819 19052
16819 19418
16819 19834
16820 17033
16821 18849
16822 17992
16822 19318
16823 18631
16823 21219
16823 22365
16824 21484
16824 23306
16829 22156
16830 17813
16832 18781
16833 22799
16834 21787
16834 22759
16836 18825
16836 20370
16836 22133
16837 20775
16839 16841
16839 18155
16840 18580
16842 17687
16842 22156
16845 21928
16849 17643
16849 20204
16849 22939
16850 17428
16850 19171
16852 22938
16854 19406
16855 17992
16856 22088
16858 18499
16858 19301
16858 20639
16860 17305
16860 18782
16861 22227
16862 16864
16862 23141
16863 19499
16863 20866
16863 21143
16865 17830
16865 18199
16865 21569
16865 22140
16865 23191
16865 23442
16865 23651
16866 17494
16866 23653
16867 22612
16868 18526
16869 17153
16869 17209
16871 21918
16873 17837
16873 18866
16873 19858
16873 20329
16873 20581
16874 18146
16874 21903
16878 22984
16881 20428
16881 21888
16882 19506
16882 21010
16883 19824
16883 22592
16884 19806
16884 19807
16884 21494
16885 19663
16886 19663
16887 19663
16888 21505
16889 19663
16889 23642
16890 19663
16891 19832
16891 24350
16892 22386
16897 17565
16897 18594
16897 19554
16899 21009
16899 22913
16901 21593
16902 18970
16902 18999
16903 24398
16904 18093
16905 22156
16906 18900
16906 22053
16908 19755
16909 18087
16909 19641
16909 23146
16910 22457
16911 17244
16911 17523
16916 19729
16916 20760
16916 22125
16917 20760
16918 23719
16918 23952
16918 24384
16919 22307
16920 23668
16921 17953
16921 18030
16921 18899
16921 20919
16921 21615
16921 21852
16922 18900
16923 18018
16924 22204
16925 22089
16926 19141
16927 17163
16927 18166
16927 20443
16927 22855
16927 23349
16929 19066
16929 21178
16930 18870
16930 21009
16930 21323
16930 22040
16930 22913
16931 21854
16931 23508
16932 17619
16932 17911
16932 20503
16932 21328
16933 22473
16934 20963
16934 21117
16935 21458
16936 22152
16937 18946
16937 20959
16940 21113
16940 23433
16941 23060
16944 17513
16944 20456
16945 18305
16945 21240
16945 21680
16946 17411
16947 20608
16948 17248
16948 18076
16948 20110
16949 17935
16950 19962
16950 19963
16951 18568
16952 17433
16952 22747
16953 20060
16953 23621
16954 17548
16956 18345
16956 21563
16957 18631
16957 20718
16959 16963
16960 17821
16960 19016
16960 20023
16961 17698
16961 20537
16962 22359
16965 22400
16966 20179
16966 20193
16967 23459
16970 18413
16970 22202
16971 17225
16971 19506
16975 18141
16976 20123
16976 20652
16978 17891
16978 18176
16978 20099
16978 21798
16979 18873
16979 21062
16979 22620
16980 22691
16981 19293
16981 19722
16982 18712
16982 22160
16983 18469
16983 22552
16984 24142
16984 24456
16984 24472
16985 19114
16987 20000
16990 22626
16991 17948
16991 17997
16991 19005
16992 19371
16993 19887
16993 21995
16993 22867
16994 17177
16994 18552
16994 18830
16994 20379
16994 20579
16994 21420
16994 21716
16994 21946
16994 22456
16994 23762
16995 17110
16995 18948
16995 20385
16995 21417
16995 23599
16996 17236
16996 22627
16997 21550
16999 19202
16999 20913
16999 21455
17000 18902
17002 19318
17002 22025
17004 18785
17004 21595
17005 19447
17005 21081
17006 17035
17006 17168
17006 17657
17006 18266
17007 20038
17007 23786
17010 18202
17010 23412
17011 20040
17013 21256
17014 18580
17014 23096
17015 21666
17016 19019
17017 22330
17018 23022
17018 23304
17018 23429
17019 18512
17020 17212
17020 22425
17021 17854
17021 22063
17023 17765
17023 18846
17023 19586
17025 17410
17025 18567
17025 19357
17025 22284
17025 23574
17029 17486
17029 18857
17029 22095
17031 23220
17031 23458
17032 19663
17032 22117
17033 18696
17034 17650
17034 19367
17034 20241
17035 17657
17036 18884
17037 18923
17037 20888
17037 22604
17039 23961
17040 19161
17040 19976
17040 23259
17042 20985
17043 19534
17043 20009
17043 21121
17044 20452
17045 18371
17047 17157
17047 18027
17047 21193
17047 23428
17049 17655
17049 19579
17049 21234
17049 21912
17050 23230
17050 23263
17051 20812
17053 18876
17053 20265
17055 21289
17055 21720
17056 18059
17056 18485
17056 23224
17058 17939
17058 19821
17059 17656
17060 21608
17061 21012
17062 18631
17062 22365
17065 21834
17067 20836
17069 24182
17070 22858
17070 23103
17071 18298
17071 18854
17071 19843
17072 23513
17073 23735
17073 23824
17073 24301
17074 21434
17075 23229
17075 23335
17076 23765
17076 24298
17076 24374
17077 17669
17077 20772
17079 21083
17080 17081
17082 19214
17083 17992
17083 19318
17084 18681
17085 17479
17085 21854
17085 23508
17088 18782
17089 21828
17090 20271
17091 19274
17092 18289
17092 19659
17094 22857
17094 23032
17095 18775
17095 22225
17096 17097
17096 18064
17096 18765
17096 19890
17096 21311
17096 22365
17097 18064
17097 18631
17097 21311
17097 22863
17097 22997
17099 21556
17099 22156
17101 17587
17101 17953
17102 20226
17104 18580
17104 23096
17108 24436
17109 21981
17109 22785
17110 21417
17111 17643
17111 19518
17112 22224
17113 19660
17114 22744
17115 21419
17116 17657
17116 19088
17116 21263
17117 19741
17118 23371
17119 21482
17120 18137
17120 18859
17120 20536
17120 22840
17121 17883
17121 19874
17121 22231
17122 19849
17122 22344
17122 22984
17124 21512
17125 19371
17126 19469
17127 20431
17128 18465
17128 23402
17129 18294
17129 20821
17130 19683
17131 17363
17132 19554
17133 17635
17135 20376
17135 22287
17136 18859
17137 17353
17137 17860
17137 18943
17137 19927
17137 19933
17137 21431
17137 23003
17138 23200
17138 23492
17140 17692
17140 17973
17140 22515
17141 18307
17141 20161
17141 21184
17142 20090
17142 22861
17143 18900
17145 19084
17145 20925
17145 22868
17145 23028
17146 21209
17146 21635
17147 21505
17149 19063
17150 19317
17151 19271
17151 21161
17152 18032
17154 20866
17156 22994
17156 23763
17158 23354
17158 24012
17160 23705
17161 20062
17161 22352
17162 17562
17162 18138
17162 18163
17162 20444
17162 20512
17162 21881
17162 22483
17163 17371
17163 19527
17163 20202
17163 20377
17163 20714
17163 21510
17163 22052
17163 23091
17163 23349
17163 23492
17164 21556
17165 22179
17165 22228
17166 19318
17167 19308
17172 18467
17172 21326
17175 19378
17177 17511
17178 18337
17179 18755
17180 19209
17180 19991
17180 23118
17181 23647
17182 22582
17183 17858
17183 18025
17186 22955
17187 17188
17187 19455
17188 22813
17192 18649
17192 24008
17193 19318
17193 20107
17194 23182
17195 18197
17195 19125
17196 19530
17196 22229
17196 23451
17197 17913
17197 18935
17199 19318
17199 22025
17200 23571
17204 19227
17204 22513
17206 19666
17207 17407
17208 19166
17211 20361
17212 20074
17212 21244
17212 21767
17212 21768
17213 23201
17214 19994
17214 21859
17214 22709
17215 21198
17216 21962
17216 22087
17216 22397
17216 23645
17217 18962
17218 24273
17221 20560
17222 23800
17222 24100
17222 24152
17222 24187
17223 24409
17224 17721
17224 21846
17225 18545
17225 18896
17225 20071
17225 24315
17226 20992
17226 21044
17227 17592
17227 21141
17227 21616
17229 19148
17229 23369
17229 24479
17230 18917
17231 20669
17231 22086
17233 23466
17234 21398
17235 23345
17237 17784
17237 23098
17238 18265
17238 21462
17239 20718
17239 22667
17240 19478
17241 22064
17242 17509
17242 19774
17242 23154
17243 22239
17243 22821
17244 21338
17245 19248
17246 19497
17247 23355
17247 24140
17248 17495
17248 18076
17248 19293
17248 19377
17248 19722
17248 20110
17248 21279
17248 22728
17248 22742
17248 23157
17248 23457
17249 18369
17249 19455
17250 19194
17250 19472
17251 21817
17256 19923
17257 19333
17258 21133
17258 23932
17259 18924
17260 19182
17261 19406
17262 18846
17262 19973
17262 21594
17262 21655
17263 20520
17265 23135
17265 24275
17267 20344
17268 22535
17269 21140
17270 20649
17270 22465
17270 23067
17272 21770
17273 21326
17274 19310
17274 21350
17274 22218
17276 19570
17276 22292
17277 18383
17277 21702
17277 22724
17278 17475
17278 17902
17278 18817
17278 20455
17278 20511
17278 22113
17279 21740
17281 21379
17282 17451
17282 19208
17282 19910
17283 18918
17283 19899
17283 23153
17284 20756
17284 21023
17285 19198
17287 18581
17287 20860
17287 21797
17287 23368
17288 23165
17290 24310
17291 18631
17291 21029
17291 22365
17292 19181
17293 21711
17294 19260
17295 23970
17296 17440
17296 18162
17297 18031
17297 20510
17298 22696
17299 17508
17299 17985
17300 18114
17301 17419
17301 22006
17302 23513
17303 21762
17305 17586
17305 17645
17305 18015
17305 18112
17305 18252
17305 18546
17305 18782
17305 19349
17305 19900
17305 20061
17305 20212
17305 20555
17305 20863
17305 21028
17305 21390
17305 21539
17305 21597
17305 21945
17305 22065
17305 22640
17305 22856
17305 23249
17305 23275
17306 21953
17307 17437
17307 17884
17308 23114
17309 17936
17309 23204
17311 17935
17312 20432
17312 22505
17312 23114
17313 17315
17314 17979
17314 20322
17314 20325
17317 17318
17317 17979
17317 20322
17317 20323
17317 20325
17317 20326
17318 20323
17318 20325
17318 20326
17320 18072
17320 19208
17320 19910
17321 20376
17321 22287
17322 17773
17322 17961
17322 20917
17322 22066
17322 22153
17322 22787
17322 23167
17323 20328
17324 20431
17324 21443
17325 18844
17325 23444
17326 18500
17327 22760
17328 21131
17329 23200
17331 18201
17331 20845
17331 21814
17332 20154
17332 20758
17332 21170
17333 18431
17333 18852
17333 22222
17334 19213
17334 19239
17334 20916
17334 21069
17335 18058
17337 19376
17338 20216
17339 18352
17340 18331
17340 19487
17340 20923
17341 19272
17345 17385
17345 18245
17345 18795
17345 21686
17346 21290
17347 19513
17347 19623
17347 20684
17347 21622
17348 23638
17348 24164
17349 20711
17349 22866
17351 18158
17352 18158
17352 19808
17352 23166
17353 18943
17353 19369
17353 19927
17353 19933
17353 20384
17353 21431
17353 23003
17355 17356
17355 17357
17356 17357
17357 22628
17359 23126
17361 18113
17361 21438
17364 18662
17365 22776
17365 23211
17367 21009
17368 18967
17369 19103
17369 19323
17369 20789
17369 21088
17369 22230
17369 23460
17371 23492
17372 18311
17372 19518
17372 22908
17373 17482
17374 18386
17375 20101
17375 20717
17376 18631
17377 19348
17378 20999
17379 21787
17381 18970
17382 17847
17382 20504
17382 20637
17384 18359
17384 21061
17384 21474
17384 21985
17384 22675
17385 21686
17385 23376
17386 18632
17386 20125
17387 17740
17387 21890
17388 18917
17389 22953
17389 23420
17390 20144
17391 19536
17392 21137
17392 21402
17393 20394
17393 21560
17393 21562
17393 21563
17394 22986
17394 24414
17395 20331
17395 20885
17395 21530
17396 24208
17396 24263
17397 21735
17397 23083
17399 18844
17399 23444
17400 20239
17400 20763
17402 17763
17402 17918
17404 17926
17404 20218
17405 20999
17407 18677
17408 19742
17409 21721
17409 22499
17410 22716
17411 17627
17411 20774
17411 21640
17411 23236
17412 22761
17412 22831
17413 19252
17416 19699
17416 20802
17417 23544
17419 20521
17419 22006
17419 22599
17420 17598
17422 18416
17423 23999
17424 21527
17427 17450
17427 21384
17428 18620
17428 19171
17428 19174
17431 24008
17432 23092
17434 23086
17436 18996
17437 17884
17437 17958
17438 22713
17440 18162
17441 18631
17441 21029
17441 22365
17442 20771
17444 17445
17444 17448
17445 17448
17447 18632
17447 19364
17447 20125
17447 20211
17447 20973
17449 19091
17449 20364
17449 21464
17450 21384
17451 20191
17452 17453
17452 23278
17453 20583
17453 23278
17457 18750
17457 21073
17459 20349
17461 17462
17461 17660
17461 21756
17462 17659
17462 17660
17462 21755
17462 21756
17465 17466
17465 17467
17466 17467
17466 17468
17467 17468
17470 19797
17470 21004
17470 22796
17471 17535
17471 20676
17472 21635
17472 22315
17473 19271
17474 18059
17475 17902
17475 18446
17475 19362
17475 20473
17475 23614
17476 18059
17476 18485
17476 23224
17477 17807
17477 17852
17479 23508
17480 22475
17480 22909
17480 23943
17481 17988
17482 18500
17482 21072
17482 22655
17484 20925
17485 19318
17485 22025
17486 21008
17487 19050
17487 20952
17487 21723
17488 20296
17488 21770
17489 22904
17490 23193
17492 17688
17494 21587
17496 17765
17496 18846
17496 19973
17498 20568
17498 20700
17498 22053
17499 20480
17499 22619
17500 21257
17500 21660
17501 19484
17502 17605
17503 19371
17503 23369
17504 22790
17505 18508
17506 23103
17507 20272
17507 22163
17508 17985
17509 23154
17511 20379
17511 20579
17511 21716
17511 22799
17512 21787
17514 18817
17514 20511
17514 23614
17516 17518
17517 19500
17517 22927
17518 22860
17519 19931
17520 19498
17523 21338
17525 18008
17525 21982
17527 22740
17528 17585
17528 19565
17529 18917
17529 21049
17530 17713
17530 17846
17532 21072
17533 23802
17535 20878
17536 20617
17538 17759
17539 22462
17540 18262
17541 17626
17541 19772
17541 22398
17541 22746
17542 20167
17543 24321
17544 18281
17545 18388
17545 22415
17546 17681
17546 19736
17546 22214
17546 23238
17548 21362
17549 21944
17550 21858
17551 17710
17551 20585
17552 20123
17553 17744
17553 18631
17554 22683
17556 21468
17559 21428
17559 21764
17560 22555
17561 20341
17563 18690
17563 23337
17564 22311
17564 23138
17565 18594
17565 19554
17565 21837
17566 18896
17566 19395
17566 19506
17566 20816
17566 24315
17569 23306
17569 23326
17570 17669
17571 20376
17571 22287
17573 22588
17574 24213
17574 24456
17575 18372
17576 17621
17576 19620
17577 22768
17577 23133
17578 20925
17579 18703
17580 18955
17581 18599
17581 18914
17583 20485
17583 22890
17584 18001
17585 17687
17588 23661
17590 23030
17591 22537
17592 21141
17593 21737
17594 18622
17594 22834
17598 19426
17599 19171
17599 19172
17599 19174
17603 18032
17604 19607
17606 18648
17606 19611
17607 18929
17608 21011
17608 23459
17609 21893
17610 23417
17610 24024
17611 18057
17613 23082
17614 21257
17614 21660
17615 22934
17616 21966
17617 19182
17618 19344
17619 21328
17620 18097
17620 18659
17620 20039
17621 19620
17621 23461
17622 19266
17623 22769
17624 18908
17624 19590
17625 17855
17625 19009
17625 19811
17626 19772
17626 20578
17627 23236
17629 21339
17629 22719
17630 19302
17630 20371
17630 21681
17631 19355
17631 21139
17631 23745
17632 23322
17633 18675
17633 21974
17634 17709
17634 20220
17634 23596
17636 17741
17636 18663
17637 17667
17637 18455
17637 22231
17637 23038
17638 18631
17638 20718
17639 23038
17640 18561
17641 21163
17642 22208
17644 24200
17644 24246
17646 18046
17646 18637
17646 19100
17646 19653
17647 17796
17648 20096
17648 23539
17650 19367
17650 20241
17650 20869
17651 18938
17651 21307
17653 18234
17654 22152
17655 21234
17656 20782
17657 18266
17657 18816
17657 20541
17658 18900
17663 19553
17663 23248
17664 17911
17664 20503
17665 19340
17665 23311
17666 18870
17666 22913
17667 19874
17667 22231
17668 17992
17668 19318
17669 17846
17669 24000
17669 24184
17669 24431
17669 24437
17670 17671
17670 17672
17670 19090
17670 19578
17671 17672
17671 19578
17673 21256
17674 17746
17675 18573
17678 21074
17679 19124
17680 20016
17681 19736
17682 22574
17683 21367
17684 21882
17685 17975
17685 19063
17687 17853
17687 18560
17687 18997
17687 19198
17687 19572
17687 19905
17687 20487
17687 20567
17687 20809
17687 22004
17687 22156
17687 22280
17687 22370
17688 23506
17689 21332
17689 21607
17689 23429
17692 17973
17692 19062
17693 19886
17693 20717
17694 18093
17694 20788
17694 22274
17695 19040
17696 19314
17696 19954
17696 23028
17697 18518
17697 20869
17697 21356
17697 23475
17698 20537
17698 20799
17699 18862
17699 19766
17700 20835
17701 21736
17702 24404
17703 18543
17704 18574
17704 21918
17705 19553
17705 23248
17708 23380
17710 21793
17711 20148
17711 20722
17712 18035
17712 18735
17712 19681
17712 20854
17712 22338
17712 22981
17713 17846
17714 19337
17715 23324
17716 19124
17719 18038
17719 20905
17719 21441
17719 22500
17719 22728
17720 20155
17721 22072
17721 22565
17722 20474
17723 17857
17723 21455
17724 18699
17724 23290
17725 23732
17725 24197
17726 17732
17727 20341
17728 20835
17729 17983
17729 19910
17730 18452
17730 18509
17730 19421
17730 21742
17731 20489
17731 21564
17731 23542
17733 19502
17733 20257
17734 17736
17734 17737
17734 21496
17735 19708
17735 19744
17735 20390
17736 17737
17736 21176
17737 20932
17737 21176
17737 21496
17737 21877
17737 22098
17738 21360
17738 23441
17740 19645
17740 21785
17741 23223
17742 22116
17744 21803
17745 18900
17746 17966
17747 20831
17749 18353
17749 18698
17749 19268
17749 19625
17749 19892
17750 19971
17751 19353
17752 17766
17752 18216
17753 18662
17755 21863
17756 21273
17756 22641
17758 18148
17758 19620
17758 21248
17758 22187
17758 23461
17759 20089
17760 23772
17760 23797
17762 22406
17763 17796
17763 17810
17764 19097
17765 18682
17765 18846
17765 19351
17765 20733
17765 21160
17765 21475
17765 21655
17766 19549
17767 21891
17767 22752
17767 23366
17769 23200
17770 21603
17770 22033
17770 22035
17770 22304
17772 22800
17773 18210
17773 19732
17773 20917
17773 21165
17773 21437
17773 22153
17773 22271
17773 23259
17774 19804
17775 18892
17776 18892
17776 19804
17777 22334
17779 21542
17780 19777
17780 21409
17781 18245
17781 18904
17781 19945
17781 20921
17781 21752
17781 22516
17784 23098
17785 19371
17785 22339
17786 21350
17787 22662
17788 19739
17788 21757
17788 22994
17788 23763
17789 18781
17790 17896
17792 19415
17792 23504
17796 22511
17798 22592
17799 18311
17799 19518
17799 19998
17800 19189
17800 21124
17800 21520
17801 23450
17802 19997
17803 22505
17805 18998
17806 20558
17807 21984
17808 24071
17811 23813
17811 23833
17811 23912
17811 24078
17812 18366
17814 21470
17815 18166
17815 22127
17815 23392
17815 23900
17816 18847
17817 18844
17817 23444
17820 19564
17822 17999
17822 18302
17823 23970
17824 18005
17824 20751
17826 24083
17827 20763
17828 21640
17829 19066
17829 21178
17830 18856
17830 22140
17831 24196
17831 24225
17832 20940
17832 21327
17832 22270
17834 20279
17834 21384
17837 18844
17838 20696
17838 22538
17839 19864
17839 21433
17840 17841
17840 23195
17842 23109
17842 23195
17843 21145
17844 17871
17844 22849
17845 20142
17845 22686
17846 20282
17847 18758
17847 20492
17847 20504
17848 21710
17848 23519
17849 18238
17850 20647
17850 21848
17850 23450
17851 17951
17852 19343
17852 21984
17852 22715
17854 22639
17856 21715
17857 21087
17860 19369
17860 19927
17860 20384
17860 23003
17861 19310
17862 19708
17862 19744
17863 19787
17863 20909
17864 19757
17864 23019
17865 17891
17865 18176
17865 20314
17865 21271
17866 19932
17866 21410
17867 18908
17868 21953
17869 22386
17870 19296
17871 17878
17872 20249
17872 21269
17874 19897
17876 20152
17876 20202
17876 23407
17877 18364
17877 18909
17877 21449
17879 20660
17880 19988
17881 21214
17883 19874
17883 20678
17883 21999
17883 22068
17883 22231
17883 23050
17883 23370
17886 19909
17887 21288
17888 23652
17889 19743
17889 23113
17889 23652
17889 24363
17890 22173
17890 23308
17891 19118
17892 24016
17892 24050
17892 24452
17893 19788
17894 18796
17895 22498
17896 18008
17896 21982
17897 18889
17897 20476
17898 20069
17899 18241
17900 22894
17902 22113
17902 23614
17903 18708
17904 19910
17905 20814
17905 23307
17906 20160
17906 20788
17906 22274
17907 24201
17907 24462
17908 22155
17909 21181
17911 20503
17911 21669
17911 23485
17912 21061
17912 22675
17913 20957
17914 24169
17916 18859
17916 22840
17919 18174
17919 20761
17919 21631
17921 18106
17921 18529
17922 22358
17922 22690
17923 18515
17924 20976
17925 18179
17925 18857
17925 21251
17926 20217
17928 18129
17929 22707
17932 24142
17932 24386
17933 23705
17935 17941
17935 18403
17936 22505
17937 20651
17942 18194
17942 18721
17943 20324
17944 21162
17945 19035
17945 19969
17946 20996
17949 18631
17949 22365
17949 22561
17952 24276
17955 21614
17956 22630
17957 19371
17958 22358
17959 20302
17960 18107
17960 20067
17960 23204
17961 21752
17961 23167
17962 18895
17964 23204
17965 22056
17965 22709
17966 21834
17967 19986
17968 20480
17971 19303
17972 18828
17974 19515
17975 19063
17977 20505
17978 19828
17978 21005
17978 21330
17978 22780
17978 22806
17978 22951
17978 22962
17978 23473
17979 20325
17980 20180
17981 19052
17981 19418
17981 19834
17981 21408
17982 23235
17982 24154
17983 19208
17983 19910
17983 20191
17984 20852
17984 22062
17984 23253
17986 19198
17990 18045
17990 19568
17991 19935
17991 20306
17992 18144
17992 19130
17992 19187
17992 20202
17992 20443
17992 20863
17992 21028
17992 22654
17992 23200
17992 23407
17994 18856
17995 19224
17996 20771
17997 19005
17999 18154
18000 18338
18000 19520
18000 21620
18001 18170
18001 21534
18001 23214
18002 23372
18003 18426
18004 18534
18005 21765
18006 19533
18006 19599
18006 21731
18010 22053
18011 18822
18013 21881
18014 22984
18017 18780
18019 21614
18020 21657
18020 22775
18020 22874
18022 19380
18022 23851
18022 23934
18023 22436
18025 20673
18026 18345
18026 21560
18026 21563
18027 23428
18028 19677
18028 23173
18030 21852
18031 18439
18031 18516
18031 19033
18031 20510
18031 23493
18032 20928
18033 19348
18034 19748
18038 20210
18038 22728
18039 18083
18041 18717
18041 22729
18043 20664
18048 20301
18050 19775
18050 19972
18050 20717
18050 20732
18050 22391
18053 22179
18053 22228
18054 22044
18058 21935
18058 23302
18059 18483
18059 18486
18059 23226
18060 23224
18061 18099
18061 18934
18061 21234
18061 23138
18062 22381
18063 19929
18064 18391
18064 18631
18064 18721
18064 21311
18064 22365
18065 21217
18065 21478
18065 21582
18065 22063
18065 23360
18067 24279
18069 23912
18069 23961
18071 21029
18071 21324
18073 18675
18077 19731
18077 21116
18077 21923
18077 23373
18079 21419
18081 19432
18083 19782
18083 19974
18083 20954
18084 18827
18085 18261
18085 20718
18087 23146
18088 19557
18088 20157
18092 18139
18092 24137
18093 20160
18093 23043
18094 18548
18094 23123
18096 18248
18096 21364
18097 18659
18099 21234
18099 21612
18100 18168
18102 20199
18103 19728
18104 19238
18104 23308
18105 22505
18105 23204
18106 22030
18106 22031
18107 20067
18107 21347
18107 23204
18108 18782
18108 19923
18109 20509
18109 20654
18111 21207
18111 23229
18113 21438
18114 18551
18114 20474
18114 21501
18114 22188
18115 18425
18116 21954
18117 19525
18118 21893
18119 19554
18119 21380
18122 23960
18123 20845
18125 18779
18127 21640
18128 18748
18130 20533
18131 23301
18132 22966
18132 23448
18133 21370
18133 24066
18136 20481
18137 18859
18137 20536
18138 21881
18140 18678
18142 22079
18142 22096
18143 20622
18145 18680
18148 23461
18149 22138
18150 22481
18151 20161
18151 21184
18153 19867
18155 21302
18156 19864
18156 21433
18156 23263
18156 23276
18157 20219
18158 18656
18159 23912
18160 20636
18161 19879
18161 20545
18163 21881
18165 18840
18166 19336
18166 20377
18166 20714
18166 21937
18166 22373
18166 23200
18166 23492
18167 24225
18168 19513
18168 20768
18168 22192
18170 23214
18172 20516
18173 21785
18175 19053
18178 20375
18178 20397
18178 21515
18179 21008
18180 23837
18180 24286
18181 22635
18181 22637
18182 18623
18182 19069
18183 22503
18184 23765
18184 24007
18185 23896
18186 18857
18186 22095
18187 24328
18188 18749
18188 23692
18188 24483
18189 20404
18189 22551
18189 23430
18191 23006
18192 18901
18193 19191
18193 19345
18193 19980
18193 20373
18193 20389
18195 18770
18195 19243
18195 23182
18198 19034
18199 18856
18199 22140
18199 23191
18199 23602
18200 20505
18201 20845
18201 21814
18202 20198
18202 23412
18204 20385
18205 18208
18205 20174
18205 22632
18205 23347
18206 18916
18206 19931
18207 18275
18207 19278
18208 20174
18208 22632
18209 21487
18209 22948
18210 19381
18210 19732
18210 22271
18210 23259
18212 18631
18212 20304
18213 20446
18214 22708
18217 19346
18217 21518
18217 23234
18218 24400
18219 22543
18220 18630
18220 21346
18220 22931
18221 19554
18223 20111
18223 21290
18224 18225
18225 18226
18230 18962
18232 18777
18232 21426
18233 18984
18234 22527
18235 23172
18237 19318
18239 20411
18241 20057
18241 23929
18242 19073
18243 19247
18244 19084
18244 22868
18245 20921
18247 19447
18247 21081
18248 18759
18248 19080
18248 21364
18249 21792
18251 19169
18251 23139
18254 19552
18256 23621
18257 19642
18257 21575
18257 22143
18257 22488
18258 20717
18259 18914
18259 22344
18260 19294
18261 20453
18261 20718
18261 20850
18261 21894
18261 22826
18261 23549
18263 18748
18264 19455
18264 20573
18264 22813
18268 24225
18270 22710
18270 23663
18273 19255
18275 19278
18276 19968
18276 23356
18276 23711
18279 24172
18280 19780
18282 19930
18282 20896
18283 18299
18283 18771
18283 22622
18284 22748
18286 18375
18286 18928
18286 18998
18286 22084
18286 22116
18286 23100
18287 19564
18287 22365
18288 20437
18289 19659
18291 18781
18291 18861
18292 18405
18292 19198
18293 18425
18293 21649
18294 18295
18298 19843
18299 18771
18299 21663
18299 22123
18300 22836
18305 21240
18306 20416
18308 19237
18309 22335
18310 19554
18311 19203
18311 19518
18311 19998
18313 23813
18313 23947
18316 23196
18316 23266
18318 21868
18319 19318
18321 24016
18321 24043
18321 24217
18322 19692
18323 18519
18324 19561
18325 18993
18325 23712
18326 23217
18326 24141
18326 24407
18327 18962
18328 21699
18330 23962
18330 24054
18331 20923
18332 20245
18332 21556
18333 24087
18334 19390
18334 19479
18334 19957
18334 20013
18334 23242
18335 20298
18335 20462
18335 20665
18337 22879
18338 19520
18339 18608
18339 23582
18340 18343
18340 22880
18341 21729
18341 22760
18341 22880
18342 19198
18342 21725
18342 22156
18344 18737
18345 21561
18345 21563
18346 23263
18346 23276
18347 22593
18347 23166
18348 21544
18348 21642
18349 18603
18351 23725
18351 24261
18354 21700
18354 21891
18354 22752
18355 18357
18355 20356
18355 20357
18355 20554
18355 21583
18356 18357
18356 19038
18357 18358
18357 20355
18357 23498
18359 21474
18359 23524
18361 22701
18362 21180
18362 22027
18364 18909
18364 21449
18365 21760
18366 21040
18368 20309
18371 19199
18371 22070
18371 23431
18372 19869
18372 19881
18372 20499
18372 21988
18372 22531
18372 22869
18372 23085
18373 20847
18374 23515
18375 18979
18375 18998
18375 21932
18375 22423
18376 18772
18377 22326
18379 22943
18380 20884
18381 21413
18382 20941
18383 20755
18386 20117
18387 20165
18388 18429
18388 19372
18388 22415
18393 21798
18394 24201
18394 24202
18394 24341
18396 24410
18396 24458
18397 21937
18397 22622
18399 18494
18400 20928
18400 22318
18401 18732
18401 20107
18403 22872
18404 22848
18405 19198
18408 24344
18410 18411
18414 23529
18414 24407
18415 20539
18419 20305
18420 18820
18421 22289
18421 23212
18422 18962
18423 19436
18424 18483
18424 23226
18426 20289
18427 18967
18427 22001
18429 19252
18429 22415
18430 19193
18430 19554
18432 23343
18434 20591
18434 22777
18435 21673
18437 18809
18438 24283
18438 24485
18439 18516
18439 20510
18440 18689
18441 20058
18442 20914
18443 22138
18443 22434
18444 22921
18444 23563
18445 20392
18445 22382
18445 23925
18446 23614
18447 20900
18447 23631
18447 24100
18448 21402
18449 24014
18450 22514
18450 22574
18453 19611
18453 20199
18453 22167
18454 19735
18454 23484
18455 19140
18455 23038
18459 23369
18459 24109
18461 20898
18461 24344
18462 23729
18462 24032
18462 24446
18463 22670
18464 22124
18465 20608
18466 20290
18469 22552
18471 22154
18472 18485
18473 21525
18474 19127
18474 19587
18477 21683
18477 22260
18479 22038
18480 18501
18480 19594
18480 23509
18481 20663
18482 22071
18483 23224
18484 23226
18487 20233
18487 21745
18487 22730
18489 19411
18490 19381
18490 21437
18491 18617
18491 19301
18491 21013
18492 23431
18493 20378
18494 19464
18494 20564
18494 22911
18495 23870
18495 24161
18496 24129
18496 24173
18496 24458
18500 22655
18501 19594
18502 23784
18502 24285
18503 19558
18504 20694
18504 22732
18505 19043
18506 22179
18508 20415
18508 22170
18508 22350
18509 19421
18509 19450
18510 22329
18512 21088
18514 19484
18515 22485
18516 20510
18516 23493
18520 19172
18521 23784
18522 20972
18522 22919
18523 22281
18525 20869
18525 23475
18527 21700
18527 21917
18527 22501
18529 22030
18529 22032
18532 23655
18533 24213
18533 24347
18534 19146
18534 19674
18534 22154
18535 19096
18536 19820
18541 24019
18541 24189
18543 21306
18543 22041
18543 22193
18544 21949
18545 19506
18545 20816
18546 22856
18548 22403
18548 22683
18548 22852
18549 21739
18550 19637
18550 21556
18551 20474
18551 20858
18551 21501
18551 22188
18553 23802
18553 23955
18553 24309
18556 21760
18557 18656
18559 20189
18559 20771
18559 22894
18561 18733
18561 19261
18561 23522
18562 21234
18562 23138
18563 19529
18565 21609
18565 22196
18567 21226
18569 20434
18569 21241
18569 22002
18569 23525
18570 22820
18571 23131
18572 23546
18574 21918
18578 24412
18579 18900
18579 21230
18580 19646
18580 21565
18580 23024
18580 23096
18581 21415
18582 19724
18582 19763
18583 19232
18583 20092
18583 21603
18583 22035
18584 19483
18584 20079
18584 20507
18584 22369
18584 23769
18584 23866
18585 22363
18586 20363
18587 23888
18588 21386
18588 23183
18592 23689
18592 24253
18592 24270
18593 19553
18593 19617
18594 21137
18595 18902
18595 19859
18595 21182
18596 18985
18596 19885
18596 20614
18598 22491
18599 22344
18600 19179
18602 19476
18602 20220
18602 23596
18603 22464
18604 21239
18604 22078
18604 22690
18605 19767
18606 21666
18607 18822
18607 18824
18608 23582
18609 20356
18609 20554
18609 21583
18611 22658
18613 21169
18615 23940
18616 18955
18617 21013
18618 23862
18620 19173
18620 19174
18621 19196
18621 20517
18623 19069
18626 19806
18626 21936
18626 23199
18627 19725
18628 19879
18628 20545
18631 18765
18631 19002
18631 19018
18631 19564
18631 19846
18631 19865
18631 20273
18631 20718
18631 21029
18631 21270
18631 21803
18631 21822
18631 21956
18631 22292
18631 22365
18631 22437
18631 22801
18631 23344
18631 23413
18631 23549
18632 19364
18632 20125
18632 20211
18632 20580
18632 20973
18633 19829
18634 21817
18636 23354
18636 24012
18638 19956
18638 20517
18639 24181
18639 24318
18641 19208
18641 19910
18642 22329
18644 20746
18644 20759
18644 20805
18645 19902
18646 19687
18646 21902
18647 19275
18647 19979
18647 22648
18648 19611
18650 20900
18651 22696
18653 19138
18654 18837
18654 21925
18655 23925
18656 18834
18659 20346
18661 20718
18661 22365
18663 23223
18665 18689
18665 19475
18665 22079
18668 24053
18670 22844
18671 19975
18672 23322
18673 19318
18673 22025
18674 20404
18676 19689
18677 21029
18678 19995
18678 21773
18680 19145
18681 20378
18681 21130
18682 18846
18683 18931
18683 22740
18683 22843
18683 23231
18684 23925
18686 19648
18686 23136
18688 21507
18688 21965
18689 19224
18689 21118
18690 23337
18691 23720
18691 23922
18691 24164
18691 24427
18692 20677
18692 21231
18692 21254
18692 23754
18692 24295
18693 21658
18694 23187
18695 20402
18697 20865
18700 23328
18702 20006
18702 20680
18704 22993
18705 21832
18706 20571
18706 20876
18706 21949
18712 22160
18712 22335
18714 22212
18716 22392
18717 22469
18717 23210
18718 22597
18719 19198
18719 21614
18721 21311
18721 22365
18721 23413
18722 20513
18722 21933
18723 21268
18724 20272
18726 19988
18726 22913
18727 20732
18728 19706
18728 20361
18731 19063
18731 21917
18732 20201
18734 22053
18735 19681
18735 21653
18737 20313
18740 19723
18742 20261
18742 23146
18745 21097
18746 21620
18747 22138
18748 20586
18750 21073
18751 22454
18753 23011
18754 19310
18756 18908
18758 20492
18759 19080
18759 21364
18760 20233
18761 20225
18762 23731
18764 19496
18764 20764
18764 22007
18765 22365
18766 21002
18767 24473
18768 19154
18770 23182
18771 20215
18771 21282
18771 22613
18771 22622
18772 19438
18774 22686
18774 22834
18775 19963
18775 22225
18777 21426
18778 20056
18778 23166
18779 21526
18780 22701
18781 21159
18781 21866
18781 22012
18781 22413
18781 22818
18782 19511
18782 20212
18782 22862
18782 23249
18782 23771
18783 19175
18783 20337
18784 21834
18785 21595
18788 19804
18789 18892
18791 21379
18792 19348
18793 20093
18794 23735
18794 23978
18799 21354
18799 23247
18800 21953
18802 22848
18805 19062
18807 19929
18811 19988
18812 19334
18812 21054
18812 21600
18813 19066
18813 20450
18814 19513
18815 22120
18816 20541
18817 20455
18817 20473
18817 23614
18819 19535
18819 22881
18821 19009
18821 19089
18822 22133
18823 22133
18827 19806
18827 19807
18827 22146
18827 22823
18829 21643
18830 22799
18831 21109
18831 22625
18833 23663
18835 20246
18835 22933
18836 21487
18836 22948
18837 19291
18838 19227
18838 20096
18839 19824
18841 21417
18842 21637
18843 22816
18843 24468
18844 19858
18844 22147
18844 22402
18844 23444
18845 22120
18846 19351
18846 19586
18846 19973
18846 20630
18846 20733
18846 21160
18846 21187
18846 21655
18846 21935
18846 22804
18846 23225
18846 24381
18847 19831
18848 19670
18848 20609
18849 24080
18850 22181
18850 22915
18851 19163
18851 19164
18852 20281
18852 20589
18852 21628
18852 22222
18852 23326
18856 22140
18857 20576
18857 21008
18859 20536
18860 22270
18861 20338
18861 22012
18861 23149
18862 23270
18863 23713
18863 24016
18863 24217
18864 19546
18864 20548
18864 22272
18864 23761
18866 20581
18869 18967
18869 21869
18870 19988
18870 22248
18870 22913
18871 22948
18872 20409
18873 20620
18873 21062
18873 22034
18876 20265
18876 20406
18877 24166
18877 24309
18878 23346
18878 24355
18879 21724
18880 20065
18880 20208
18880 22502
18880 23396
18881 20180
18881 20647
18884 22244
18884 23365
18886 19290
18886 21942
18886 24453
18887 19929
18888 19571
18888 22734
18888 22957
18889 20795
18890 21010
18890 24232
18892 19804
18893 19373
18894 19814
18895 23358
18896 19506
18897 21194
18897 22773
18897 23906
18898 21556
18898 21781
18898 22254
18899 21615
18899 21852
18900 19461
18900 20064
18900 20307
18900 20968
18900 21024
18900 21738
18900 22053
18900 22083
18900 22506
18900 22714
18902 19219
18902 19859
18902 20276
18902 21182
18902 22267
18902 23650
18903 20143
18905 23138
18906 23063
18907 19812
18907 19818
18907 20602
18909 20540
18910 21598
18910 22661
18911 19959
18911 20304
18912 23610
18913 20468
18915 23881
18916 19781
18916 19931
18916 20292
18918 20203
18918 21152
18918 21719
18918 22233
18918 22663
18918 23531
18921 19373
18921 22409
18922 20395
18925 19866
18926 21609
18927 21745
18927 22730
18928 18998
18931 22668
18933 19800
18933 20310
18933 23122
18934 21234
18937 20163
18938 21307
18938 22289
18938 23212
18940 19026
18940 22680
18943 19369
18943 19933
18943 20384
18943 21431
18943 23003
18944 19611
18945 22049
18946 19937
18947 19798
18950 21679
18951 21872
18952 19446
18954 19849
18954 20531
18954 20838
18954 21910
18954 22689
18954 22694
18954 22984
18955 20259
18959 20844
18960 20768
18961 23254
18962 19359
18962 20617
18962 21809
18962 22418
18964 21140
18966 19812
18966 19816
18966 20602
18967 19286
18967 19629
18967 21274
18967 21718
18967 21869
18967 22001
18967 22539
18967 22610
18967 23561
18967 23580
18967 23860
18970 18999
18971 24457
18973 19277
18973 23164
18973 23184
18974 23284
18974 23303
18975 20364
18975 21464
18977 23940
18977 24060
18978 19718
18978 19799
18979 18998
18979 23100
18983 19407
18983 21411
18983 23766
18987 19258
18987 19669
18989 19996
18990 23921
18990 24197
18990 24204
18991 21992
18992 20380
18993 22333
18994 22776
18994 23211
18996 19318
18996 23328
18998 20183
18998 21873
18998 21932
18998 22039
18998 22060
18998 22084
18998 22177
18998 22423
18998 22471
18998 22549
18998 23100
19000 19777
19000 20818
19001 22365
19002 22365
19004 24056
19007 19828
19007 21005
19007 22962
19008 22287
19009 21886
19011 21564
19011 23542
19012 21407
19012 21681
19014 20340
19014 20918
19017 19769
19017 22356
19017 23065
19021 19668
19022 20268
19022 20374
19022 20891
19022 20945
19022 21223
19022 21685
19022 21753
19022 21834
19023 23912
19023 23961
19025 19441
19026 20715
19026 22680
19027 20047
19027 23455
19029 22178
19030 21980
19031 23917
19031 23939
19034 22251
19036 22293
19036 22849
19036 23447
19037 23478
19038 19040
19038 20356
19038 21583
19040 20356
19040 20357
19040 20554
19040 21583
19040 21584
19040 22671
19041 20734
19041 21517
19041 23398
19043 19712
19044 19581
19044 20065
19044 20208
19044 22502
19046 19979
19046 22648
19047 22003
19050 20952
19050 21340
19050 21723
19051 20871
19052 19834
19052 19926
19052 21811
19052 23339
19053 22381
19056 20848
19057 20848
19058 20133
19059 24476
19060 21337
19061 22841
19062 20529
19063 21917
19065 23787
19065 23874
19065 24071
19066 19508
19066 20012
19066 20070
19066 20450
19066 21419
19068 21402
19074 20313
19074 22205
19076 19078
19076 21188
19077 21509
19077 22882
19082 19931
19082 21291
19083 23200
19084 20983
19084 22345
19091 21464
19095 19523
19095 20588
19096 19765
19098 19643
19098 20489
19098 23542
19101 20144
19102 21363
19102 22827
19103 22532
19109 19382
19109 23573
19111 22036
19112 19842
19112 20066
19112 22253
19115 19256
19115 19335
19115 19502
19115 20257
19115 21586
19115 21805
19115 21924
19117 19341
19117 20711
19119 20554
19120 20866
19121 20480
19121 20709
19122 22297
19123 23047
19125 19202
19128 22286
19131 22286
19131 22964
19132 23255
19133 23425
19133 23657
19134 22332
19135 24189
19135 24219
19136 23207
19136 23691
19137 24078
19137 24154
19137 24325
19139 21147
19141 21804
19143 22972
19144 19997
19147 21623
19148 23257
19149 23594
19151 19686
19151 19980
19151 20139
19151 22246
19151 22301
19152 21153
19153 21637
19156 19753
19156 19854
19156 23705
19158 19877
19158 21867
19158 22412
19158 23020
19159 19318
19160 22829
19161 19851
19161 23259
19163 22774
19164 22774
19165 21656
19165 23465
19166 20369
19167 24352
19168 19398
19171 19172
19171 19174
19171 19556
19172 20140
19173 19174
19173 19556
19174 19556
19174 20140
19176 21171
19177 20376
19177 22287
19180 19370
19181 22074
19186 21673
19189 23298
19190 24021
19191 20341
19191 20373
19191 20846
19191 21205
19191 21513
19191 22246
19191 22301
19192 19329
19193 19463
19193 19554
19196 20517
19197 19611
19197 20461
19198 19491
19198 20618
19198 21225
19198 22156
19198 22444
19198 22656
19198 22950
19198 23087
19198 23569
19200 21585
19201 20002
19201 21108
19202 20129
19202 20913
19202 21489
19202 22073
19203 19998
19205 21961
19206 22678
19208 19910
19208 20191
19210 19824
19210 22904
19213 20210
19213 21069
19219 22298
19220 21257
19224 21118
19225 22749
19226 20058
19227 20790
19227 21991
19228 20718
19229 20266
19230 22138
19232 20092
19233 21021
19235 24008
19237 19595
19237 23761
19238 20425
19238 23308
19239 20210
19239 20916
19239 21069
19240 23331
19242 21943
19243 23182
19244 23869
19245 19246
19245 22687
19245 23445
19246 22687
19246 23445
19248 21769
19248 23849
19249 19421
19251 21083
19251 21378
19251 22317
19251 23385
19252 19372
19252 22276
19252 22415
19253 20714
19254 20272
19254 21806
19256 20529
19257 21352
19259 19878
19263 23090
19264 21645
19265 20718
19265 21894
19269 21132
19277 21257
19278 21320
19279 20756
19279 21023
19282 24429
19283 20486
19284 21157
19284 21330
19288 23369
19290 21942
19291 19367
19291 21925
19292 21614
19292 22315
19294 21522
19294 21836
19295 19639
19296 20303
19299 20052
19300 22138
19302 20516
19302 21047
19304 19305
19304 19306
19304 19307
19304 19368
19304 20317
19304 21761
19304 23535
19305 19306
19305 19307
19305 20316
19305 20317
19305 22324
19307 23535
19309 21655
19310 21350
19310 23163
19310 23215
19311 19703
19312 20499
19314 19837
19315 21085
19316 19757
19317 20015
19317 21526
19317 23560
19318 19412
19318 19474
19318 19684
19318 19918
19318 20310
19318 20387
19318 21166
19318 21185
19318 21304
19318 22025
19318 22039
19318 22064
19318 22104
19318 22420
19318 22471
19318 22507
19318 23122
19318 23463
19320 23200
19322 19688
19323 20167
19323 20789
19323 21366
19323 23832
19328 20263
19328 21298
19328 23071
19329 23041
19330 23589
19331 21035
19332 23088
19332 23683
19334 21054
19335 21397
19337 19504
19339 19486
19346 21518
19346 22467
19346 23234
19346 23246
19348 20353
19348 21959
19348 23218
19350 20404
19352 19692
19353 19672
19353 21175
19353 21344
19353 22798
19354 21713
19355 20765
19355 23745
19356 21264
19359 21128
19362 20455
19362 23614
19363 23002
19364 20125
19367 20241
19367 21925
19369 19927
19371 22281
19371 22354
19371 22490
19371 22606
19371 22926
19371 23768
19372 22276
19372 22415
19373 22409
19374 21272
19374 22789
19375 23921
19375 23974
19375 24204
19377 20110
19380 20847
19380 23515
19381 19750
19381 21165
19381 21437
19381 22932
19381 23239
19381 23586
19382 20731
19382 23760
19383 21648
19384 19954
19384 23028
19386 21033
19387 23492
19389 23637
19389 24042
19389 24189
19389 24239
19390 23662
19391 22053
19393 20249
19394 21828
19394 22162
19396 21428
19399 22411
19400 22553
19401 23047
19402 23706
19402 24477
19403 19961
19403 21454
19404 22637
19404 23606
19408 24177
19408 24225
19409 23765
19410 20370
19411 21372
19411 21827
19411 22047
19411 23611
19412 22025
19413 22017
19414 23988
19416 19987
19416 21467
19417 21509
19418 23553
19419 24316
19420 23699
19421 19450
19421 21742
19422 22613
19428 20683
19428 23201
19431 22011
19432 20346
19433 22670
19433 23228
19434 20866
19436 20502
19437 19566
19437 23189
19438 21907
19442 20531
19442 22344
19443 23126
19444 24480
19446 23073
19447 20429
19447 21081
19447 21964
19450 21742
19451 21838
19455 20262
19455 20573
19455 21492
19455 21941
19455 22813
19457 24164
19460 20744
19462 20996
19463 19554
19463 20037
19464 20564
19466 20380
19470 20777
19470 23181
19473 23201
19474 22025
19475 22079
19475 23628
19476 19491
19476 23596
19477 21224
19477 22209
19477 23511
19479 23662
19482 21217
19482 23360
19488 23912
19488 23992
19490 20702
19490 23227
19491 20220
19491 21552
19492 20112
19493 22122
19493 23787
19494 20210
19494 20916
19495 20591
19495 22777
19496 20764
19496 22007
19497 21969
19497 23541
19498 22223
19499 20554
19499 22671
19501 20072
19502 20257
19502 21397
19502 21805
19503 22899
19504 20414
19504 23095
19505 20771
19505 21721
19506 20071
19506 20816
19506 20937
19506 22482
19507 23590
19508 21419
19509 19740
19509 20657
19510 20179
19510 21698
19515 19912
19515 20103
19515 23045
19516 21288
19518 19998
19518 22653
19521 23550
19523 20588
19524 19824
19524 21129
19525 22952
19527 23200
19528 22053
19531 19532
19533 19811
19535 21634
19535 22881
19536 22417
19537 19554
19537 20037
19537 21380
19537 22936
19541 23888
19544 21029
19547 21556
19548 20492
19551 19912
19551 20906
19552 22174
19554 20235
19554 21341
19554 21380
19554 21837
19554 22935
19558 20295
19558 20604
19559 24031
19559 24439
19560 21626
19562 21896
19562 23749
19563 21926
19564 21311
19564 22365
19564 22530
19566 23189
19569 20836
19569 21646
19571 22957
19574 20424
19574 22529
19576 22737
19576 23489
19576 23495
19579 21912
19581 21365
19581 23396
19584 22137
19585 20568
19586 20733
19586 23080
19587 21909
19588 20886
19589 20144
19589 23236
19592 23839
19592 23844
19592 24451
19594 21162
19595 23761
19596 20719
19597 20343
19597 23106
19599 19811
19600 19623
19600 20059
19600 20574
19600 20768
19600 21622
19600 21678
19600 21872
19600 22192
19600 23744
19601 20093
19603 21402
19605 19611
19606 20966
19607 20649
19607 23067
19611 19906
19611 20199
19611 20461
19611 20653
19611 22449
19611 23125
19611 24165
19613 21892
19614 20370
19614 22563
19614 23047
19616 22203
19616 22361
19619 21725
19622 22425
19623 20674
19623 20768
19626 22156
19626 22421
19628 20506
19628 21150
19628 22921
19629 21869
19629 23580
19629 23755
19629 23860
19631 20175
19631 20447
19631 21867
19632 20771
19634 20535
19634 23136
19635 21105
19635 23590
19638 20454
19639 21626
19641 23146
19642 21575
19642 22488
19642 22970
19643 20113
19643 20489
19643 21545
19643 23542
19650 20107
19650 20376
19650 22287
19651 20250
19651 22748
19652 22916
19652 22980
19653 22605
19655 21275
19661 21870
19662 21864
19662 22617
19663 22117
19663 23642
19665 23027
19667 24076
19668 22439
19671 23647
19672 21175
19672 21344
19673 23240
19674 22224
19675 23706
19675 24070
19676 22691
19678 19950
19678 20530
19678 21045
19678 22038
19680 22894
19685 21111
19687 19836
19687 20087
19687 20741
19687 21902
19687 22608
19691 20717
19691 21668
19692 19865
19692 22365
19692 22561
19693 22510
19694 21882
19696 21235
19697 23369
19698 20826
19699 20349
19699 20802
19701 22419
19705 22638
19705 24222
19707 22450
19708 19744
19708 21156
19709 22000
19709 22757
19710 23109
19710 23195
19712 22213
19712 22810
19713 23513
19716 22760
19717 23242
19725 22461
19726 23200
19727 22791
19731 19770
19731 23373
19733 20196
19733 20433
19734 22856
19736 22214
19737 22792
19737 23683
19738 23059
19739 22994
19742 21195
19743 24389
19743 24390
19743 24391
19744 20390
19744 21156
19744 21439
19745 21437
19746 20230
19748 23174
19750 20063
19750 22290
19751 20333
19752 21593
19752 21614
19753 19854
19753 22452
19754 23472
19757 20166
19757 21089
19757 22983
19757 23019
19760 22025
19764 24104
19767 21102
19768 23729
19769 23065
19771 22168
19772 22746
19774 23154
19775 20717
19775 22391
19776 21856
19776 24090
19777 20818
19777 21409
19778 21820
19781 19931
19782 19974
19782 20954
19784 21679
19784 22726
19785 20780
19785 20958
19785 21614
19787 20909
19788 22851
19789 21708
19789 23092
19791 20232
19791 21695
19791 21895
19791 23341
19793 20290
19793 20727
19793 20951
19793 21473
19795 20835
19795 21875
19797 22796
19801 21487
19806 19807
19806 23199
19807 22146
19808 20430
19812 19817
19812 19818
19815 20428
19816 19817
19816 19818
19816 20602
19820 21636
19820 22895
19821 21835
19823 20261
19824 20806
19824 21129
19824 22735
19824 22904
19826 20275
19828 21157
19828 22780
19828 22806
19828 23473
19830 21897
19830 22876
19831 20855
19833 23314
19834 19926
19834 21408
19834 22221
19834 23424
19834 23553
19835 20722
19837 23028
19840 20625
19840 21529
19840 22731
19841 22377
19842 20066
19849 20377
19849 20974
19852 22739
19855 20949
19857 24275
19857 24430
19859 21550
19862 20687
19862 20689
19864 23276
19867 20001
19869 22428
19871 23159
19874 23038
19875 21181
19875 22885
19879 22998
19880 20568
19880 22053
19882 21556
19883 22438
19884 19885
19884 22438
19885 22438
19887 22805
19890 21270
19891 22154
19893 23652
19893 24316
19894 21402
19894 22940
19896 20209
19896 21415
19899 21206
19900 22856
19901 24348
19905 20638
19907 20693
19908 21256
19909 22323
19910 20191
19912 20103
19912 20906
19913 21036
19913 22300
19913 22599
19915 21236
19915 21238
19915 22481
19916 23776
19916 23792
19917 21733
19923 21597
19923 22373
19923 23200
19924 23103
19926 22975
19927 19933
19927 23003
19928 20107
19929 20470
19929 20829
19929 20908
19929 22321
19929 22541
19931 20098
19931 20723
19931 22252
19932 21410
19932 22692
19936 23985
19936 24041
19936 24152
19937 20959
19937 21997
19943 20412
19945 22787
19945 23167
19945 23584
19946 22048
19947 22009
19950 20530
19951 21486
19951 22545
19951 23056
19952 22386
19954 22053
19954 23028
19955 20572
19956 21079
19956 23530
19957 20565
19957 23242
19957 23662
19958 23643
19959 20304
19960 22281
19962 22225
19963 21400
19963 22225
19964 20369
19965 22486
19966 21917
19966 22501
19968 21457
19968 23356
19968 23364
19968 23711
19970 22288
19973 20630
19973 21935
19973 23225
19973 24381
19976 23259
19978 20414
19978 21918
19980 20139
19980 22246
19982 21614
19983 23369
19983 24479
19984 24017
19984 24179
19984 24446
19985 22668
19985 22843
19987 20185
19988 21009
19988 21323
19988 22040
19988 23121
19990 24099
19992 22848
19992 23350
19993 23166
19994 22056
19997 20804
19997 21963
19997 22313
19997 22575
19999 20771
20002 23212
20004 23395
20008 20650
20008 21681
20009 22580
20010 24129
20011 24010
20011 24398
20012 20417
20018 20029
20018 20033
20021 20866
20022 20025
20022 20026
20022 20027
20022 20031
20025 20028
20026 20027
20026 20030
20026 20031
20027 20028
20027 20030
20027 21547
20028 20029
20028 20031
20028 20032
20028 20033
20028 21547
20029 20031
20029 20033
20031 20032
20031 20033
20036 24225
20038 23786
20038 24369
20040 21461
20042 21072
20043 20179
20045 20216
20047 21503
20047 23455
20048 21905
20052 22243
20055 22885
20063 21437
20065 23396
20066 22253
20067 21347
20067 22505
20067 23204
20068 20257
20068 21397
20069 21773
20070 20417
20074 21244
20074 21766
20076 20289
20076 20393
20077 22058
20077 22107
20081 21141
20084 24141
20084 24326
20084 24407
20085 22169
20085 23287
20086 21244
20086 21767
20087 21771
20089 24066
20092 21603
20092 22033
20093 20127
20093 21514
20093 21552
20093 21579
20093 22712
20095 22151
20096 23759
20098 23076
20099 21435
20100 22855
20100 23044
20102 21959
20103 23045
20105 22592
20105 23431
20107 20141
20107 20201
20107 20508
20107 22947
20107 23049
20107 23554
20109 24189
20109 24219
20110 22728
20110 22742
20111 21290
20113 20489
20113 23542
20115 22630
20118 21104
20119 21137
20121 23663
20122 21645
20122 22464
20123 20652
20123 22189
20127 20638
20128 23372
20128 23378
20129 20913
20129 21455
20131 21730
20131 22880
20132 22259
20133 23021
20134 21267
20134 22173
20134 22658
20134 23308
20135 21482
20137 20882
20137 22993
20141 22287
20142 22686
20142 23594
20144 20170
20144 21046
20144 21640
20146 20766
20146 21048
20146 21589
20146 23697
20146 23895
20147 23810
20147 23877
20148 20722
20148 20815
20152 21971
20152 23407
20152 23562
20154 20758
20154 21170
20157 21549
20160 20788
20160 22274
20162 20513
20163 20933
20164 20780
20166 23019
20167 21366
20167 23832
20169 23551
20171 24222
20173 24302
20173 24383
20174 22632
20174 22661
20175 22412
20178 22182
20179 20193
20179 20926
20180 20647
20180 21424
20180 23299
20183 22116
20184 22287
20184 23552
20185 21090
20188 20667
20192 21903
20197 20748
20198 23412
20199 20653
20200 23558
20201 21658
20203 21152
20203 21719
20206 23200
20207 22712
20208 21365
20208 22502
20209 20860
20209 21797
20210 20916
20210 21069
20213 23388
20214 23774
20214 24242
20215 21282
20215 21663
20216 21281
20216 21497
20216 21624
20217 20218
20217 20708
20219 23759
20220 22294
20220 23596
20221 24201
20221 24202
20221 24340
20221 24341
20221 24462
20223 23105
20224 22940
20225 23454
20227 24021
20228 21198
20229 21652
20229 22112
20231 20955
20232 21695
20232 23341
20233 21745
20234 20735
20234 20861
20234 21556
20237 20266
20237 22589
20239 20763
20239 21296
20239 23565
20240 20483
20241 22639
20242 23505
20244 21280
20245 21353
20247 21181
20247 23084
20248 21095
20249 21269
20250 22748
20251 21455
20251 21489
20253 23255
20255 21666
20255 23521
20257 20529
20257 21397
20258 20593
20261 22931
20261 23146
20262 20573
20266 22589
20267 20276
20267 21283
20270 21786
20270 21996
20272 21806
20272 22163
20273 20659
20274 23663
20275 21235
20276 21182
20277 23297
20278 23548
20279 21180
20280 20345
20280 23178
20281 23326
20283 22334
20287 22359
20288 22991
20293 21061
20294 21080
20294 21855
20294 23132
20295 21931
20296 21333
20296 21770
20300 22436
20302 22069
20304 21219
20304 22365
20306 22910
20307 22056
20311 22962
20312 22377
20316 22324
20320 21588
20320 22298
20322 20325
20323 20325
20323 20326
20327 21137
20327 21402
20328 22532
20330 24256
20330 24300
20331 21530
20333 22447
20334 23384
20335 21551
20336 22090
20338 21070
20338 21434
20338 22093
20338 23149
20340 20918
20341 21094
20341 21205
20341 22301
20341 23834
20342 21601
20343 20987
20343 21290
20343 23106
20346 20696
20347 22057
20348 21003
20348 22429
20349 20802
20350 21234
20350 23138
20352 24000
20355 20356
20356 20357
20356 23382
20358 20775
20361 22681
20364 21464
20365 24014
20365 24221
20365 24468
20366 22721
20367 20545
20367 22998
20368 21445
20370 22528
20370 23048
20371 21345
20371 21681
20371 21820
20371 22494
20372 21754
20374 21753
20374 21834
20375 20840
20376 22287
20376 23552
20377 22052
20377 23359
20377 23492
20379 21227
20379 21946
20383 21450
20383 22756
20388 22362
20389 22404
20392 22201
20394 21562
20400 21486
20400 23056
20401 22858
20403 21015
20403 21719
20404 22551
20405 22769
20407 23921
20408 22588
20409 22646
20412 21916
20415 22350
20417 21178
20417 21898
20419 20985
20419 22193
20419 23098
20420 23258
20423 23365
20424 22529
20425 23308
20426 20427
20426 21726
20426 24346
20429 22755
20431 21443
20434 21241
20435 23317
20437 23410
20438 23369
20441 20771
20442 24225
20442 24246
20444 21881
20445 21381
20445 24215
20446 22771
20448 20989
20449 23488
20451 23513
20453 20718
20457 21257
20457 21660
20460 21703
20462 21673
20465 20590
20466 22741
20468 22479
20468 22733
20468 22750
20469 21083
20469 23385
20473 21910
20473 22694
20473 22976
20473 23614
20474 21501
20475 24094
20475 24439
20477 22830
20477 23426
20478 22873
20478 23601
20480 22619
20483 24087
20485 22890
20485 23002
20488 20533
20489 21545
20489 21564
20492 20504
20492 20637
20492 21743
20492 21833
20493 20663
20497 23010
20501 23742
20501 24069
20505 20795
20506 21150
20508 23200
20510 23493
20511 22976
20511 23614
20512 21881
20513 22905
20514 22554
20517 21676
20518 23004
20519 22849
20522 22627
20529 22440
20534 21737
20538 22696
20540 21449
20543 21995
20545 21847
20545 22156
20549 20599
20550 20716
20551 23955
20551 24279
20553 21828
20554 21584
20554 23382
20562 22365
20563 22913
20566 21935
20566 23225
20569 23523
20571 20747
20571 20876
20572 21074
20572 22102
20573 21941
20576 21251
20576 22095
20583 23527
20584 20899
20584 23131
20587 24057
20587 24443
20591 22777
20591 23686
20592 22220
20592 23379
20594 22150
20595 21578
20595 22281
20596 22119
20597 23162
20600 21312
20601 20626
20604 21931
20605 24301
20611 21171
20611 22775
20615 21644
20618 21607
20620 21062
20621 20746
20625 20910
20625 21529
20625 22082
20625 22731
20626 20771
20626 22894
20627 23028
20628 22945
20629 22371
20630 21655
20631 22188
20633 23412
20634 22378
20637 21743
20639 21013
20639 22928
20640 21052
20640 21856
20640 23888
20641 23729
20641 24032
20641 24328
20641 24446
20642 20840
20642 20950
20643 21934
20644 22963
20645 22055
20647 23495
20648 23297
20650 21681
20650 22489
20651 21324
20652 22189
20653 21488
20653 21671
20653 22677
20653 23125
20654 22793
20655 21593
20655 21614
20656 22281
20658 21107
20659 20673
20660 20759
20660 20805
20660 21876
20662 22305
20662 23027
20667 22904
20668 21556
20669 22086
20671 21181
20671 22885
20672 20877
20674 21181
20678 22231
20681 23200
20682 21181
20683 23201
20687 20688
20687 20689
20691 23188
20692 21537
20693 21685
20694 21698
20695 21115
20697 22651
20697 22841
20698 23859
20698 23938
20698 24101
20699 23784
20699 24436
20701 23312
20702 23227
20703 21280
20704 21712
20705 22138
20706 22894
20707 21097
20712 24414
20714 21747
20714 23349
20715 23769
20717 20732
20717 20817
20717 21148
20717 22121
20717 22391
20718 20850
20718 21287
20718 21822
20718 22826
20718 23074
20721 21430
20721 21509
20722 20815
20724 21556
20725 24253
20725 24266
20726 21725
20727 20951
20729 20776
20729 20964
20731 23401
20732 21668
20732 22121
20732 22391
20735 21556
20736 23854
20739 24321
20741 21902
20742 21618
20745 23135
20745 24006
20745 24058
20746 20805
20747 21949
20755 21702
20755 22724
20755 23683
20756 21023
20763 22431
20764 22007
20768 21622
20769 23178
20771 21796
20771 21810
20771 22894
20771 23034
20771 23601
20771 23743
20771 23841
20776 20964
20778 21485
20781 23874
20781 24071
20783 22277
20784 21360
20784 23441
20789 22230
20789 23460
20790 22513
20792 21735
20799 23404
20804 21199
20806 22592
20807 23369
20808 20870
20808 24164
20808 24247
20809 21593
20812 21067
20813 21315
20813 22151
20817 22391
20822 24049
20822 24354
20822 24445
20824 22913
20828 23991
20830 23796
20830 24303
20834 23987
20834 24057
20835 22029
20837 23449
20841 22622
20848 22118
20849 21138
20850 23532
20851 21817
20852 22150
20856 21667
20856 23338
20857 20866
20860 21415
20861 21556
20864 22079
20864 22996
20865 23647
20866 21143
20866 21319
20868 23404
20869 23475
20870 21794
20870 22900
20870 23710
20870 24075
20870 24164
20872 22046
20877 21164
20877 22717
20879 22079
20881 23531
20882 21399
20882 22584
20884 23808
20885 23230
20888 22604
20890 24395
20892 22365
20893 23955
20895 23439
20896 21860
20897 23274
20899 22106
20900 24007
20901 21311
20901 22365
20903 24178
20904 21644
20905 21441
20905 22742
20907 23786
20907 23952
20907 24053
20910 22082
20912 21998
20913 21455
20916 21069
20917 21786
20920 23067
20920 23302
20924 21256
20925 20983
20925 21758
20928 22318
20929 22163
20930 23682
20931 23706
20933 23843
20934 22555
20934 22828
20935 22436
20936 22152
20937 23258
20941 21412
20942 24304
20942 24305
20942 24425
20944 24337
20946 22026
20949 22365
20952 21340
20952 21723
20956 21770
20957 21996
20962 22933
20963 21117
20969 20977
20970 23931
20971 21341
20976 21101
20976 22236
20978 23967
20982 21178
20983 23028
20984 22837
20987 21290
20990 22597
20991 23054
20992 22024
20992 22178
20995 22831
20996 23019
20999 22958
21002 23105
21009 21098
21009 22913
21009 23121
21009 23840
21010 21183
21010 22360
21013 21446
21014 22214
21015 23153
21017 24044
21022 24225
21024 22709
21026 21067
21027 22666
21029 21822
21029 22365
21029 23502
21030 22733
21032 23969
21032 24474
21034 23138
21036 22599
21037 23625
21037 24367
21039 22894
21044 22024
21046 21640
21047 21681
21047 21820
21048 23094
21048 23416
21051 21661
21051 22071
21053 22676
21053 22919
21054 21600
21056 22587
21057 22841
21060 21551
21061 22675
21062 22034
21068 22969
21070 22818
21071 24309
21072 22655
21083 23385
21085 21421
21085 23200
21087 21455
21089 23019
21096 21378
21100 21317
21100 24407
21106 22091
21106 23294
21110 23461
21113 23433
21114 22103
21115 21938
21115 21939
21122 22457
21123 22008
21124 21520
21127 22026
21131 22859
21133 24091
21135 22797
21135 23333
21137 21590
21137 21957
21142 22472
21144 22036
21145 22562
21147 23326
21150 22921
21150 23563
21155 22588
21157 21330
21158 21357
21159 22818
21169 22833
21172 23297
21174 22156
21174 22820
21176 21496
21177 21614
21178 21305
21178 23507
21179 21487
21181 21450
21181 22756
21181 23355
21182 21550
21183 24232
21186 22972
21187 21655
21190 22485
21191 21339
21191 23755
21193 22971
21194 22773
21196 22169
21198 21928
21199 22598
21200 21201
21200 22114
21200 22374
21200 22375
21200 22703
21201 22114
21202 22650
21204 23871
21205 21513
21205 22246
21209 22315
21210 22866
21210 24487
21211 24491
21213 24422
21216 21735
21218 22469
21224 22209
21224 23511
21228 21254
21230 22714
21231 23038
21234 21463
21234 21612
21234 22353
21234 23138
21234 23598
21236 21238
21238 22481
21239 23279
21240 22547
21243 23955
21243 24279
21243 24332
21244 21766
21244 21768
21245 21683
21248 23461
21249 21540
21249 22600
21250 21540
21251 22095
21257 21660
21259 22045
21260 22330
21261 23680
21262 23467
21267 22173
21270 22365
21270 23190
21271 23374
21280 23369
21281 21624
21283 21550
21286 23248
21290 21490
21293 22524
21294 22364
21294 22366
21294 23371
21299 21300
21306 22193
21307 23212
21311 22365
21312 21506
21312 22362
21313 21556
21315 22151
21315 23389
21316 23898
21317 24407
21322 22525
21323 22913
21333 21770
21334 22352
21334 22544
21337 21644
21339 21536
21339 22719
21339 23470
21342 21987
21346 22931
21347 23204
21349 23551
21354 24198
21355 21724
21356 21993
21356 23475
21359 21447
21359 23558
21360 22009
21363 22827
21365 22502
21365 23396
21369 22204
21371 23987
21372 21827
21377 24187
21378 23385
21380 22251
21381 24131
21381 24215
21386 23183
21388 22018
21389 22653
21389 22730
21394 22287
21394 23552
21396 24468
21399 22993
21401 23126
21403 22768
21410 22692
21411 21911
21413 21911
21414 23329
21415 21797
21415 23368
21416 23630
21416 23903
21416 24118
21416 24192
21418 21593
21420 22799
21424 21556
21424 21614
21426 22866
21430 21509
21432 23857
21434 22220
21434 23379
21436 23765
21436 24017
21436 24161
21437 22290
21437 22550
21437 22932
21437 23239
21437 23586
21441 22319
21442 22826
21444 23889
21444 23890
21444 24405
21446 22928
21446 23500
21451 21786
21451 22153
21451 22767
21456 21699
21469 23160
21471 22949
21478 21582
21478 22063
21479 22135
21480 23435
21482 22922
21484 23326
21486 23056
21487 22723
21489 21802
21491 22365
21493 22480
21493 23026
21493 23467
21495 23138
21496 22098
21503 23455
21505 21614
21505 21922
21505 23381
21506 22362
21508 21721
21508 21810
21508 22499
21508 23555
21509 22882
21510 23200
21513 22404
21515 21969
21516 23200
21518 22467
21518 23234
21518 23246
21527 22708
21528 23577
21529 22731
21530 23230
21532 23203
21532 24154
21534 23072
21538 22662
21539 22856
21540 21541
21541 22600
21545 21564
21548 23246
21554 24490
21556 21570
21556 21972
21556 22737
21556 23489
21558 22672
21566 23169
21570 21697
21570 21781
21570 22254
21572 23536
21573 23619
21573 24456
21575 22488
21578 22281
21580 21814
21581 21591
21583 21584
21586 22440
21589 23697
21592 22740
21593 21614
21593 21621
21593 22020
21593 22302
21593 22445
21593 22959
21593 23583
21594 23369
21596 22046
21603 22279
21603 22304
21603 22673
21604 23505
21608 21750
21608 22865
21611 22284
21613 23435
21614 21878
21614 22020
21614 22302
21614 22445
21614 22737
21614 22959
21614 22982
21614 23185
21614 23250
21614 23393
21614 23456
21614 23489
21614 23583
21615 21852
21618 21741
21619 22156
21619 22421
21627 23380
21629 22164
21630 22067
21631 21649
21635 22315
21635 22982
21636 22895
21641 23772
21644 21948
21646 21648
21651 23784
21651 24436
21656 23465
21657 22775
21659 21909
21663 22123
21663 22622
21666 23521
21667 22875
21672 23375
21673 22006
21673 22077
21673 22599
21677 22042
21681 21820
21681 22489
21682 21690
21684 23740
21687 24237
21687 24301
21689 23186
21690 22128
21691 21885
21691 23426
21692 22053
21694 21955
21695 21895
21695 23341
21697 21781
21697 22254
21700 22752
21700 23366
21701 21943
21702 22792
21705 23731
21709 22025
21710 23468
21710 23519
21713 22395
21714 21722
21719 22233
21719 22291
21719 23051
21721 22499
21721 23555
21724 23233
21725 23087
21731 22868
21732 22716
21736 22542
21744 22063
21744 22639
21745 22730
21746 21840
21746 22064
21746 22651
21747 23200
21750 22865
21750 23079
21751 23328
21752 23167
21752 23584
21753 21834
21755 21756
21757 22994
21759 24476
21762 22143
21767 21768
21774 24299
21781 22254
21786 21996
21786 22767
21787 22759
21790 22913
21794 22900
21794 23710
21794 24164
21795 22307
21796 22894
21800 22607
21808 23784
21808 24285
21810 22499
21811 23339
21818 23875
21821 22097
21825 22067
21829 23739
21829 24031
21829 24094
21829 24439
21830 23739
21830 24094
21830 24439
21831 23739
21831 24031
21831 24439
21832 22866
21833 22347
21835 23435
21838 22999
21840 22064
21844 24011
21844 24157
21845 22168
21846 22565
21862 23886
21862 24242
21863 22220
21863 23641
21864 22617
21867 23020
21868 24250
21869 23860
21872 22718
21872 23744
21873 23100
21874 22597
21879 22237
21881 22207
21881 22483
21885 23426
21891 23366
21894 23074
21895 23341
21895 23389
21897 22876
21899 22597
21901 22379
21903 23767
21904 23912
21909 22466
21912 22353
21912 23138
21913 22006
21916 22803
21919 23960
21920 24043
21920 24050
21927 22913
21932 23100
21939 21940
21945 24005
21946 22799
21950 21951
21950 22700
21951 22700
21958 22195
21968 24173
21968 24458
21970 22361
21971 22654
21971 23407
21975 22636
21976 22570
21979 22053
21981 22785
21985 22675
21994 24201
21994 24340
21994 24464
21995 22867
22008 24348
22010 23510
22013 24284
22013 24365
22014 24284
22015 24284
22022 22706
22023 23591
22024 22178
22025 22507
22025 23405
22026 23206
22028 23067
22030 22031
22031 22032
22034 22428
22035 22279
22035 22304
22035 22673
22040 22913
22040 23121
22043 22816
22044 22577
22044 23497
22052 23492
22053 23104
22053 23272
22054 22387
22058 22107
22059 23628
22060 23100
22063 22639
22064 23438
22065 22856
22066 22787
22071 22315
22072 22565
22079 22096
22082 22731
22088 22692
22089 23023
22096 22101
22097 23161
22105 22481
22106 23911
22108 24443
22111 23678
22115 23162
22121 22391
22122 23787
22122 23915
22122 24071
22124 23198
22131 22156
22131 22257
22134 22154
22136 23735
22136 24015
22138 22434
22140 23191
22140 23442
22140 23602
22142 24473
22143 22937
22144 23609
22151 23389
22153 22767
22156 22257
22156 22421
22156 23295
22159 23358
22161 24213
22169 23287
22170 22350
22173 23308
22175 23292
22177 23100
22179 22228
22181 22915
22184 22540
22186 22734
22187 23461
22190 23871
22190 23977
22193 23098
22197 22238
22197 24048
22197 24154
22201 24257
22203 22954
22203 23039
22205 23351
22209 23511
22215 24402
22220 23379
22231 23038
22231 23050
22238 23406
22238 23855
22238 23920
22238 24064
22238 24154
22240 22576
22241 22317
22242 22317
22244 23365
22245 24409
22245 24473
22246 22301
22249 22250
22249 22871
22257 22458
22258 23358
22261 22953
22261 23420
22261 23648
22261 24159
22262 22662
22265 23323
22267 23650
22275 23525
22276 22415
22277 23415
22278 23810
22278 23877
22281 22725
22281 23284
22281 23540
22281 23768
22282 23827
22285 23623
22287 22327
22287 23552
22289 23212
22290 23586
22293 23447
22299 24067
22300 22599
22302 22959
22305 23027
22306 24476
22309 23400
22309 23887
22309 24087
22310 23542
22311 23138
22315 22982
22320 23072
22324 23535
22325 23970
22327 23552
22328 22803
22331 23796
22331 24303
22332 22784
22333 23712
22342 22730
22342 22994
22345 23028
22350 22496
22351 22716
22352 23155
22364 22366
22364 22367
22365 22437
22365 22561
22366 23371
22366 23491
22367 23491
22371 22396
22371 23869
22374 22375
22376 22630
22377 23018
22378 23528
22382 23854
22383 23200
22385 22713
22387 23533
22392 22855
22392 23044
22392 24061
22392 24205
22396 22766
22396 23869
22410 24258
22415 23062
22416 22624
22419 23747
22419 23808
22429 23478
22430 23852
22433 23589
22435 23081
22441 23857
22441 23954
22443 24225
22448 24427
22450 22649
22451 23431
22453 24442
22459 22799
22473 23398
22475 22909
22476 24200
22476 24246
22479 22750
22481 23037
22482 23258
22486 23012
22492 22775
22493 22676
22493 22919
22497 23440
22499 23555
22500 22728
22505 23114
22505 23204
22508 23961
22509 23900
22509 23950
22517 24273
22522 23966
22522 23968
22523 24043
22523 24301
22527 22998
22528 22563
22534 23765
22534 24257
22534 24329
22536 23897
22545 23056
22554 23693
22558 23550
22563 23047
22564 23140
22567 23029
22567 23687
22569 22961
22572 22617
22574 23481
22578 22820
22579 23354
22579 24012
22579 24246
22581 23709
22584 22993
22585 23387
22592 22904
22593 23166
22596 23258
22597 23581
22597 23624
22623 23449
22627 23397
22632 23347
22635 22637
22637 23606
22638 24222
22638 24224
22644 22653
22647 23822
22647 24190
22647 24249
22652 22892
22652 24024
22658 23308
22667 23538
22668 22843
22670 23228
22674 23137
22676 22919
22678 23319
22682 23875
22682 23984
22684 23408
22685 22965
22688 24180
22690 23279
22692 22854
22696 23587
22698 22885
22701 22757
22701 23237
22702 23000
22711 23952
22711 24476
22716 23574
22719 23509
22723 22948
22724 23683
22726 23996
22727 23996
22729 23210
22736 24380
22740 22843
22740 23231
22748 24220
22749 22891
22758 22945
22760 22763
22763 22880
22766 23869
22768 23133
22770 23198
22773 23905
22773 23935
22775 22874
22775 23033
22776 23056
22777 23686
22780 22962
22781 23057
22781 23221
22783 23629
22783 24380
22787 23584
22792 23683
22797 23333
22806 23473
22807 23006
22808 23435
22816 24468
22825 23255
22830 23426
22835 22994
22839 24447
22839 24449
22842 23605
22858 23103
22863 22997
22873 23601
22877 24225
22878 23913
22880 23264
22888 23813
22888 24388
22889 23362
22889 23446
22889 23471
22889 24050
22889 24452
22892 23417
22892 24024
22892 24264
22893 23417
22893 24264
22898 23825
22900 23638
22901 23369
22902 24002
22902 24414
22909 23943
22913 23840
22914 23161
22916 22961
22917 23265
22917 23839
22921 23563
22923 23287
22924 23619
22924 23999
22924 24213
22953 24159
22954 23236
22966 23448
22968 23358
22980 23180
22983 23019
22985 23446
22985 23471
22985 23713
22985 23958
22987 23799
22987 24054
22989 23900
22994 23172
23001 24079
23007 23008
23007 23152
23008 23152
23013 23015
23013 23016
23015 23016
23017 23854
23017 24345
23023 23060
23029 23687
23031 23072
23042 23879
23049 23200
23050 23370
23056 23211
23061 23090
23063 23329
23066 23750
23068 23952
23075 24008
23091 23200
23094 23416
23097 23750
23099 23925
23108 23671
23108 24110
23109 23195
23110 23661
23111 23709
23111 23907
23113 24389
23113 24390
23115 24199
23115 24225
23116 24017
23116 24240
23117 23694
23117 24006
23117 24275
23119 24154
23120 23929
23124 24122
23124 24213
23127 23706
23128 23719
23135 23694
23135 24006
23135 24058
23135 24132
23135 24275
23135 24430
23142 23536
23145 23425
23145 23607
23145 23657
23151 23925
23163 23215
23164 23184
23167 23584
23171 24279
23177 24086
23177 24158
23188 23311
23188 24349
23193 23748
23200 23232
23203 23636
23203 23809
23203 24093
23203 24154
23204 23340
23205 24173
23213 23266
23213 23699
23213 24290
23217 24296
23220 23458
23224 23226
23229 23335
23229 23578
23241 24015
23251 23952
23251 24384
23251 24467
23252 24463
23256 23694
23256 24275
23257 23369
23257 24479
23261 23601
23265 23585
23265 23839
23271 24162
23274 24172
23274 24326
23274 24407
23277 23301
23287 23414
23304 23429
23305 24394
23305 24408
23306 23326
23312 23919
23312 24154
23312 24400
23315 23878
23315 24024
23315 24264
23321 23804
23321 24144
23323 23613
23323 23696
23323 23864
23323 24168
23325 24159
23330 23523
23335 23578
23342 23705
23346 24450
23348 24278
23348 24414
23353 24302
23353 24383
23354 24085
23354 24225
23354 24312
23354 24489
23356 23364
23357 24256
23357 24318
23359 23369
23361 23362
23361 23363
23362 23363
23362 23471
23362 24414
23367 23635
23367 24058
23367 24275
23369 24109
23391 23922
23391 24272
23391 24427
23395 24247
23400 23887
23406 24154
23416 23697
23417 24264
23418 24198
23419 23699
23421 23809
23421 24093
23421 24154
23425 23607
23425 23657
23429 23495
23432 23932
23432 24216
23446 24259
23449 23496
23454 23841
23462 23717
23462 24256
23462 24318
23476 23895
23479 23854
23479 23856
23479 23954
23479 24424
23503 23722
23503 23957
23515 23934
23516 23951
23543 24138
23575 23783
23575 23814
23575 24151
23585 23839
23593 23688
23613 23696
23613 24168
23615 23861
23615 24056
23617 24344
23619 23838
23619 24213
23619 24347
23622 23932
23625 24367
23627 24122
23627 24213
23628 23639
23629 24385
23630 23903
23630 24118
23630 24119
23630 24121
23630 24289
23630 24469
23631 23671
23631 24187
23632 23678
23633 23820
23633 24284
23633 24487
23634 23682
23635 24058
23636 24154
23637 23872
23637 24239
23638 24164
23641 23930
23646 23920
23646 24078
23646 24325
23648 23790
23648 24159
23654 24324
23655 23694
23655 24421
23656 24154
23659 23820
23660 24176
23660 24225
23661 23816
23661 24209
23661 24334
23661 24356
23664 23721
23664 24034
23666 24414
23667 24099
23668 24230
23669 24213
23671 23765
23671 24007
23671 24110
23672 24265
23672 24267
23672 24443
23672 24461
23673 23932
23675 23718
23675 24225
23676 24240
23677 24410
23677 24458
23679 24258
23679 24261
23680 23682
23681 23682
23685 23802
23689 24059
23689 24103
23689 24198
23689 24266
23689 24270
23689 24378
23695 24438
23696 23864
23697 23895
23698 24078
23698 24154
23698 24325
23700 23861
23701 23997
23701 24313
23702 24201
23702 24202
23702 24341
23706 24477
23708 23781
23708 24196
23708 24225
23709 23907
23713 23815
23713 24016
23713 24452
23714 24383
23714 24409
23714 24473
23715 24379
23717 24300
23718 24092
23718 24149
23718 24386
23719 23952
23719 24039
23719 24384
23719 24467
23720 23922
23721 24083
23722 24336
23723 23789
23724 23746
23724 24009
23724 24387
23725 24260
23726 23848
23726 24302
23727 24224
23727 24247
23728 24133
23728 24246
23729 23993
23729 24032
23729 24328
23732 24197
23733 24285
23733 24436
23734 24321
23735 23741
23735 24015
23735 24043
23735 24301
23737 24397
23738 24254
23739 24439
23742 23794
23742 24069
23752 23815
23752 24126
23756 24076
23765 24019
23765 24100
23765 24161
23765 24298
23765 24329
23765 24374
23772 23797
23773 23889
23773 24323
23773 24405
23774 23886
23774 24242
23775 23871
23775 23910
23775 23977
23775 24010
23775 24287
23776 23792
23776 23945
23777 23999
23777 24053
23778 23946
23778 24371
23779 23907
23781 24196
23782 24384
23783 23814
23783 24151
23784 23963
23784 24135
23784 24436
23786 24053
23786 24346
23788 23789
23789 24063
23789 24368
23792 23933
23792 23944
23792 23945
23792 24397
23792 24399
23792 24420
23795 24303
23796 23823
23796 24303
23798 24416
23799 23833
23800 24099
23800 24187
23800 24414
23801 24122
23801 24153
23801 24387
23802 23876
23802 23955
23802 24125
23802 24307
23802 24332
23803 23927
23803 24273
23804 24144
23805 24039
23805 24256
23805 24318
23807 24131
23808 23847
23809 24093
23809 24154
23810 23877
23810 24042
23811 23839
23811 24377
23812 24338
23813 23975
23813 24078
23813 24435
23814 24151
23815 24292
23816 24027
23816 24209
23816 24334
23816 24356
23819 24019
23819 24189
23820 24254
23820 24365
23821 24142
23821 24456
23821 24472
23823 24303
23824 24236
23824 24237
23824 24301
23827 24127
23827 24128
23835 24225
23837 24286
23839 23861
23842 23969
23844 23861
23844 24161
23845 23879
23845 24103
23845 24106
23846 24062
23847 23848
23847 23952
23847 24181
23854 23857
23854 23954
23854 24424
23855 23928
23855 24078
23856 23857
23856 23954
23856 24107
23856 24218
23856 24241
23857 23954
23857 23991
23857 24424
23859 24102
23859 24434
23862 23863
23862 23953
23863 23980
23863 24253
23864 24168
23865 24067
23870 24096
23871 23977
23871 24398
23872 23970
23874 23915
23874 23916
23874 24071
23875 23914
23877 24242
23878 23931
23878 24310
23879 24106
23880 24306
23881 23957
23881 24040
23882 23937
23882 24080
23882 24296
23883 23912
23884 24412
23885 24204
23886 24189
23887 23997
23887 24038
23889 24405
23890 24323
23891 24167
23892 24174
23892 24417
23893 23894
23894 24160
23896 24147
23896 24148
23896 24281
23896 24387
23899 23900
23899 24067
23900 23950
23901 24055
23905 23906
23909 23912
23909 24363
23909 24477
23910 23977
23910 24398
23912 23961
23912 24070
23912 24415
23912 24435
23913 23998
23913 24062
23915 23916
23915 24026
23915 24071
23915 24372
23916 24004
23916 24243
23917 23939
23918 24216
23918 24251
23920 24048
23920 24154
23921 23974
23922 24164
23923 24096
23927 24273
23928 24064
23929 24088
23932 24091
23932 24162
23932 24442
23935 24230
23938 24101
23938 24102
23938 24452
23940 24422
23943 24397
23944 23992
23945 23992
23947 23962
23947 23975
23948 24175
23948 24403
23949 24319
23949 24321
23950 24022
23951 24153
23951 24387
23952 23999
23952 24181
23952 24384
23952 24434
23953 23997
23954 24107
23955 24307
23955 24423
23956 23972
23956 24065
23957 24040
23960 24305
23961 23969
23961 24376
23962 24366
23963 24135
23963 24285
23964 24451
23966 23968
23966 24414
23969 24111
23969 24339
23971 23996
23972 23986
23973 24099
23976 24033
23977 24398
23978 24238
23979 24164
23979 24427
23980 24155
23980 24266
23981 24480
23983 24246
23985 24152
23987 24057
23987 24112
23987 24443
23988 24037
23988 24439
23990 24399
23991 24424
23992 24276
23993 24032
23993 24446
23997 24444
23999 24053
23999 24082
24000 24184
24000 24437
24002 24329
24002 24414
24003 24395
24004 24401
24005 24111
24006 24132
24006 24275
24006 24430
24007 24110
24008 24478
24009 24030
24009 24158
24009 24176
24010 24047
24010 24287
24011 24157
24012 24116
24013 24461
24015 24237
24017 24161
24017 24240
24019 24105
24019 24189
24020 24176
24020 24225
24022 24252
24024 24264
24026 24243
24029 24044
24030 24149
24030 24158
24030 24176
24031 24094
24031 24439
24032 24328
24032 24446
24034 24083
24036 24083
24036 24321
24041 24152
24043 24050
24044 24149
24044 24239
24045 24079
24047 24287
24047 24398
24048 24154
24048 24325
24049 24354
24049 24364
24049 24445
24050 24259
24050 24452
24051 24152
24054 24388
24055 24433
24058 24275
24059 24270
24060 24422
24067 24362
24070 24477
24072 24444
24074 24271
24075 24164
24075 24247
24078 24325
24079 24210
24080 24296
24081 24105
24081 24186
24082 24161
24083 24228
24083 24314
24083 24380
24084 24196
24084 24225
24085 24116
24085 24312
24086 24411
24089 24131
24091 24216
24092 24149
24092 24225
24092 24386
24093 24154
24093 24481
24094 24439
24095 24234
24095 24465
24097 24175
24099 24100
24101 24102
24103 24266
24107 24424
24112 24171
24113 24114
24113 24115
24113 24218
24114 24115
24115 24207
24115 24357
24116 24225
24116 24312
24117 24281
24118 24120
24119 24121
24119 24195
24121 24469
24122 24470
24123 24126
24123 24180
24125 24126
24127 24128
24129 24156
24129 24458
24131 24215
24132 24275
24132 24430
24133 24225
24136 24286
24138 24139
24141 24407
24142 24343
24142 24386
24143 24412
24146 24160
24147 24264
24152 24161
24152 24428
24155 24253
24155 24266
24155 24378
24156 24173
24158 24175
24158 24176
24161 24471
24163 24199
24164 24247
24164 24272
24166 24279
24167 24308
24168 24325
24172 24407
24173 24410
24173 24458
24174 24188
24175 24176
24179 24446
24182 24473
24183 24431
24183 24437
24187 24414
24188 24417
24191 24195
24191 24289
24192 24193
24192 24289
24194 24327
24195 24311
24198 24266
24200 24225
24200 24246
24201 24340
24201 24341
24201 24462
24202 24462
24202 24464
24206 24214
24206 24277
24207 24208
24207 24373
24208 24263
24208 24357
24211 24298
24212 24304
24214 24277
24217 24452
24218 24426
24221 24222
24221 24224
24222 24224
24224 24247
24225 24246
24225 24389
24225 24391
24226 24457
24227 24242
24235 24237
24235 24301
24236 24237
24239 24269
24245 24414
24246 24312
24254 24401
24256 24300
24256 24318
24257 24345
24257 24367
24258 24260
24258 24261
24259 24452
24260 24261
24262 24293
24262 24396
24265 24267
24265 24461
24267 24461
24268 24322
24269 24414
24272 24427
24275 24430
24277 24470
24278 24414
24279 24309
24280 24282
24281 24379
24284 24365
24284 24401
24285 24436
24287 24398
24291 24321
24294 24463
24298 24374
24298 24475
24300 24318
24302 24409
24303 24339
24303 24474
24304 24305
24312 24489
24313 24444
24316 24317
24319 24321
24323 24405
24326 24407
24330 24414
24335 24454
24336 24382
24338 24354
24338 24445
24338 24448
24340 24462
24340 24464
24341 24462
24341 24464
24343 24360
24344 24371
24347 24456
24347 24472
24355 24447
24355 24449
24355 24450
24357 24373
24358 24469
24359 24393
24363 24463
24365 24487
24380 24385
24383 24409
24390 24391
24397 24399
24399 24420
24402 24406
24403 24485
24406 24434
24410 24458
24439 24462
24462 24464
24476 24480
24480 24488
