0 1
0 2
0 3
0 4
5 6
5 7
5 8
9 10
9 11
9 12
9 13
9 14
10 15
10 1092
11 15
12 15
12 17
12 1092
13 15
13 729
14 22
15 16
17 18
17 19
17 20
17 21
22 23
22 24
25 26
25 27
25 28
25 29
25 30
25 31
30 32
31 32
31 171
31 242
31 855
31 1524
32 33
34 35
34 36
34 37
34 38
35 46
35 222
36 46
36 222
38 39
38 523
39 40
39 41
39 42
39 43
39 44
39 45
41 46
43 411
43 1352
46 47
48 49
48 50
48 51
48 52
48 53
53 1256
54 55
54 56
54 57
54 58
54 59
54 60
54 61
54 62
54 63
55 1096
57 551
64 65
64 66
64 67
64 68
64 69
64 70
64 71
65 75
65 1388
66 72
66 175
67 734
68 1312
68 1388
69 75
69 86
69 109
70 92
70 753
71 86
71 109
71 446
72 73
72 74
74 83
75 76
75 77
75 78
78 1148
79 80
79 81
79 82
83 84
83 85
84 1314
86 87
86 88
86 89
86 90
86 91
87 483
87 1247
88 446
88 902
89 446
89 1259
90 734
91 446
92 93
92 94
92 95
92 96
92 97
93 98
93 114
94 103
94 272
97 103
98 99
98 100
98 101
98 102
103 104
103 105
103 106
103 107
103 108
105 789
105 1333
105 1733
108 1259
108 1560
109 110
109 111
109 112
109 113
114 115
114 116
114 117
114 118
115 902
119 120
119 121
119 122
123 124
123 125
123 126
123 127
123 128
125 1312
125 1688
128 272
128 1333
129 130
129 131
129 132
129 133
129 134
129 135
133 1083
136 137
136 138
136 139
140 141
140 142
140 143
140 144
140 145
140 146
140 147
140 148
141 383
142 263
142 448
142 1096
149 150
149 151
149 152
149 153
149 154
151 281
155 156
155 157
155 158
158 1119
159 160
159 161
159 162
160 1609
161 1306
161 1609
162 1609
163 164
163 165
163 166
164 1240
167 168
167 169
167 170
169 826
170 494
170 1047
171 172
171 173
171 174
173 1469
175 176
175 177
175 178
175 179
175 180
175 181
175 182
183 184
183 185
183 186
183 187
183 188
183 189
183 190
185 789
185 1597
186 1352
188 523
188 886
188 1352
189 523
189 829
189 1301
190 548
190 724
190 1259
191 192
191 193
191 194
191 195
191 196
191 197
191 198
192 621
192 624
192 724
192 858
193 360
193 527
193 674
194 621
196 360
196 1306
196 1365
197 624
198 621
198 624
198 920
199 200
199 201
199 202
203 204
203 205
203 206
203 207
203 208
203 209
206 383
210 211
210 212
210 213
210 214
210 215
212 1472
216 217
216 218
216 219
216 220
216 221
217 487
218 487
218 877
218 1105
220 661
221 254
222 223
222 224
225 226
225 227
225 228
225 229
230 231
230 232
230 233
230 234
230 235
236 237
236 238
236 239
236 240
236 241
238 1297
240 681
241 696
242 243
242 244
242 245
242 246
246 403
246 1630
247 248
247 249
247 250
247 251
247 252
247 253
254 255
254 256
254 257
254 258
254 259
254 260
254 261
254 262
257 1766
261 487
263 264
263 265
263 266
267 268
267 269
267 270
267 271
272 273
272 274
274 710
275 276
275 277
275 278
275 279
275 280
276 826
276 1214
278 441
279 483
281 282
281 283
281 284
281 285
281 286
281 287
281 288
281 289
281 290
286 527
286 766
286 793
286 811
286 1133
289 1087
291 292
291 293
291 294
291 295
291 296
291 297
292 640
292 646
292 660
293 660
294 660
295 660
296 660
297 660
298 299
298 300
298 301
298 302
298 303
298 304
298 305
299 707
302 539
306 307
306 308
306 309
306 310
306 311
312 313
312 314
312 315
312 316
314 548
317 318
317 319
317 320
321 322
321 323
321 324
321 325
322 472
324 1402
326 327
326 328
329 330
329 331
329 332
329 333
329 334
335 336
335 337
335 338
335 339
335 340
341 342
341 343
341 344
341 345
341 346
342 527
343 527
344 529
345 646
346 1503
347 348
347 349
347 350
349 829
350 1310
351 352
351 353
351 354
351 355
353 1417
354 480
354 678
354 707
354 1129
354 1434
356 357
356 358
356 359
360 361
360 362
360 363
360 364
364 1794
365 366
365 367
365 368
366 369
367 369
368 369
370 371
370 372
370 373
370 374
370 375
372 1273
373 1343
373 1397
375 681
375 1119
376 377
376 378
376 379
380 381
380 382
383 384
383 385
383 386
383 387
383 388
389 390
389 391
389 392
389 393
394 395
394 396
394 397
398 399
398 400
398 401
398 402
399 960
399 1280
401 427
401 446
401 1347
402 855
402 1148
403 404
403 405
403 406
407 408
407 409
407 410
411 412
411 413
411 414
411 415
416 417
416 418
416 419
416 420
416 421
420 909
422 423
422 424
422 425
423 426
424 426
425 426
427 428
427 429
427 430
427 431
427 432
427 433
427 434
430 671
430 802
430 818
430 826
430 1305
430 1347
435 436
435 437
435 438
435 439
435 440
441 442
441 443
441 444
441 445
443 1305
444 1076
446 447
448 449
448 450
448 451
448 452
448 453
448 454
451 1148
455 456
455 457
455 458
455 459
455 460
460 1305
461 462
461 463
461 464
461 465
461 466
461 467
462 468
463 468
468 469
468 470
468 471
469 548
472 473
472 474
472 475
476 477
476 478
476 479
480 481
480 482
483 484
483 485
483 486
485 1247
487 488
487 489
488 606
489 714
490 491
490 492
490 493
491 1452
494 495
494 496
494 497
494 498
495 714
499 500
499 501
499 502
499 503
499 504
505 506
505 507
505 508
509 510
509 511
509 512
509 513
509 514
509 515
512 858
513 551
513 1168
516 517
516 518
516 519
516 520
516 521
516 522
523 524
523 525
523 526
524 1297
527 528
529 530
529 531
529 532
533 534
533 535
533 536
533 537
533 538
535 1636
537 674
539 540
539 541
539 542
539 543
539 544
539 545
539 546
539 547
543 1168
548 549
548 550
549 1083
551 552
551 553
551 554
551 555
556 557
556 558
556 559
556 560
556 561
562 563
562 564
562 565
562 566
562 567
563 1392
568 569
568 570
568 571
568 572
570 1305
573 574
573 575
573 576
573 577
573 578
573 579
573 580
577 1710
581 582
581 583
581 584
581 585
586 587
586 588
586 589
586 590
588 591
591 592
591 593
591 594
591 595
594 1397
596 597
596 598
596 599
600 601
600 602
600 603
600 604
600 605
606 607
606 608
606 609
606 610
608 811
608 1133
611 612
611 613
611 614
615 616
615 617
615 618
615 619
615 620
621 622
621 623
623 724
624 625
624 626
624 627
624 628
624 629
630 631
630 632
630 633
630 634
630 635
630 636
630 637
630 638
630 639
631 1678
633 1678
634 1678
636 1678
640 641
640 642
640 643
640 644
640 645
641 646
643 646
646 647
648 649
648 650
648 651
648 652
648 653
648 654
648 655
656 657
656 658
656 659
661 662
661 663
661 664
661 665
666 667
666 668
666 669
666 670
671 672
671 673
674 675
674 676
674 677
677 909
677 1273
678 679
678 680
681 682
681 683
681 684
681 685
681 686
687 688
687 689
687 690
687 691
687 692
687 693
687 694
687 695
696 697
696 698
696 699
696 700
697 1105
699 1778
700 1778
701 702
701 703
701 704
701 705
701 706
707 708
707 709
708 1314
709 866
710 711
710 712
710 713
714 715
714 716
714 717
718 719
718 720
718 721
718 722
718 723
722 1343
724 725
724 726
724 727
724 728
729 730
729 731
729 732
729 733
734 735
734 736
734 737
734 738
734 739
735 1576
737 802
740 741
740 742
740 743
740 744
740 745
742 746
746 747
746 748
746 749
746 750
746 751
746 752
753 754
753 755
753 756
753 757
753 758
757 1745
759 760
759 761
759 762
759 763
759 764
759 765
766 767
766 768
766 769
766 770
766 771
766 772
767 813
773 774
773 775
773 776
773 777
773 778
779 780
779 781
779 782
783 784
783 785
783 786
783 787
783 788
788 1663
789 790
789 791
789 792
793 794
793 795
793 796
793 797
796 818
798 799
798 800
798 801
801 1247
802 803
802 804
802 805
805 1745
806 807
806 808
806 809
806 810
811 812
812 1133
813 814
813 815
813 816
813 817
818 819
818 820
818 821
822 823
822 824
822 825
823 1337
824 1337
825 1337
826 827
826 828
829 830
829 831
829 832
829 833
834 835
834 836
834 837
834 838
834 839
840 841
840 842
840 843
840 844
840 845
840 846
840 847
848 849
848 850
848 851
848 852
848 853
848 854
852 1129
853 1101
854 1182
855 856
855 857
858 859
858 860
858 861
859 1087
860 1636
862 863
862 864
862 865
866 867
866 868
866 869
866 870
866 871
866 872
868 932
870 1695
871 1695
873 874
873 875
873 876
877 878
877 879
877 880
877 881
880 1105
882 883
882 884
882 885
886 887
886 888
886 889
886 890
886 891
886 892
887 1047
888 1168
892 893
893 894
893 895
893 896
893 897
897 1791
898 899
898 900
898 901
902 903
902 904
902 905
902 906
902 907
902 908
909 910
909 911
909 912
913 914
913 915
913 916
913 917
913 918
913 919
916 1087
920 921
920 922
920 923
920 924
925 926
925 927
925 928
925 929
925 930
925 931
932 933
932 934
932 935
932 936
932 937
932 938
939 940
939 941
939 942
939 943
939 944
939 945
939 946
939 947
939 948
939 949
950 951
950 952
950 953
950 954
950 955
956 957
956 958
956 959
957 1314
960 961
960 962
960 963
960 964
960 965
962 1576
966 967
966 968
966 969
966 970
966 971
972 973
972 974
972 975
972 976
972 977
975 1697
978 979
978 980
978 981
978 982
978 983
984 985
984 986
984 987
988 989
988 990
988 991
988 992
988 993
989 994
990 994
991 994
995 996
995 997
995 998
999 1000
999 1001
999 1002
1003 1004
1003 1005
1003 1006
1007 1008
1007 1009
1007 1010
1007 1011
1007 1012
1013 1014
1013 1015
1013 1016
1017 1018
1017 1019
1017 1020
1017 1021
1022 1023
1022 1024
1022 1025
1022 1026
1022 1027
1028 1029
1028 1030
1028 1031
1032 1033
1032 1034
1032 1035
1032 1036
1032 1037
1038 1039
1038 1040
1038 1041
1038 1042
1043 1044
1043 1045
1043 1046
1047 1048
1047 1049
1047 1050
1051 1052
1051 1053
1051 1054
1051 1055
1051 1056
1057 1058
1057 1059
1057 1060
1057 1061
1057 1062
1057 1063
1057 1064
1065 1066
1065 1067
1065 1068
1065 1069
1065 1070
1065 1071
1065 1072
1065 1073
1065 1074
1065 1075
1070 1733
1076 1077
1076 1078
1076 1079
1076 1080
1076 1081
1076 1082
1077 1733
1083 1084
1083 1085
1083 1086
1084 1312
1084 1434
1084 1439
1084 1442
1084 1446
1087 1088
1087 1089
1087 1090
1087 1091
1088 1273
1092 1093
1092 1094
1092 1095
1094 1582
1096 1097
1096 1098
1096 1099
1096 1100
1100 1196
1100 1201
1100 1402
1101 1102
1101 1103
1101 1104
1105 1106
1105 1107
1105 1108
1105 1109
1105 1110
1105 1111
1105 1112
1105 1113
1114 1115
1114 1116
1114 1117
1114 1118
1115 1123
1118 1310
1119 1120
1119 1121
1119 1122
1120 1452
1123 1124
1123 1125
1123 1126
1123 1127
1123 1128
1129 1130
1129 1131
1129 1132
1134 1135
1134 1136
1134 1137
1137 1138
1138 1139
1138 1140
1141 1142
1141 1143
1141 1144
1141 1145
1141 1146
1141 1147
1148 1149
1148 1150
1150 1266
1151 1152
1151 1153
1151 1154
1155 1156
1155 1157
1155 1158
1155 1159
1155 1160
1161 1162
1161 1163
1161 1164
1161 1165
1161 1166
1161 1167
1168 1169
1168 1170
1171 1172
1171 1173
1171 1174
1171 1175
1171 1176
1177 1178
1177 1179
1177 1180
1177 1181
1182 1183
1182 1184
1182 1185
1182 1186
1182 1187
1182 1188
1182 1189
1182 1190
1182 1191
1183 1250
1190 1301
1192 1193
1192 1194
1192 1195
1196 1197
1196 1198
1196 1199
1196 1200
1197 1201
1198 1201
1199 1201
1200 1201
1200 1723
1201 1202
1201 1203
1204 1205
1204 1206
1204 1207
1204 1208
1206 1723
1209 1210
1209 1211
1209 1212
1209 1213
1211 1305
1214 1215
1214 1216
1214 1217
1214 1218
1219 1220
1219 1221
1219 1222
1222 1223
1222 1226
1222 1232
1223 1224
1223 1225
1226 1227
1226 1228
1228 1229
1228 1232
1229 1230
1229 1231
1232 1233
1234 1235
1234 1236
1234 1237
1234 1238
1234 1239
1240 1241
1240 1242
1240 1243
1240 1244
1240 1245
1240 1246
1244 1636
1246 1773
1247 1248
1247 1249
1250 1251
1250 1252
1250 1253
1250 1254
1250 1255
1256 1257
1256 1258
1259 1260
1259 1261
1259 1262
1259 1263
1259 1264
1259 1265
1264 1636
1266 1267
1266 1268
1269 1270
1269 1271
1269 1272
1270 1744
1271 1744
1272 1744
1273 1274
1273 1275
1273 1276
1273 1277
1273 1278
1273 1279
1280 1281
1280 1282
1280 1283
1280 1284
1280 1285
1280 1286
1287 1288
1287 1289
1287 1290
1291 1292
1291 1293
1291 1294
1291 1295
1291 1296
1297 1298
1297 1299
1297 1300
1301 1302
1301 1303
1301 1304
1306 1307
1306 1308
1306 1309
1307 1773
1310 1311
1312 1313
1314 1315
1314 1316
1314 1317
1318 1319
1318 1320
1318 1321
1318 1322
1318 1323
1318 1324
1318 1325
1318 1326
1319 1791
1320 1674
1327 1328
1327 1329
1327 1330
1327 1331
1327 1332
1333 1334
1333 1335
1333 1336
1337 1338
1339 1340
1339 1341
1339 1342
1343 1344
1343 1345
1343 1346
1347 1348
1347 1349
1347 1350
1347 1351
1352 1353
1352 1354
1352 1355
1352 1356
1357 1358
1357 1359
1357 1360
1357 1361
1357 1362
1357 1363
1357 1364
1365 1366
1365 1367
1365 1368
1365 1369
1370 1371
1370 1372
1370 1373
1370 1374
1370 1375
1370 1376
1370 1377
1378 1379
1378 1380
1378 1381
1382 1383
1382 1384
1382 1385
1382 1386
1382 1387
1388 1389
1388 1390
1388 1391
1392 1393
1392 1394
1392 1395
1392 1396
1397 1398
1397 1399
1397 1400
1397 1401
1402 1403
1402 1404
1402 1405
1402 1406
1404 1710
1407 1408
1407 1409
1407 1410
1407 1411
1407 1412
1407 1413
1407 1414
1407 1415
1407 1416
1417 1418
1417 1419
1417 1420
1417 1421
1422 1423
1422 1424
1422 1425
1422 1426
1422 1427
1424 1609
1428 1429
1428 1430
1428 1431
1428 1432
1428 1433
1429 1436
1431 1439
1431 1442
1431 1446
1434 1435
1435 1436
1436 1437
1436 1438
1439 1440
1439 1441
1442 1443
1442 1444
1442 1445
1443 1446
1446 1447
1448 1449
1448 1450
1448 1451
1452 1453
1452 1454
1452 1455
1456 1457
1456 1458
1456 1459
1460 1461
1460 1462
1460 1463
1460 1464
1465 1466
1465 1467
1465 1468
1469 1470
1469 1471
1472 1473
1472 1474
1475 1476
1475 1477
1475 1478
1475 1479
1475 1480
1475 1481
1475 1482
1475 1483
1475 1484
1475 1485
1486 1487
1486 1488
1486 1489
1486 1490
1491 1492
1491 1493
1491 1494
1491 1495
1491 1496
1491 1497
1491 1498
1499 1500
1499 1501
1499 1502
1503 1504
1503 1505
1503 1506
1503 1507
1503 1508
1509 1510
1509 1511
1509 1512
1509 1513
1509 1514
1515 1516
1515 1517
1515 1518
1515 1519
1520 1521
1520 1522
1520 1523
1524 1525
1524 1526
1524 1527
1524 1528
1529 1530
1529 1531
1529 1532
1533 1534
1533 1535
1533 1536
1533 1537
1533 1538
1533 1539
1533 1540
1541 1542
1541 1543
1541 1544
1542 1545
1545 1546
1545 1547
1548 1549
1548 1550
1548 1551
1548 1552
1553 1554
1553 1555
1553 1556
1553 1557
1553 1558
1553 1559
1560 1561
1560 1562
1560 1563
1560 1564
1560 1565
1560 1566
1560 1567
1560 1568
1560 1569
1560 1570
1560 1571
1571 1674
1572 1573
1572 1574
1572 1575
1576 1577
1576 1578
1576 1579
1576 1580
1576 1581
1582 1583
1582 1584
1582 1585
1582 1586
1582 1587
1582 1588
1589 1590
1589 1591
1589 1592
1593 1594
1593 1595
1593 1596
1595 1599
1596 1597
1596 1599
1597 1598
1599 1600
1601 1602
1601 1603
1601 1604
1601 1605
1601 1606
1601 1607
1601 1608
1609 1610
1611 1612
1611 1613
1611 1614
1611 1615
1616 1617
1616 1618
1616 1619
1620 1621
1620 1622
1620 1623
1620 1624
1620 1625
1626 1627
1626 1628
1626 1629
1630 1631
1630 1632
1630 1633
1630 1634
1630 1635
1636 1637
1636 1638
1636 1639
1636 1640
1641 1642
1641 1643
1641 1644
1641 1645
1646 1647
1646 1648
1646 1649
1646 1650
1646 1651
1646 1652
1653 1654
1653 1655
1653 1656
1657 1658
1657 1659
1657 1660
1657 1661
1657 1662
1660 1791
1663 1664
1663 1665
1663 1666
1663 1667
1668 1669
1668 1670
1668 1671
1668 1672
1668 1673
1674 1675
1674 1676
1674 1677
1678 1679
1678 1680
1678 1681
1678 1682
1683 1684
1683 1685
1683 1686
1683 1687
1688 1689
1688 1690
1688 1691
1688 1692
1688 1693
1688 1694
1695 1696
1697 1698
1697 1699
1697 1700
1697 1701
1702 1703
1702 1704
1705 1706
1705 1707
1705 1708
1705 1709
1708 1736
1710 1711
1710 1712
1710 1713
1710 1714
1715 1716
1715 1717
1715 1718
1715 1719
1715 1720
1715 1721
1715 1722
1723 1724
1723 1725
1723 1726
1723 1727
1723 1728
1729 1730
1729 1731
1729 1732
1733 1734
1733 1735
1736 1737
1736 1738
1736 1739
1736 1740
1736 1741
1736 1742
1736 1743
1745 1746
1745 1747
1745 1748
1745 1749
1745 1750
1751 1752
1751 1753
1751 1754
1751 1755
1751 1756
1751 1757
1751 1758
1759 1760
1759 1761
1759 1762
1759 1763
1759 1764
1759 1765
1766 1767
1766 1768
1769 1770
1769 1771
1769 1772
1773 1774
1773 1775
1773 1776
1773 1777
1778 1779
1778 1780
1778 1781
1782 1783
1782 1784
1782 1785
1782 1786
1782 1787
1788 1789
1788 1790
1791 1792
1791 1793
1794 1795
1794 1796
