0 2
0 4
0 6
0 7
0 9
0 11
0 12
0 15
0 16
0 17
0 18
0 20
0 24
0 26
0 27
1 3
1 4
1 6
1 7
1 8
1 9
1 10
1 11
1 12
1 15
1 16
1 17
1 18
1 19
1 20
1 23
1 25
1 26
1 28
1 29
1 31
2 3
2 5
2 6
2 7
2 8
2 12
2 13
2 18
2 19
2 24
2 27
2 29
2 30
2 31
2 42
3 5
3 6
3 7
3 8
3 10
3 12
3 13
3 15
3 18
3 19
3 20
3 25
3 26
3 27
3 30
3 31
3 43
4 6
4 7
4 8
4 9
4 11
4 12
4 13
4 15
4 16
4 17
4 19
4 26
4 29
5 6
5 8
5 9
5 10
5 11
5 12
5 13
5 17
5 18
5 19
5 26
5 30
5 31
6 8
6 9
6 10
6 11
6 12
6 13
6 14
6 17
6 18
6 19
6 30
6 31
6 33
6 45
6 46
7 11
7 13
7 18
7 19
7 29
7 44
7 49
8 13
8 14
8 17
8 18
8 21
8 22
8 24
8 26
8 29
8 41
8 42
8 44
8 212
9 11
9 12
9 13
9 17
9 26
9 27
9 29
9 30
9 45
10 11
10 12
10 17
10 19
10 26
10 28
10 31
10 46
11 13
11 17
11 18
11 26
11 27
11 29
11 30
12 13
12 17
12 18
12 19
12 26
12 28
12 46
12 49
13 15
13 18
13 28
13 29
13 30
13 31
13 44
13 45
13 46
13 47
14 30
14 31
14 32
14 33
14 34
14 35
14 36
14 40
14 45
14 46
14 47
14 48
15 17
15 38
15 39
16 37
16 38
16 39
17 18
17 19
17 26
17 27
17 28
17 29
18 19
18 27
18 29
18 30
18 31
18 49
19 26
19 29
19 30
19 31
19 49
24 212
25 213
37 212
38 213
50 55
50 56
50 61
50 62
50 66
50 67
50 68
50 76
50 116
50 133
50 141
50 142
50 143
50 147
50 172
50 178
50 184
50 197
50 203
51 55
51 57
51 60
51 61
51 66
51 67
51 71
51 73
51 98
51 116
51 143
51 144
51 179
51 185
51 420
51 431
52 60
52 68
52 69
52 113
52 135
52 143
52 150
52 151
52 152
52 236
52 437
52 438
53 69
53 136
53 150
53 152
53 431
53 437
53 438
54 56
54 58
54 60
54 64
54 70
54 72
54 141
54 147
54 151
54 153
55 57
55 59
55 61
55 63
55 65
55 69
55 71
55 140
55 142
55 144
55 146
55 148
55 152
55 156
55 175
55 437
56 68
56 72
56 134
56 135
56 143
56 178
56 236
57 59
57 61
57 66
57 67
57 69
57 116
57 133
57 136
57 142
57 144
57 179
58 60
58 62
58 64
58 66
58 70
58 71
58 72
58 141
58 143
58 147
58 163
58 174
58 179
58 197
58 206
58 239
58 241
58 437
58 438
59 61
59 63
59 71
59 77
59 120
59 126
59 136
59 140
59 142
59 148
59 156
59 162
59 198
59 207
59 437
59 438
60 61
60 63
60 64
60 65
60 66
60 67
60 72
60 110
60 122
60 133
60 134
60 140
60 141
60 142
60 143
60 147
60 178
60 179
60 198
61 64
61 65
61 66
61 67
61 68
61 69
61 71
61 72
61 73
61 134
61 141
61 142
61 143
61 144
61 147
61 148
61 152
61 178
61 179
61 431
62 64
62 67
62 70
62 72
62 76
62 140
62 143
62 145
62 147
62 153
62 172
62 174
62 175
62 178
62 179
62 197
62 212
62 228
62 237
62 239
62 241
63 65
63 67
63 71
63 74
63 77
63 120
63 126
63 136
63 137
63 140
63 142
63 146
63 148
63 154
63 162
63 165
63 175
63 198
63 213
63 240
63 242
64 65
64 66
64 113
64 134
64 141
64 147
64 178
65 133
65 134
65 140
65 142
65 175
66 67
66 72
66 118
66 134
66 141
66 143
66 144
66 147
66 178
66 179
66 197
66 208
66 237
67 71
67 73
67 109
67 141
67 142
67 143
67 144
67 147
67 148
67 178
67 179
67 197
67 228
68 70
68 135
68 143
68 151
68 178
68 437
69 73
69 116
69 136
69 143
69 144
69 150
69 152
69 156
69 163
69 179
69 437
70 72
70 76
70 140
70 143
70 147
70 153
70 160
70 163
70 176
70 178
70 192
70 193
70 197
70 199
70 206
70 208
70 209
70 212
70 437
70 438
71 73
71 140
71 144
71 154
71 156
71 161
71 162
71 165
71 177
71 178
71 179
71 189
71 192
71 193
71 198
71 202
71 207
71 209
71 210
71 242
71 437
71 438
72 83
72 125
72 140
72 143
72 150
72 153
72 174
72 176
72 178
72 189
72 190
72 192
72 193
72 197
72 206
72 208
72 209
72 212
72 241
72 437
73 77
73 112
73 116
73 122
73 126
73 139
73 144
73 154
73 156
73 163
73 179
73 180
73 181
73 189
73 190
73 192
73 193
73 206
73 207
73 209
73 210
73 213
73 242
73 245
73 437
74 75
74 77
74 84
74 116
74 133
74 137
74 146
74 148
74 173
74 174
74 175
74 178
74 198
74 201
74 202
74 203
74 205
74 209
74 212
74 213
74 217
74 229
74 420
75 76
75 84
75 111
75 125
75 134
75 137
75 140
75 141
75 142
75 145
75 172
75 173
75 174
75 197
75 201
75 208
75 213
75 237
76 84
76 94
76 109
76 113
76 115
76 119
76 125
76 127
76 134
76 135
76 138
76 140
76 145
76 147
76 153
76 169
76 174
76 176
76 180
76 190
76 193
76 197
76 201
76 205
76 206
76 208
76 438
77 87
77 98
77 110
77 112
77 114
77 118
77 126
77 130
77 134
77 136
77 139
77 140
77 146
77 154
77 156
77 165
77 175
77 177
77 181
77 198
77 202
77 206
77 207
77 209
77 213
77 222
77 224
77 225
77 230
77 242
77 247
77 250
78 174
78 176
78 184
78 197
78 223
78 230
78 236
78 237
78 240
78 248
79 98
79 175
79 177
79 185
79 199
79 208
79 236
79 237
79 239
79 245
79 247
80 182
80 237
80 238
80 241
80 249
81 183
81 184
81 226
81 237
81 242
81 250
82 83
82 86
82 92
82 94
82 149
82 158
82 159
82 179
82 181
82 183
82 192
82 201
82 203
82 206
82 207
82 208
82 209
82 210
82 213
82 240
82 245
82 248
83 86
83 94
83 159
83 178
83 180
83 181
83 206
83 207
83 208
83 230
83 231
83 239
83 247
83 349
84 94
84 140
84 163
84 164
84 165
84 174
84 179
84 189
84 192
84 193
84 197
84 198
84 206
84 207
84 208
84 209
84 210
84 211
85 103
85 162
85 165
85 167
85 168
85 169
85 170
85 190
85 192
85 193
85 208
85 209
85 210
85 211
85 258
85 267
85 278
86 97
86 113
86 115
86 135
86 155
86 157
86 169
86 176
86 180
86 181
86 190
86 193
86 201
86 210
86 211
86 223
86 240
86 248
86 431
87 114
87 116
87 139
87 158
87 159
87 177
87 211
87 222
87 235
87 247
88 89
88 98
88 157
88 158
88 159
88 162
88 168
88 169
88 186
88 190
88 192
88 193
88 205
88 206
88 207
88 210
88 211
88 245
88 251
88 287
88 300
88 431
89 94
89 99
89 100
89 159
89 186
89 187
89 210
89 211
89 402
89 431
90 94
90 99
90 100
90 193
90 208
90 209
90 294
90 431
91 94
91 99
91 100
91 192
91 193
91 208
91 209
92 93
92 94
92 97
92 98
92 149
92 178
92 179
92 192
92 193
92 205
92 206
92 207
92 208
92 209
92 211
92 280
92 286
92 431
93 94
93 98
93 153
93 154
93 189
93 190
93 192
93 193
93 201
93 202
93 206
93 207
93 208
93 209
93 210
93 251
93 261
93 298
93 431
94 96
94 99
94 100
94 101
94 102
94 105
94 106
94 117
94 140
94 145
94 146
94 147
94 148
94 159
94 163
94 165
94 174
94 175
94 179
94 183
94 184
94 185
94 186
94 193
94 197
94 198
94 200
94 201
94 202
94 206
94 207
94 208
94 209
94 210
94 211
94 232
94 237
94 239
94 240
94 241
94 242
94 252
94 259
94 262
94 263
94 264
94 267
94 287
94 291
94 293
94 297
94 298
94 303
94 304
94 308
94 398
94 431
95 96
95 150
95 160
95 161
95 164
95 168
95 170
95 192
95 193
95 208
95 209
95 210
95 211
95 272
95 284
95 318
95 431
96 150
96 159
96 169
96 188
96 192
96 208
96 209
96 210
96 211
96 294
96 297
96 302
96 303
96 431
97 98
97 109
97 113
97 115
97 121
97 129
97 137
97 138
97 153
97 155
97 157
97 162
97 174
97 175
97 176
97 183
97 192
97 194
97 197
97 201
97 208
97 209
97 219
97 224
97 228
97 229
97 230
97 231
97 240
97 241
97 244
97 248
97 249
97 298
97 324
97 326
97 336
97 431
98 110
98 114
98 116
98 122
98 130
98 139
98 154
98 158
98 174
98 175
98 177
98 190
98 193
98 198
98 202
98 208
98 209
98 224
98 225
98 238
98 332
98 418
99 100
99 159
99 186
99 209
99 210
99 211
99 431
100 159
100 160
100 186
100 209
100 210
100 211
100 299
100 431
101 102
101 103
101 104
101 151
101 160
101 162
101 163
101 170
101 193
101 258
102 103
102 104
102 105
102 106
102 151
102 152
102 163
102 164
102 170
102 191
102 193
102 258
103 104
103 166
103 168
103 170
103 192
103 193
103 208
103 209
103 210
103 258
103 278
103 297
103 431
104 105
104 106
104 192
104 193
104 208
104 209
104 210
104 211
104 297
105 106
105 152
105 163
105 166
105 171
105 208
105 210
105 259
105 297
106 152
106 163
106 167
106 211
106 259
106 297
107 113
107 123
107 127
107 137
107 145
107 172
107 207
107 212
107 214
107 218
107 219
107 220
107 221
107 230
108 114
108 124
108 128
108 180
108 181
108 212
108 213
108 215
108 218
108 219
108 220
108 221
109 111
109 123
109 125
109 129
109 137
109 180
109 201
109 216
109 219
109 221
109 225
109 237
109 249
110 122
110 124
110 126
110 130
110 137
110 139
110 177
110 202
110 215
110 217
110 218
110 221
110 224
111 125
111 131
111 137
111 188
111 197
111 212
111 216
111 218
111 219
111 221
112 116
112 126
112 132
112 137
112 198
112 208
112 213
112 217
112 218
112 219
112 220
112 221
112 226
112 248
112 420
113 114
113 117
113 121
113 123
113 127
113 133
113 134
113 135
113 137
113 138
113 149
113 169
113 172
113 176
113 180
113 181
113 197
113 202
113 212
113 214
113 222
113 226
113 230
113 231
113 240
113 244
113 248
113 326
114 116
114 118
114 122
114 124
114 128
114 130
114 137
114 139
114 149
114 156
114 158
114 173
114 177
114 180
114 181
114 201
114 215
114 225
114 227
114 230
114 231
114 239
114 246
114 331
114 333
115 119
115 121
115 125
115 131
115 137
115 149
115 159
115 172
115 176
115 180
115 181
115 197
115 198
115 202
115 212
115 216
115 222
115 227
115 230
115 231
115 238
115 241
115 249
115 340
115 342
115 419
115 430
116 120
116 122
116 126
116 132
116 136
116 137
116 139
116 149
116 156
116 158
116 159
116 180
116 181
116 197
116 198
116 201
116 213
116 217
116 223
116 228
116 231
116 236
116 237
116 242
116 250
116 345
116 347
116 400
116 420
117 121
117 123
117 127
117 138
117 147
117 172
117 201
117 202
117 223
117 226
117 235
117 236
118 124
118 128
118 149
118 154
118 173
118 201
118 202
118 206
118 215
118 220
118 222
118 227
118 235
118 238
118 330
118 422
119 121
119 125
119 131
119 137
119 149
119 153
119 172
119 190
119 193
119 197
119 202
119 205
119 207
119 222
119 227
119 238
119 245
119 246
119 419
120 132
120 137
120 149
120 154
120 173
120 175
120 194
120 198
120 201
120 206
120 208
120 217
120 223
120 224
120 226
120 237
120 240
120 244
120 245
121 129
121 131
121 138
121 172
121 183
121 202
121 212
121 218
121 222
121 224
121 226
121 235
121 236
121 238
122 124
122 128
122 130
122 132
122 139
122 149
122 173
122 177
122 182
122 184
122 201
122 218
122 219
122 220
122 223
122 224
122 225
122 227
122 235
122 236
122 237
122 238
123 137
123 181
123 218
123 220
123 222
123 223
123 230
123 245
123 327
124 128
124 136
124 137
124 139
124 180
124 181
124 212
124 213
124 219
124 222
124 231
124 246
125 131
125 137
125 174
125 180
125 193
125 208
125 212
125 227
125 230
125 243
125 249
126 132
126 137
126 175
126 181
126 213
126 219
126 226
126 231
126 244
127 185
127 212
127 214
127 218
127 223
127 226
127 322
127 323
127 324
127 327
127 335
128 130
128 139
128 159
128 213
128 215
128 222
128 227
128 329
128 330
128 331
129 131
129 138
129 176
129 202
129 216
129 219
129 222
129 224
129 225
129 226
129 227
129 324
129 325
129 326
129 336
129 337
129 339
130 132
130 139
130 198
130 201
130 202
130 213
130 217
130 218
130 222
130 223
130 224
130 225
130 226
130 227
130 230
130 331
130 332
130 333
130 346
131 159
131 194
131 212
131 216
131 222
131 227
131 230
131 336
131 337
132 159
132 213
132 217
132 223
132 226
132 248
132 344
132 346
133 134
133 142
133 144
133 146
133 172
133 173
133 184
133 189
133 203
133 205
133 226
133 420
133 431
134 143
134 145
134 146
134 172
134 178
134 205
134 417
135 143
135 151
135 155
135 160
135 161
135 162
135 163
135 176
135 189
135 192
135 205
135 241
135 417
135 419
136 140
136 144
136 150
136 152
136 156
136 158
136 160
136 161
136 163
136 169
136 177
136 190
136 193
136 209
136 225
136 437
136 438
137 141
137 142
137 146
137 147
137 148
137 172
137 173
137 174
137 191
137 197
137 198
137 204
137 212
137 213
137 214
137 217
137 219
137 221
137 239
137 420
138 153
138 159
138 169
138 180
138 181
138 206
138 223
138 231
138 240
138 248
138 249
139 154
139 177
139 180
139 181
139 192
139 207
139 213
139 224
139 225
139 239
139 242
139 244
139 246
139 247
139 250
140 141
140 143
140 145
140 147
140 148
140 154
140 162
140 163
140 164
140 165
140 174
140 175
140 176
140 177
140 197
140 198
140 201
140 437
141 142
141 145
141 147
141 172
141 178
141 197
141 438
142 146
142 148
142 173
142 179
142 198
142 229
143 147
143 151
143 152
143 153
143 155
143 161
143 176
143 178
143 437
143 438
144 148
144 152
144 154
144 156
144 179
145 147
145 172
145 179
145 193
145 197
145 201
145 208
146 148
146 173
146 198
146 202
146 209
147 156
147 174
147 178
147 179
147 181
147 187
147 197
147 199
147 201
147 202
147 237
147 239
147 241
147 299
147 342
147 437
147 438
148 173
148 174
148 175
148 178
148 179
148 198
148 200
148 201
148 202
148 236
148 240
148 242
148 248
148 437
148 438
149 172
149 173
149 186
149 187
149 189
149 191
149 194
149 199
149 200
149 201
149 202
149 203
149 210
149 221
149 222
149 223
149 224
149 225
149 235
149 236
149 237
149 238
150 193
150 198
150 201
150 202
150 225
150 417
150 427
150 428
150 429
150 431
151 160
151 161
151 163
151 164
151 176
151 187
151 258
151 285
151 402
151 431
151 437
151 438
152 156
152 160
152 161
152 162
152 165
152 170
152 177
152 188
152 190
152 191
152 194
152 207
152 280
152 285
152 309
152 420
152 431
152 438
152 440
152 441
153 157
153 164
153 176
153 178
153 179
153 180
153 181
153 190
153 192
153 193
153 199
153 201
153 206
153 207
153 208
153 209
153 212
153 216
153 238
153 298
154 156
154 159
154 177
154 178
154 179
154 180
154 181
154 189
154 192
154 193
154 200
154 201
154 206
154 207
154 209
154 213
154 217
154 229
154 237
155 156
155 157
155 160
155 163
155 164
155 176
155 178
155 190
155 199
155 206
155 207
155 326
155 437
156 160
156 162
156 165
156 189
156 190
156 198
156 200
156 206
156 207
156 210
156 211
156 213
156 437
156 438
157 162
157 168
157 169
157 176
157 182
157 187
157 190
157 214
157 326
157 419
157 431
157 437
158 162
158 168
158 169
158 189
158 207
158 208
158 210
158 215
158 334
158 430
158 438
159 167
159 169
159 186
159 189
159 190
159 206
159 207
159 210
159 211
159 212
159 213
159 214
159 232
159 237
159 242
159 255
159 259
159 262
159 263
159 264
159 267
159 300
159 304
159 403
159 431
159 443
160 161
160 162
160 163
160 168
160 170
160 171
160 189
160 194
160 206
160 207
160 241
160 277
160 298
160 299
160 386
160 387
160 389
160 405
160 431
160 432
160 437
160 438
160 439
160 443
161 162
161 163
161 165
161 170
161 176
161 189
161 190
161 206
161 207
161 208
161 211
161 222
161 247
161 287
161 319
161 387
161 388
161 402
161 406
161 431
161 437
161 438
161 443
162 163
162 164
162 165
162 189
162 190
162 192
162 200
162 206
162 207
162 209
162 211
162 232
162 240
162 242
162 280
162 309
162 431
162 438
163 164
163 170
163 174
163 190
163 193
163 206
163 207
163 208
163 239
163 241
163 401
163 438
163 442
164 171
164 174
164 176
164 187
164 193
164 206
164 207
164 208
164 209
164 210
164 211
164 241
164 245
164 386
164 431
165 168
165 170
165 175
165 188
165 189
165 194
165 198
165 200
165 206
165 207
165 208
165 209
165 210
165 211
165 281
165 402
165 403
165 438
165 439
165 440
165 441
166 168
166 189
166 190
166 192
166 193
166 195
166 208
166 209
166 297
167 168
167 190
167 192
167 193
167 195
167 196
167 208
167 209
167 211
167 279
167 431
168 169
168 170
168 189
168 190
168 191
168 192
168 193
168 194
168 195
168 196
168 207
168 208
168 210
168 280
168 297
168 320
168 387
168 396
168 403
168 412
168 431
169 170
169 189
169 190
169 191
169 192
169 193
169 194
169 195
169 196
169 201
169 206
169 207
169 208
169 211
169 260
169 263
169 281
169 290
169 296
169 303
169 311
169 312
169 314
169 315
169 320
169 321
169 397
169 412
169 413
169 431
169 438
169 440
169 441
169 444
170 188
170 189
170 190
170 191
170 192
170 193
170 201
170 202
170 206
170 207
170 208
170 209
170 210
170 211
170 258
170 291
170 301
170 386
170 387
170 392
170 408
170 431
170 439
170 444
171 188
171 194
171 258
171 260
171 285
171 321
171 431
171 432
171 433
171 434
172 174
172 179
172 188
172 193
172 197
172 199
172 201
172 202
172 207
172 208
172 216
172 220
172 225
172 236
172 238
173 175
173 178
173 188
173 198
173 200
173 201
173 202
173 203
173 206
173 209
173 220
173 221
173 224
173 227
173 235
173 237
173 238
174 176
174 179
174 182
174 187
174 188
174 191
174 201
174 202
174 209
174 231
175 177
175 178
175 186
175 187
175 188
175 191
175 192
175 198
175 202
175 230
175 233
176 179
176 181
176 182
176 183
176 187
176 201
176 205
176 207
176 208
176 223
176 224
176 225
176 226
176 230
176 231
176 235
176 236
176 241
176 244
176 245
176 246
176 247
176 248
176 249
176 325
176 326
176 340
177 182
177 185
177 189
177 192
177 202
177 206
177 207
177 208
177 222
177 224
177 225
177 227
177 242
177 243
177 247
177 250
177 333
177 400
177 437
177 438
178 181
178 182
178 183
178 184
178 185
178 188
178 191
178 199
178 200
178 201
178 204
178 206
178 208
178 236
178 238
178 246
178 248
178 250
178 438
179 181
179 182
179 183
179 185
179 188
179 191
179 197
179 199
179 200
179 201
179 203
179 207
179 209
179 231
179 235
179 237
179 238
179 243
179 244
179 247
179 298
180 181
180 184
180 199
180 200
180 204
180 208
180 209
180 229
180 230
180 235
180 236
180 238
180 239
180 240
181 187
181 199
181 200
181 203
181 208
181 209
181 228
181 230
181 235
181 236
181 237
181 238
181 240
181 298
182 186
182 187
182 197
182 199
182 200
182 204
182 208
182 227
182 229
182 232
182 241
182 246
182 298
182 331
182 332
182 334
182 431
183 186
183 198
183 199
183 200
183 203
183 204
183 208
183 209
183 228
183 232
183 237
183 240
183 242
183 298
183 324
183 325
183 327
183 431
184 199
184 200
184 204
184 208
184 230
184 232
184 236
184 237
184 240
184 345
184 346
184 348
184 385
184 431
185 198
185 199
185 200
185 203
185 206
185 209
185 212
185 221
185 235
185 239
185 338
185 339
185 341
185 431
186 187
186 188
186 191
186 199
186 200
186 201
186 202
186 203
186 204
186 206
186 224
186 228
186 244
186 250
186 298
186 348
186 387
186 403
186 431
187 191
187 194
187 199
187 200
187 203
187 204
187 224
187 225
187 231
187 236
187 238
187 239
187 247
187 385
187 387
187 401
187 414
187 431
188 191
188 192
188 193
188 194
188 203
188 204
188 206
188 208
188 209
188 216
188 229
188 317
188 412
188 420
188 439
188 440
188 443
189 190
189 192
189 195
189 200
189 201
189 206
189 207
189 209
189 210
189 211
189 232
189 437
189 438
189 441
190 192
190 193
190 202
190 205
190 206
190 207
190 208
190 209
190 210
190 211
190 233
190 241
191 194
191 195
191 196
191 201
191 203
191 204
191 217
191 221
191 307
191 316
191 319
191 438
191 439
191 440
191 441
191 443
192 193
192 201
192 202
192 207
192 208
192 209
192 210
192 211
192 232
192 233
192 234
192 251
192 252
192 253
192 254
192 255
192 258
192 271
192 277
192 278
192 286
192 288
192 289
192 290
192 295
192 297
193 196
193 202
193 206
193 208
193 209
193 210
193 211
193 232
193 233
193 234
193 246
193 251
193 252
193 253
193 254
193 255
193 256
193 258
193 259
193 261
193 264
193 277
193 278
193 287
193 288
193 290
193 296
193 431
193 438
194 195
194 196
194 200
194 201
194 206
194 211
194 232
194 233
194 234
194 280
194 285
194 320
194 386
194 387
194 388
194 391
194 400
194 403
194 431
194 432
194 438
194 439
194 440
194 441
194 444
195 196
195 210
195 211
195 308
195 320
195 321
196 209
196 211
196 297
196 308
197 198
197 199
197 200
197 208
197 222
197 223
197 224
197 225
197 226
197 227
197 228
197 229
197 235
197 236
197 237
197 238
197 240
197 247
197 250
198 209
198 222
198 223
198 224
198 225
198 226
198 227
198 228
198 229
198 235
198 236
198 237
198 238
198 240
198 242
198 248
198 249
198 341
199 200
199 202
199 203
199 204
199 206
199 207
199 208
199 209
199 224
199 225
199 235
199 236
199 237
199 238
199 298
199 333
199 346
199 437
199 438
200 202
200 203
200 204
200 206
200 207
200 208
200 224
200 225
200 235
200 236
200 237
200 238
200 298
200 326
200 339
200 438
201 202
201 206
201 208
201 209
201 210
201 211
201 232
201 233
201 234
201 235
201 251
201 252
201 253
201 254
201 263
201 264
201 268
201 270
201 286
201 288
201 289
201 299
201 310
201 311
201 438
202 206
202 207
202 208
202 209
202 210
202 211
202 216
202 222
202 226
202 232
202 233
202 234
202 235
202 236
202 238
202 251
202 252
202 253
202 263
202 268
202 269
202 270
202 286
202 287
202 288
202 289
202 438
203 225
203 230
203 237
203 298
204 224
204 225
205 210
205 211
205 220
205 230
205 246
205 252
205 256
205 261
205 269
205 278
205 280
205 281
205 282
205 313
205 321
205 355
205 356
205 369
205 431
206 207
206 208
206 209
206 210
206 211
206 255
206 257
206 271
206 272
206 277
206 287
206 295
206 296
206 299
206 431
206 441
207 208
207 209
207 210
207 211
207 213
207 241
207 253
207 257
207 268
207 270
207 271
207 272
207 277
207 289
207 292
207 311
207 392
207 408
207 431
207 438
207 442
208 209
208 210
208 211
208 233
208 240
208 248
208 251
208 252
208 253
208 254
208 255
208 256
208 257
208 258
208 259
208 265
208 267
208 269
208 271
208 272
208 274
208 275
208 277
208 278
208 286
208 287
208 288
208 289
208 290
208 291
208 292
208 293
208 294
208 295
208 296
208 297
208 314
208 431
209 210
209 211
209 227
209 230
209 234
209 238
209 251
209 252
209 253
209 254
209 255
209 256
209 257
209 258
209 259
209 262
209 263
209 265
209 268
209 269
209 271
209 272
209 273
209 274
209 275
209 276
209 278
209 287
209 288
209 289
209 290
209 291
209 292
209 293
209 294
209 295
209 296
209 313
209 319
209 321
209 431
210 211
210 242
210 243
210 245
210 255
210 258
210 262
210 263
210 264
210 265
210 267
210 268
210 269
210 297
210 301
210 303
210 304
210 305
210 308
210 440
211 246
211 252
211 254
211 255
211 257
211 262
211 263
211 264
211 265
211 267
211 297
211 300
211 301
211 303
211 304
211 305
211 308
211 321
212 214
212 216
212 431
213 215
213 217
213 218
213 431
214 218
214 322
214 323
214 327
215 219
215 329
215 330
215 331
215 332
215 333
215 418
216 218
216 219
216 221
216 222
216 227
216 336
216 337
216 338
217 218
217 219
217 221
217 223
217 226
217 344
217 345
217 346
217 348
218 221
218 331
218 333
218 346
218 424
219 231
219 324
219 325
219 336
219 339
220 221
220 235
220 236
220 238
220 239
220 240
220 337
220 338
220 344
220 345
220 348
221 222
221 223
221 236
221 237
221 241
221 242
221 322
221 323
221 329
221 330
221 334
221 335
222 223
222 225
222 226
222 227
222 229
222 230
222 238
222 329
222 330
222 331
222 332
222 333
222 334
222 336
223 224
223 226
223 227
223 237
223 322
223 323
223 324
223 325
223 327
223 329
223 330
223 334
223 335
223 336
223 438
224 225
224 226
224 227
224 228
224 230
224 231
224 235
224 236
224 242
224 246
224 247
224 250
224 324
224 326
224 331
224 332
224 336
224 346
224 400
225 226
225 229
225 230
225 231
225 235
225 236
225 242
225 249
225 326
225 339
225 340
226 227
226 228
226 244
226 250
226 344
226 345
226 346
226 348
226 349
227 229
227 240
227 241
227 246
227 249
227 324
227 336
227 337
227 338
227 339
227 340
227 341
227 342
227 345
227 348
227 349
227 425
228 229
228 236
228 237
228 240
228 250
228 347
228 348
228 349
229 231
229 235
229 238
229 241
229 249
229 335
229 338
229 339
229 342
229 348
229 349
229 425
229 426
230 231
230 331
230 332
230 333
231 235
231 324
231 325
231 326
231 336
232 298
232 322
232 324
232 325
232 327
232 329
232 331
232 332
232 334
232 431
232 438
233 336
233 338
233 339
233 341
233 431
233 441
234 343
234 345
234 346
234 348
234 431
234 438
235 236
235 237
235 238
235 239
235 243
235 247
235 322
235 323
235 327
235 328
235 329
235 332
235 333
235 334
235 335
235 337
235 338
235 367
235 368
235 369
235 370
235 371
235 372
235 373
235 374
235 375
236 237
236 240
236 244
236 248
236 323
236 326
236 327
236 328
236 337
236 344
236 348
236 350
236 351
236 352
236 353
236 354
236 355
236 356
236 357
236 358
236 431
237 238
237 245
237 248
237 250
237 322
237 323
237 344
237 345
237 347
237 348
237 349
237 400
237 401
237 402
237 403
237 404
237 405
237 406
237 407
237 408
238 246
238 249
238 298
238 337
238 338
238 339
238 340
238 341
238 342
238 384
238 385
238 386
238 387
238 388
238 389
238 390
238 391
238 392
239 240
239 241
239 247
239 249
239 329
239 330
239 331
239 332
239 333
239 334
239 335
239 367
239 368
239 369
239 370
239 371
239 372
239 373
239 374
239 375
240 242
240 245
240 248
240 250
240 322
240 323
240 325
240 326
240 327
240 328
240 329
240 330
240 335
240 350
240 351
240 352
240 353
240 354
240 355
240 356
240 357
240 358
241 249
241 298
241 336
241 337
241 338
241 339
241 340
241 341
241 342
241 384
241 385
241 386
241 387
241 388
241 389
241 390
241 391
241 392
241 430
241 431
242 250
242 332
242 343
242 344
242 345
242 346
242 347
242 348
242 349
242 400
242 401
242 402
242 403
242 404
242 405
242 406
242 407
242 408
243 247
243 333
243 334
243 335
243 367
243 368
243 369
243 370
243 371
243 372
243 373
243 374
243 375
244 248
244 326
244 327
244 328
244 332
244 350
244 351
244 352
244 353
244 354
244 355
244 356
244 357
244 358
245 250
245 337
245 347
245 348
245 349
245 400
245 401
245 402
245 403
245 404
245 405
245 406
245 407
245 408
246 249
246 332
246 340
246 341
246 342
246 384
246 385
246 386
246 387
246 388
246 389
246 390
246 391
246 392
247 333
247 334
247 335
247 367
247 368
247 369
247 370
247 371
247 372
247 373
247 374
247 375
248 326
248 327
248 328
248 350
248 351
248 352
248 353
248 354
248 355
248 356
248 357
248 358
249 340
249 341
249 342
249 384
249 385
249 386
249 387
249 388
249 389
249 390
249 391
249 392
250 347
250 348
250 349
250 400
250 401
250 402
250 403
250 404
250 405
250 406
250 407
250 408
251 261
251 268
251 280
251 309
251 310
251 327
251 328
251 334
251 335
251 350
252 253
252 261
252 262
252 269
252 280
252 286
252 310
252 311
252 328
252 335
252 350
252 351
252 352
252 367
252 368
253 254
253 262
253 263
253 270
253 271
253 281
253 311
253 312
253 351
253 352
253 353
253 368
253 369
253 370
253 371
254 255
254 262
254 263
254 272
254 281
254 312
254 313
254 353
254 354
254 355
254 370
254 371
254 372
255 256
255 263
255 264
255 273
255 282
255 313
255 314
255 354
255 355
255 356
255 371
255 372
255 373
255 438
256 257
256 265
256 282
256 312
256 313
256 314
256 315
256 353
256 354
256 355
256 356
256 357
256 358
256 369
256 370
256 371
256 372
256 373
256 374
256 375
256 438
257 258
257 265
257 266
257 283
257 315
257 316
257 317
257 356
257 357
257 358
257 359
257 360
257 361
257 373
257 374
257 375
257 376
257 377
257 378
258 259
258 265
258 266
258 267
258 283
258 284
258 297
258 316
258 317
258 318
258 319
258 320
258 321
258 358
258 359
258 360
258 361
258 362
258 363
258 375
258 376
258 377
258 378
258 379
258 380
259 260
259 266
259 267
259 278
259 285
259 296
259 297
259 317
259 318
259 319
259 320
259 321
259 361
259 362
259 363
259 364
259 365
259 366
259 378
259 379
259 380
259 381
259 382
259 383
259 431
260 285
260 319
260 320
260 321
260 363
260 364
260 365
260 366
260 380
260 381
260 382
260 383
260 431
261 268
261 269
261 280
261 309
261 310
261 311
261 327
261 350
261 351
261 367
261 368
261 431
262 270
262 271
262 280
262 281
262 311
262 312
262 351
262 352
262 353
262 354
262 368
262 369
262 370
263 271
263 272
263 281
263 282
263 284
263 312
263 313
263 314
263 353
263 354
263 355
263 356
263 370
263 371
263 372
264 273
264 282
264 283
264 284
264 285
264 314
264 355
264 356
264 357
264 358
264 372
264 373
264 374
264 375
264 440
265 274
265 275
265 312
265 313
265 314
265 315
265 356
265 357
265 358
265 359
265 360
265 361
265 373
265 374
265 375
265 376
265 377
265 378
265 438
266 275
266 276
266 315
266 316
266 317
266 358
266 359
266 360
266 361
266 362
266 363
266 375
266 376
266 377
266 378
266 379
266 380
267 277
267 278
267 285
267 297
267 316
267 317
267 318
267 319
267 320
267 321
267 361
267 362
267 363
267 364
267 365
267 366
267 378
267 379
267 380
267 381
267 382
267 383
268 280
268 291
268 292
268 309
268 310
268 327
268 328
268 334
268 335
269 280
269 291
269 292
269 293
269 310
269 328
269 335
269 350
269 351
269 367
269 368
270 280
270 292
270 293
270 311
270 351
270 352
270 368
270 369
271 280
271 281
271 293
271 312
271 352
271 353
271 354
271 370
271 371
272 282
272 293
272 313
272 353
272 354
272 371
272 438
273 282
273 294
273 295
273 314
273 355
273 356
273 372
273 373
274 294
274 295
274 296
274 315
274 357
274 358
274 374
274 375
275 296
275 297
275 316
275 359
275 360
275 376
275 377
276 296
276 297
276 317
276 361
276 362
276 378
276 379
277 295
277 297
277 318
277 319
277 362
277 363
277 380
277 381
278 285
278 297
278 320
278 321
278 363
278 364
278 381
278 382
279 285
279 320
279 321
279 364
279 365
279 366
279 382
279 383
280 286
280 287
280 288
280 298
280 299
280 309
280 310
280 311
280 327
280 328
280 334
280 335
280 350
280 351
280 367
280 368
280 369
280 439
280 440
280 441
281 288
281 289
281 290
281 299
281 300
281 301
281 311
281 312
281 352
281 353
281 354
281 369
281 370
281 371
281 439
281 440
281 441
282 290
282 291
282 292
282 301
282 302
282 313
282 314
282 354
282 355
282 356
282 357
282 370
282 371
282 372
282 373
282 374
282 389
282 439
282 440
282 441
283 292
283 293
283 294
283 303
283 304
283 315
283 316
283 358
283 359
283 360
283 372
283 373
283 374
283 375
283 376
283 377
283 441
284 293
284 294
284 295
284 304
284 305
284 306
284 361
284 362
284 363
284 378
284 379
284 380
285 294
285 295
285 296
285 297
285 305
285 306
285 307
285 308
285 319
285 320
285 321
285 364
285 365
285 366
285 381
285 382
285 383
285 444
286 287
286 298
286 309
286 342
286 349
286 384
286 400
287 288
287 298
287 299
287 309
287 310
287 342
287 349
287 384
287 385
287 400
287 401
288 289
288 298
288 299
288 300
288 310
288 311
288 384
288 385
288 386
288 387
288 401
288 402
288 403
289 298
289 300
289 301
289 312
289 388
289 389
289 403
289 404
289 405
290 291
290 300
290 301
290 313
290 388
290 389
290 404
290 405
290 406
291 301
291 302
291 313
291 314
291 389
291 390
291 391
291 404
291 405
291 406
291 407
291 438
292 303
292 314
292 315
292 390
292 391
292 392
292 406
292 407
292 408
292 448
293 303
293 315
293 316
293 317
293 392
293 393
293 394
293 406
293 407
293 408
293 409
293 410
294 304
294 305
294 316
294 317
294 318
294 319
294 393
294 394
294 395
294 409
294 410
294 411
295 304
295 305
295 306
295 318
295 319
295 320
295 394
295 395
295 396
295 410
295 411
295 412
295 413
295 431
296 297
296 305
296 306
296 307
296 319
296 320
296 395
296 396
296 397
296 412
296 413
296 414
296 415
297 308
297 320
297 321
297 397
297 398
297 399
297 413
297 414
297 415
297 416
297 431
298 299
298 309
298 310
298 313
298 342
298 349
298 401
298 431
299 310
299 311
299 384
299 385
299 386
299 387
299 400
299 402
299 403
299 440
299 441
300 311
300 312
300 386
300 387
300 388
300 389
300 402
300 403
300 404
300 405
301 302
301 312
301 313
301 388
301 389
301 404
301 405
301 406
301 441
302 314
302 388
302 389
302 390
302 391
302 405
302 406
302 407
302 408
303 304
303 314
303 315
303 391
303 392
303 393
303 406
303 407
303 408
303 409
303 448
304 315
304 316
304 317
304 392
304 393
304 394
304 408
304 409
304 410
305 317
305 318
305 394
305 395
305 396
305 410
305 411
305 412
306 318
306 319
306 395
306 396
306 397
306 411
306 412
306 413
307 319
307 320
307 395
307 396
307 397
307 398
307 412
307 413
307 414
308 320
308 321
308 397
308 398
308 399
308 413
308 414
308 415
309 342
309 384
309 439
309 440
309 441
310 342
310 349
310 384
310 385
310 400
310 401
310 439
310 440
310 441
311 386
311 387
311 402
311 403
311 439
311 441
312 388
312 389
312 403
312 404
312 405
312 439
312 440
312 441
313 388
313 389
313 390
313 404
313 405
313 439
313 440
313 441
314 389
314 390
314 391
314 392
314 405
314 406
314 407
314 439
314 440
314 441
315 390
315 391
315 392
315 406
315 407
315 408
315 441
315 448
316 391
316 392
316 393
316 408
316 409
316 410
317 393
317 394
317 395
317 410
317 411
317 412
318 394
318 395
318 396
318 411
318 412
318 413
319 395
319 396
319 397
319 412
319 413
319 414
319 444
320 321
320 396
320 397
320 398
320 412
320 413
320 414
320 415
320 444
321 381
321 395
321 397
321 398
321 399
321 413
321 414
321 415
321 416
342 439
384 440
385 439
385 440
387 437
387 439
387 440
387 441
388 441
389 440
389 441
390 440
390 441
391 437
391 441
391 443
392 437
392 441
392 442
392 443
393 444
400 440
401 438
401 440
402 438
403 437
403 440
403 441
404 439
404 440
405 440
405 441
407 438
407 441
408 438
408 442
409 444
412 444
431 437
431 439
437 438
437 443
437 445
437 446
437 451
437 452
438 440
438 441
438 442
438 443
438 445
438 446
438 451
438 452
439 440
439 441
440 441
441 442
442 443
442 445
442 446
442 451
442 452
443 445
443 446
443 451
443 452
