0 12
0 127
0 323
0 335
0 512
0 543
0 564
0 581
0 599
0 603
0 630
0 633
0 636
0 647
0 724
0 743
0 777
0 846
1 127
1 200
1 543
1 599
1 603
1 630
1 636
1 743
1 846
2 553
2 635
2 657
2 678
2 712
2 835
2 876
3 385
3 639
3 702
4 265
4 484
4 769
5 262
5 775
5 806
5 818
6 79
6 546
7 28
7 191
7 237
7 244
7 325
7 328
7 819
8 23
8 28
8 330
8 417
8 448
8 619
8 758
8 762
8 814
9 273
10 426
10 688
10 820
11 524
11 849
12 66
12 127
12 333
12 599
12 603
12 630
12 636
12 724
12 846
13 19
13 35
13 50
13 60
13 65
13 67
13 73
13 86
13 87
13 89
13 94
13 95
13 109
13 110
13 115
13 117
13 118
13 122
13 131
13 147
13 156
13 170
13 187
13 190
13 214
13 215
13 218
13 219
13 226
13 227
13 230
13 232
13 233
13 241
13 247
13 250
13 258
13 285
13 287
13 313
13 321
13 324
13 326
13 357
13 391
13 428
13 450
13 454
13 470
13 492
13 494
13 496
13 501
13 503
13 504
13 515
13 526
13 540
13 547
13 549
13 552
13 556
13 570
13 583
13 585
13 587
13 588
13 601
13 618
13 637
13 646
13 652
13 663
13 674
13 683
13 695
13 696
13 708
13 711
13 725
13 742
13 767
13 792
13 794
13 807
13 808
13 813
13 828
13 842
13 848
13 868
13 872
14 35
14 50
14 65
14 86
14 87
14 95
14 105
14 122
14 131
14 133
14 156
14 170
14 214
14 219
14 226
14 227
14 232
14 247
14 250
14 258
14 293
14 294
14 313
14 324
14 356
14 357
14 418
14 450
14 470
14 492
14 503
14 549
14 556
14 569
14 583
14 585
14 588
14 601
14 637
14 652
14 663
14 696
14 704
14 742
14 763
14 792
14 807
14 808
14 848
15 553
15 579
15 657
15 666
15 678
15 864
15 869
15 876
16 62
16 78
16 80
16 82
16 97
16 130
16 165
16 182
16 203
16 207
16 221
16 249
16 254
16 269
16 274
16 304
16 334
16 337
16 342
16 354
16 360
16 368
16 379
16 400
16 408
16 440
16 442
16 453
16 460
16 472
16 488
16 495
16 560
16 566
16 624
16 626
16 628
16 642
16 645
16 687
16 699
16 722
16 775
16 798
16 806
16 818
16 823
16 827
16 843
16 844
16 845
16 856
17 234
17 309
17 636
17 786
18 654
18 713
18 833
19 35
19 50
19 60
19 65
19 73
19 86
19 89
19 109
19 115
19 118
19 133
19 147
19 156
19 215
19 218
19 219
19 226
19 227
19 232
19 233
19 241
19 247
19 250
19 258
19 279
19 285
19 293
19 313
19 321
19 324
19 326
19 345
19 357
19 391
19 428
19 433
19 450
19 454
19 470
19 501
19 503
19 504
19 515
19 526
19 540
19 547
19 552
19 569
19 583
19 601
19 615
19 618
19 637
19 652
19 663
19 674
19 683
19 695
19 696
19 704
19 711
19 725
19 742
19 767
19 792
19 807
19 808
19 813
19 828
19 842
19 848
19 868
20 43
20 213
20 331
20 359
20 412
20 558
20 565
20 580
20 700
20 703
21 384
21 757
22 553
22 657
22 678
22 778
22 862
23 28
23 417
23 448
23 619
23 758
23 762
23 814
24 63
24 85
24 96
24 328
24 431
24 451
24 738
24 784
25 90
25 155
25 237
25 244
25 602
25 605
25 730
25 732
25 741
25 782
25 819
26 273
26 436
26 530
26 582
26 657
27 61
27 432
27 553
27 562
27 579
27 657
27 666
27 678
27 745
27 876
28 37
28 138
28 151
28 179
28 191
28 220
28 271
28 325
28 330
28 417
28 448
28 456
28 497
28 619
28 627
28 668
28 710
28 758
28 762
28 814
29 308
29 375
29 712
29 863
30 152
30 426
30 469
30 678
30 688
30 694
31 58
31 88
31 107
31 121
31 229
31 245
31 330
31 352
31 627
31 715
31 730
31 735
32 213
32 558
32 565
33 91
33 114
33 439
33 537
33 761
33 765
33 822
34 228
35 50
35 60
35 65
35 73
35 86
35 87
35 94
35 95
35 109
35 110
35 115
35 117
35 118
35 122
35 131
35 147
35 156
35 159
35 170
35 187
35 190
35 215
35 218
35 219
35 226
35 227
35 230
35 232
35 233
35 241
35 247
35 250
35 258
35 285
35 287
35 313
35 321
35 324
35 326
35 356
35 357
35 391
35 397
35 428
35 433
35 450
35 454
35 470
35 492
35 496
35 501
35 503
35 504
35 515
35 526
35 540
35 547
35 552
35 569
35 572
35 574
35 583
35 587
35 588
35 601
35 618
35 637
35 646
35 652
35 663
35 674
35 683
35 692
35 695
35 696
35 707
35 708
35 711
35 725
35 736
35 742
35 767
35 783
35 788
35 792
35 794
35 807
35 808
35 813
35 817
35 832
35 842
35 848
35 868
36 157
36 638
36 723
36 779
36 886
37 138
38 69
38 178
38 184
38 194
38 252
38 261
38 362
38 595
38 658
38 677
38 800
38 803
38 804
39 50
39 122
39 232
39 868
40 102
40 553
40 579
40 657
40 678
40 876
41 50
41 122
41 504
41 556
41 583
41 637
41 725
41 736
41 805
42 160
42 248
42 311
42 520
42 553
42 657
42 678
42 688
42 854
42 862
42 876
43 213
43 412
43 558
43 565
43 606
43 768
44 132
44 196
44 399
44 432
44 553
44 592
44 641
44 657
44 666
44 678
44 745
44 864
44 870
44 876
45 153
45 161
45 393
46 182
46 460
46 642
46 646
46 806
46 823
46 843
46 845
47 852
47 864
48 435
48 610
48 656
48 657
48 876
49 239
49 553
49 641
49 678
49 876
50 60
50 65
50 67
50 73
50 74
50 86
50 87
50 89
50 94
50 95
50 105
50 109
50 110
50 115
50 117
50 118
50 122
50 131
50 133
50 147
50 156
50 159
50 170
50 187
50 190
50 193
50 214
50 215
50 218
50 219
50 226
50 227
50 232
50 233
50 241
50 247
50 250
50 258
50 278
50 279
50 285
50 287
50 293
50 294
50 313
50 316
50 318
50 321
50 324
50 326
50 339
50 345
50 356
50 357
50 376
50 382
50 389
50 391
50 397
50 422
50 428
50 433
50 450
50 454
50 470
50 483
50 492
50 494
50 496
50 499
50 501
50 503
50 504
50 515
50 526
50 540
50 547
50 549
50 552
50 556
50 569
50 570
50 572
50 574
50 583
50 585
50 587
50 588
50 601
50 618
50 626
50 629
50 637
50 646
50 652
50 655
50 663
50 671
50 674
50 683
50 692
50 695
50 696
50 704
50 708
50 711
50 725
50 726
50 736
50 742
50 744
50 747
50 763
50 766
50 767
50 783
50 788
50 792
50 794
50 805
50 807
50 808
50 813
50 817
50 828
50 832
50 842
50 848
50 868
50 872
51 292
51 478
52 64
52 137
52 234
52 463
52 550
52 636
52 724
52 777
52 786
52 865
53 129
53 199
53 328
53 404
54 712
54 873
55 167
55 223
55 302
56 531
57 459
57 761
58 88
58 107
58 121
58 229
58 245
58 330
58 352
58 627
58 715
58 730
58 735
59 102
59 308
59 553
59 635
59 641
59 657
59 662
59 678
59 876
60 65
60 73
60 86
60 87
60 94
60 95
60 109
60 110
60 115
60 117
60 118
60 122
60 131
60 147
60 156
60 170
60 187
60 190
60 215
60 218
60 219
60 226
60 227
60 232
60 233
60 247
60 250
60 258
60 285
60 287
60 313
60 321
60 324
60 326
60 357
60 391
60 428
60 440
60 450
60 454
60 470
60 496
60 501
60 503
60 504
60 515
60 526
60 540
60 547
60 552
60 583
60 587
60 588
60 601
60 618
60 637
60 646
60 652
60 663
60 674
60 683
60 695
60 696
60 708
60 711
60 725
60 742
60 767
60 792
60 807
60 808
60 842
60 848
60 868
61 120
61 125
61 553
61 657
61 666
61 678
61 745
61 864
61 876
62 78
62 80
62 82
62 97
62 130
62 141
62 165
62 182
62 203
62 207
62 221
62 249
62 254
62 262
62 269
62 274
62 299
62 304
62 334
62 337
62 342
62 354
62 360
62 368
62 379
62 400
62 408
62 440
62 442
62 453
62 455
62 460
62 472
62 488
62 495
62 560
62 566
62 624
62 626
62 628
62 642
62 645
62 648
62 687
62 699
62 722
62 775
62 798
62 806
62 818
62 823
62 827
62 843
62 844
62 845
62 856
63 96
63 328
63 451
63 738
64 137
64 234
64 463
64 550
64 636
64 724
64 786
64 865
65 73
65 86
65 87
65 94
65 95
65 109
65 110
65 115
65 117
65 118
65 122
65 131
65 147
65 156
65 159
65 170
65 187
65 190
65 215
65 218
65 219
65 226
65 227
65 232
65 233
65 241
65 247
65 250
65 258
65 285
65 287
65 313
65 321
65 324
65 326
65 357
65 391
65 428
65 450
65 454
65 470
65 492
65 496
65 501
65 503
65 504
65 515
65 526
65 540
65 547
65 552
65 583
65 585
65 587
65 588
65 601
65 618
65 637
65 646
65 652
65 663
65 674
65 683
65 692
65 695
65 696
65 704
65 708
65 711
65 725
65 742
65 767
65 792
65 794
65 807
65 808
65 813
65 842
65 848
65 868
66 333
66 512
66 599
66 603
66 636
66 751
67 117
67 156
67 190
67 219
67 241
67 250
67 326
67 357
67 391
67 501
67 583
67 587
67 588
67 652
67 663
67 674
67 725
67 742
67 807
67 868
68 149
68 386
68 525
68 553
68 654
68 678
68 694
68 876
69 178
69 184
69 194
69 252
69 261
69 362
69 595
69 658
69 677
69 800
69 802
69 803
69 804
69 859
70 160
70 248
70 311
70 520
70 527
70 553
70 657
70 678
70 862
70 876
71 205
71 228
71 529
72 169
72 183
72 236
72 602
72 615
73 86
73 87
73 94
73 95
73 109
73 110
73 115
73 117
73 118
73 122
73 131
73 147
73 156
73 170
73 187
73 190
73 215
73 218
73 219
73 226
73 227
73 232
73 233
73 247
73 250
73 258
73 285
73 287
73 313
73 321
73 324
73 326
73 357
73 382
73 391
73 428
73 450
73 454
73 470
73 496
73 501
73 503
73 504
73 515
73 526
73 540
73 547
73 552
73 583
73 587
73 588
73 601
73 618
73 629
73 637
73 646
73 652
73 663
73 671
73 674
73 683
73 692
73 695
73 696
73 708
73 711
73 725
73 742
73 747
73 767
73 783
73 788
73 792
73 807
73 808
73 842
73 848
73 868
74 110
74 115
74 117
74 133
74 190
74 247
74 286
74 316
74 376
74 389
74 428
74 494
74 547
74 587
74 637
74 711
74 725
74 744
74 767
74 805
74 808
74 872
75 796
75 831
76 840
76 864
77 136
77 208
77 242
77 553
77 578
77 657
77 678
77 745
77 795
77 876
78 80
78 82
78 97
78 130
78 141
78 165
78 182
78 203
78 207
78 221
78 249
78 254
78 269
78 274
78 304
78 334
78 337
78 342
78 354
78 360
78 368
78 379
78 400
78 408
78 440
78 442
78 447
78 453
78 460
78 472
78 488
78 495
78 560
78 566
78 624
78 626
78 628
78 642
78 645
78 687
78 699
78 722
78 775
78 798
78 806
78 818
78 823
78 827
78 843
78 844
78 845
78 856
79 546
79 831
80 82
80 97
80 130
80 141
80 165
80 182
80 203
80 207
80 221
80 249
80 254
80 269
80 274
80 304
80 334
80 337
80 342
80 354
80 360
80 368
80 379
80 400
80 408
80 440
80 442
80 453
80 460
80 472
80 479
80 488
80 495
80 560
80 566
80 624
80 626
80 628
80 642
80 645
80 687
80 699
80 722
80 775
80 798
80 801
80 806
80 818
80 823
80 827
80 843
80 844
80 845
80 856
81 153
81 525
81 653
81 676
81 850
82 97
82 130
82 141
82 165
82 182
82 203
82 207
82 221
82 249
82 254
82 269
82 274
82 304
82 334
82 337
82 342
82 354
82 360
82 368
82 379
82 400
82 408
82 440
82 442
82 453
82 460
82 472
82 488
82 495
82 560
82 566
82 624
82 626
82 628
82 642
82 645
82 687
82 699
82 722
82 775
82 798
82 806
82 818
82 823
82 827
82 843
82 844
82 845
82 856
83 102
83 308
83 553
83 657
83 678
83 835
83 876
84 244
84 602
84 649
84 781
84 819
85 451
85 738
85 784
86 87
86 94
86 95
86 109
86 110
86 115
86 117
86 118
86 122
86 131
86 147
86 156
86 170
86 187
86 190
86 215
86 218
86 219
86 226
86 227
86 232
86 233
86 247
86 250
86 258
86 285
86 287
86 313
86 321
86 324
86 326
86 339
86 356
86 357
86 391
86 428
86 450
86 454
86 470
86 492
86 496
86 501
86 503
86 504
86 515
86 526
86 540
86 547
86 552
86 583
86 585
86 587
86 588
86 601
86 618
86 637
86 646
86 652
86 663
86 674
86 683
86 692
86 695
86 696
86 704
86 708
86 711
86 725
86 742
86 744
86 767
86 783
86 792
86 807
86 808
86 842
86 848
86 868
87 109
87 115
87 122
87 147
87 156
87 215
87 218
87 219
87 226
87 227
87 232
87 233
87 247
87 250
87 258
87 278
87 285
87 313
87 321
87 324
87 326
87 357
87 391
87 418
87 428
87 450
87 454
87 470
87 492
87 501
87 503
87 504
87 515
87 526
87 540
87 547
87 552
87 583
87 585
87 601
87 618
87 629
87 637
87 652
87 663
87 674
87 683
87 695
87 696
87 704
87 711
87 725
87 742
87 767
87 792
87 806
87 807
87 808
87 813
87 828
87 842
87 848
87 868
88 107
88 121
88 229
88 245
88 330
88 352
88 627
88 715
88 730
88 735
89 110
89 122
89 159
89 193
89 215
89 241
89 250
89 278
89 279
89 326
89 340
89 394
89 470
89 503
89 549
89 572
89 574
89 585
89 618
89 637
89 671
89 674
89 708
89 742
89 794
89 797
89 808
89 813
89 828
90 155
90 237
90 244
90 602
90 605
90 730
90 732
90 741
90 782
90 819
91 216
91 439
91 537
91 632
91 765
91 780
91 837
92 819
93 125
93 553
93 641
93 657
93 666
93 678
93 864
93 869
93 876
94 109
94 115
94 122
94 147
94 156
94 215
94 218
94 219
94 226
94 227
94 232
94 233
94 247
94 250
94 258
94 285
94 313
94 321
94 324
94 326
94 357
94 391
94 428
94 450
94 454
94 470
94 492
94 501
94 503
94 504
94 515
94 526
94 540
94 547
94 549
94 552
94 569
94 570
94 583
94 585
94 601
94 618
94 629
94 637
94 652
94 663
94 674
94 683
94 695
94 704
94 711
94 725
94 742
94 747
94 767
94 792
94 807
94 808
94 842
94 848
94 851
94 861
94 868
95 109
95 115
95 122
95 147
95 156
95 215
95 218
95 219
95 226
95 232
95 233
95 247
95 250
95 258
95 285
95 313
95 321
95 324
95 326
95 357
95 391
95 428
95 450
95 454
95 470
95 492
95 501
95 503
95 504
95 515
95 526
95 540
95 547
95 552
95 583
95 585
95 601
95 618
95 637
95 652
95 663
95 674
95 683
95 695
95 696
95 704
95 711
95 725
95 742
95 767
95 792
95 807
95 808
95 813
95 842
95 848
95 868
96 328
96 451
96 738
96 819
97 130
97 141
97 165
97 182
97 203
97 207
97 221
97 249
97 254
97 269
97 274
97 304
97 334
97 337
97 342
97 354
97 360
97 368
97 379
97 400
97 408
97 440
97 442
97 453
97 460
97 472
97 488
97 495
97 560
97 566
97 624
97 626
97 628
97 642
97 645
97 687
97 699
97 722
97 775
97 798
97 806
97 818
97 823
97 827
97 843
97 844
97 845
97 856
98 561
98 657
98 778
98 862
99 257
99 553
99 657
99 678
99 864
99 869
99 876
100 819
101 323
101 335
101 398
101 603
101 636
101 657
102 123
102 136
102 143
102 162
102 166
102 201
102 212
102 231
102 263
102 308
102 343
102 375
102 420
102 511
102 553
102 635
102 656
102 657
102 659
102 662
102 678
102 753
102 793
102 873
102 876
103 380
104 228
104 478
104 498
104 502
104 563
105 117
105 122
105 133
105 190
105 214
105 250
105 293
105 294
105 313
105 418
105 492
105 549
105 569
105 583
105 587
105 725
105 763
105 807
106 125
106 305
106 553
106 579
106 657
106 666
106 678
106 685
106 745
106 862
106 864
106 876
107 121
107 128
107 229
107 245
107 330
107 352
107 627
107 715
107 730
107 735
108 182
108 488
108 548
108 744
108 801
108 806
109 110
109 115
109 117
109 118
109 122
109 131
109 133
109 147
109 156
109 170
109 187
109 190
109 215
109 218
109 219
109 226
109 227
109 232
109 233
109 247
109 250
109 258
109 285
109 287
109 313
109 321
109 324
109 326
109 357
109 391
109 428
109 450
109 454
109 470
109 492
109 496
109 501
109 503
109 504
109 515
109 526
109 540
109 547
109 552
109 583
109 587
109 588
109 601
109 618
109 637
109 646
109 652
109 663
109 674
109 683
109 692
109 695
109 696
109 708
109 711
109 725
109 742
109 767
109 792
109 807
109 808
109 842
109 848
109 868
110 115
110 122
110 133
110 147
110 156
110 159
110 214
110 215
110 218
110 219
110 226
110 227
110 232
110 233
110 241
110 247
110 250
110 258
110 285
110 286
110 313
110 321
110 324
110 326
110 357
110 376
110 389
110 391
110 428
110 433
110 450
110 454
110 470
110 494
110 501
110 503
110 504
110 515
110 526
110 540
110 547
110 552
110 556
110 569
110 572
110 583
110 601
110 618
110 652
110 655
110 663
110 671
110 674
110 683
110 695
110 696
110 711
110 725
110 742
110 767
110 792
110 805
110 807
110 808
110 813
110 828
110 842
110 848
110 868
111 125
111 327
111 423
111 435
111 553
111 657
111 678
111 864
111 876
112 491
112 546
113 132
113 399
113 745
113 864
113 869
114 213
114 295
114 302
114 364
114 537
114 761
115 117
115 118
115 122
115 131
115 133
115 147
115 156
115 170
115 187
115 190
115 215
115 218
115 219
115 226
115 227
115 232
115 233
115 247
115 250
115 258
115 285
115 287
115 313
115 321
115 324
115 326
115 357
115 391
115 428
115 450
115 454
115 470
115 492
115 496
115 501
115 503
115 504
115 515
115 526
115 540
115 547
115 552
115 583
115 585
115 587
115 588
115 601
115 618
115 629
115 637
115 646
115 652
115 663
115 674
115 683
115 695
115 696
115 708
115 711
115 725
115 742
115 767
115 792
115 807
115 808
115 842
115 848
115 868
116 653
116 657
117 122
117 133
117 147
117 156
117 214
117 215
117 218
117 219
117 226
117 227
117 230
117 232
117 233
117 241
117 247
117 250
117 258
117 279
117 285
117 286
117 294
117 313
117 321
117 324
117 326
117 357
117 376
117 389
117 391
117 428
117 433
117 450
117 454
117 470
117 494
117 501
117 503
117 504
117 515
117 526
117 540
117 547
117 552
117 556
117 569
117 572
117 583
117 601
117 618
117 637
117 652
117 655
117 663
117 674
117 683
117 695
117 696
117 711
117 742
117 767
117 792
117 805
117 807
117 808
117 813
117 842
117 848
117 868
118 122
118 147
118 156
118 215
118 218
118 219
118 226
118 227
118 232
118 233
118 241
118 247
118 250
118 258
118 285
118 313
118 321
118 324
118 326
118 357
118 391
118 428
118 450
118 454
118 470
118 501
118 503
118 504
118 515
118 526
118 540
118 547
118 552
118 583
118 601
118 618
118 637
118 646
118 652
118 663
118 674
118 683
118 695
118 696
118 711
118 725
118 742
118 767
118 792
118 807
118 808
118 813
118 842
118 848
118 868
119 553
119 656
119 657
119 678
119 876
120 343
120 355
120 528
120 579
120 641
120 791
120 835
120 862
120 889
121 229
121 245
121 330
121 352
121 627
121 730
121 735
122 131
122 133
122 147
122 156
122 170
122 187
122 190
122 215
122 218
122 219
122 226
122 227
122 232
122 233
122 241
122 247
122 250
122 258
122 279
122 285
122 287
122 293
122 313
122 321
122 324
122 326
122 345
122 357
122 389
122 391
122 397
122 418
122 428
122 433
122 450
122 454
122 470
122 492
122 496
122 501
122 503
122 504
122 515
122 526
122 540
122 547
122 552
122 569
122 570
122 583
122 587
122 588
122 601
122 615
122 618
122 637
122 646
122 652
122 663
122 674
122 683
122 692
122 695
122 696
122 704
122 708
122 711
122 725
122 736
122 742
122 744
122 767
122 792
122 794
122 807
122 808
122 813
122 828
122 842
122 848
122 868
122 872
123 553
123 657
123 678
123 876
124 386
124 553
124 657
124 678
124 862
124 876
125 136
125 145
125 175
125 209
125 257
125 284
125 305
125 355
125 399
125 401
125 421
125 432
125 435
125 477
125 528
125 562
125 596
125 657
125 697
125 745
125 834
125 852
125 864
125 869
126 267
126 686
127 200
127 323
127 333
127 335
127 481
127 512
127 543
127 564
127 581
127 599
127 603
127 630
127 633
127 636
127 647
127 743
127 751
127 777
127 846
128 213
128 558
128 565
129 199
129 328
129 404
130 141
130 165
130 182
130 203
130 207
130 221
130 249
130 254
130 269
130 274
130 304
130 334
130 337
130 342
130 354
130 360
130 368
130 379
130 400
130 408
130 440
130 442
130 453
130 460
130 472
130 486
130 488
130 495
130 560
130 566
130 624
130 626
130 628
130 642
130 645
130 687
130 699
130 722
130 775
130 798
130 806
130 818
130 823
130 827
130 843
130 844
130 845
130 856
131 147
131 156
131 215
131 218
131 219
131 226
131 232
131 233
131 247
131 250
131 258
131 285
131 313
131 321
131 324
131 326
131 357
131 391
131 428
131 450
131 454
131 470
131 492
131 501
131 503
131 504
131 515
131 526
131 540
131 547
131 552
131 583
131 585
131 601
131 618
131 637
131 652
131 663
131 674
131 683
131 695
131 696
131 704
131 711
131 725
131 742
131 767
131 792
131 807
131 808
131 813
131 842
131 848
131 868
132 257
132 406
132 510
132 562
132 756
132 864
133 156
133 190
133 214
133 218
133 232
133 241
133 293
133 294
133 313
133 324
133 326
133 418
133 492
133 540
133 547
133 549
133 552
133 569
133 583
133 587
133 637
133 708
133 711
133 725
133 763
133 767
133 792
133 807
133 808
134 149
134 255
134 435
134 468
134 553
134 592
134 657
134 678
134 685
134 718
134 749
134 778
134 839
134 864
134 876
135 553
135 578
135 579
135 657
135 666
135 678
135 745
135 864
135 876
136 208
136 277
136 329
136 381
136 435
136 553
136 578
136 656
136 657
136 678
136 712
136 714
136 745
136 795
136 869
136 873
136 876
136 883
137 463
137 786
137 865
139 340
139 394
139 572
140 338
140 435
140 553
140 657
140 666
140 678
140 685
140 835
140 876
141 165
141 182
141 203
141 207
141 221
141 249
141 254
141 269
141 274
141 304
141 334
141 337
141 342
141 354
141 360
141 368
141 379
141 400
141 408
141 440
141 442
141 453
141 460
141 472
141 488
141 495
141 560
141 566
141 570
141 624
141 626
141 628
141 642
141 645
141 687
141 699
141 722
141 775
141 798
141 806
141 818
141 823
141 825
141 827
141 843
141 844
141 845
142 332
142 509
142 748
143 553
143 657
143 678
143 791
143 793
143 876
144 149
144 204
144 373
144 438
144 554
144 598
144 631
144 657
144 728
144 733
145 153
145 235
145 553
145 579
145 657
145 666
145 678
145 685
145 745
145 864
145 876
146 375
146 553
146 657
146 678
146 712
146 835
146 876
147 156
147 170
147 187
147 190
147 215
147 218
147 219
147 226
147 227
147 232
147 233
147 247
147 250
147 258
147 285
147 287
147 313
147 321
147 324
147 326
147 357
147 391
147 397
147 428
147 433
147 450
147 454
147 470
147 474
147 492
147 496
147 501
147 503
147 504
147 515
147 526
147 540
147 547
147 552
147 556
147 569
147 572
147 574
147 583
147 585
147 587
147 588
147 601
147 618
147 629
147 637
147 646
147 652
147 663
147 674
147 683
147 692
147 695
147 696
147 708
147 711
147 725
147 742
147 767
147 792
147 807
147 808
147 842
147 848
147 868
147 888
148 543
148 603
148 636
148 751
149 204
149 373
149 438
149 554
149 598
149 631
149 733
149 839
150 298
150 434
150 639
150 657
151 404
152 386
152 426
152 539
152 688
152 694
152 862
152 876
153 161
153 235
153 270
153 289
153 303
153 353
153 383
153 393
153 413
153 455
153 467
153 475
153 500
153 525
153 538
153 575
153 589
153 595
153 610
153 614
153 625
153 653
153 657
153 670
153 676
153 678
153 759
153 776
153 797
153 815
153 850
153 854
153 862
153 866
153 867
153 874
154 244
154 445
154 602
155 237
155 244
155 602
155 605
155 730
155 732
155 741
155 782
155 819
156 159
156 170
156 187
156 190
156 215
156 218
156 219
156 226
156 227
156 232
156 233
156 241
156 247
156 250
156 258
156 279
156 285
156 287
156 313
156 321
156 324
156 326
156 357
156 391
156 397
156 428
156 450
156 454
156 470
156 492
156 496
156 501
156 503
156 504
156 515
156 526
156 540
156 547
156 552
156 569
156 583
156 585
156 587
156 588
156 601
156 618
156 637
156 646
156 652
156 663
156 674
156 683
156 692
156 695
156 696
156 704
156 708
156 711
156 725
156 726
156 742
156 767
156 792
156 794
156 807
156 808
156 813
156 842
156 848
156 868
157 779
157 886
158 180
158 206
159 215
159 219
159 232
159 241
159 250
159 279
159 313
159 326
159 370
159 470
159 504
159 572
159 574
159 585
159 618
159 637
159 652
159 674
159 708
159 783
159 792
159 794
159 808
159 813
159 832
160 248
160 311
160 386
160 520
160 553
160 657
160 678
160 826
160 854
160 862
160 876
161 235
161 303
161 419
161 653
161 657
161 676
161 815
161 862
162 553
162 657
162 678
162 835
162 876
163 432
163 864
164 338
164 553
164 657
164 666
164 678
164 745
164 835
164 864
164 876
165 182
165 203
165 207
165 221
165 249
165 254
165 269
165 274
165 304
165 334
165 337
165 342
165 354
165 360
165 368
165 379
165 400
165 408
165 440
165 442
165 453
165 460
165 472
165 488
165 495
165 560
165 566
165 624
165 626
165 628
165 642
165 645
165 687
165 699
165 722
165 775
165 798
165 806
165 818
165 823
165 827
165 843
165 844
165 845
165 856
166 553
166 641
166 657
166 678
166 876
167 223
167 411
167 457
168 239
168 471
168 553
168 579
168 678
168 876
169 244
169 602
169 657
170 215
170 218
170 219
170 226
170 232
170 233
170 247
170 250
170 258
170 285
170 313
170 321
170 324
170 326
170 357
170 391
170 428
170 450
170 454
170 470
170 492
170 501
170 503
170 504
170 515
170 526
170 540
170 547
170 552
170 583
170 585
170 601
170 618
170 637
170 652
170 663
170 674
170 683
170 695
170 696
170 704
170 711
170 725
170 742
170 767
170 792
170 807
170 808
170 813
170 842
170 848
170 868
171 213
171 691
172 458
172 759
172 860
173 643
174 213
174 558
174 565
175 196
175 305
175 375
175 553
175 657
175 666
175 678
175 745
175 862
175 864
175 876
175 889
176 581
176 599
176 603
176 630
176 636
176 647
176 724
177 296
177 486
177 806
178 184
178 194
178 252
178 261
178 362
178 595
178 658
178 677
178 800
178 803
178 804
179 220
179 448
180 206
180 364
181 298
182 203
182 207
182 221
182 249
182 254
182 262
182 269
182 274
182 299
182 304
182 334
182 337
182 342
182 354
182 360
182 368
182 379
182 400
182 408
182 411
182 440
182 442
182 453
182 460
182 472
182 486
182 488
182 495
182 560
182 566
182 624
182 626
182 628
182 642
182 645
182 648
182 669
182 687
182 699
182 716
182 722
182 744
182 760
182 775
182 798
182 801
182 806
182 818
182 823
182 825
182 827
182 843
182 844
182 845
182 856
184 194
184 252
184 261
184 362
184 595
184 658
184 677
184 800
184 803
184 804
185 312
185 402
185 657
185 673
186 239
186 553
186 678
186 876
187 214
187 215
187 218
187 219
187 226
187 227
187 232
187 233
187 241
187 247
187 250
187 258
187 285
187 313
187 321
187 324
187 326
187 357
187 382
187 391
187 397
187 422
187 428
187 450
187 454
187 470
187 501
187 503
187 504
187 515
187 526
187 540
187 547
187 552
187 569
187 583
187 601
187 618
187 637
187 646
187 652
187 663
187 674
187 683
187 695
187 696
187 711
187 725
187 726
187 742
187 767
187 792
187 794
187 807
187 808
187 813
187 842
187 848
187 868
188 264
188 303
188 371
188 418
188 453
188 530
188 542
188 676
188 821
188 851
188 887
189 610
189 614
189 650
189 653
189 654
189 657
189 673
189 680
189 734
189 759
189 801
189 833
189 854
189 872
190 214
190 215
190 218
190 219
190 226
190 227
190 230
190 232
190 233
190 241
190 247
190 250
190 258
190 279
190 285
190 286
190 294
190 313
190 321
190 324
190 326
190 357
190 376
190 389
190 391
190 428
190 433
190 450
190 454
190 470
190 494
190 501
190 503
190 504
190 515
190 526
190 540
190 547
190 552
190 556
190 569
190 572
190 583
190 601
190 618
190 637
190 652
190 655
190 663
190 674
190 683
190 695
190 696
190 711
190 742
190 767
190 792
190 805
190 807
190 808
190 813
190 842
190 848
190 868
191 485
192 306
192 554
192 586
192 657
193 356
193 540
193 570
193 707
193 813
194 252
194 261
194 362
194 595
194 658
194 677
194 800
194 803
194 804
195 386
195 520
195 539
195 862
195 876
196 209
196 284
196 375
196 426
196 435
196 484
196 511
196 523
196 610
196 745
196 860
196 869
196 873
197 553
197 657
197 666
197 678
197 835
197 864
197 869
197 876
198 201
198 425
198 678
198 712
199 328
199 404
199 497
200 543
200 581
200 599
200 603
200 630
200 636
200 743
201 375
201 425
201 712
202 240
202 340
203 207
203 221
203 249
203 254
203 269
203 274
203 299
203 304
203 334
203 337
203 342
203 354
203 360
203 368
203 379
203 400
203 408
203 440
203 442
203 453
203 460
203 472
203 488
203 495
203 560
203 566
203 624
203 626
203 628
203 642
203 645
203 687
203 699
203 722
203 760
203 775
203 798
203 801
203 806
203 818
203 823
203 827
203 843
203 844
203 845
203 856
204 373
204 438
204 525
204 554
204 598
204 607
204 631
204 733
205 228
205 553
205 657
207 221
207 249
207 254
207 269
207 274
207 304
207 334
207 337
207 342
207 354
207 360
207 368
207 379
207 400
207 408
207 440
207 442
207 453
207 460
207 472
207 488
207 495
207 560
207 566
207 624
207 626
207 628
207 642
207 645
207 687
207 699
207 722
207 775
207 798
207 806
207 818
207 823
207 827
207 843
207 844
207 845
207 856
208 375
208 407
208 443
208 487
208 553
208 657
208 678
208 745
208 750
208 795
208 836
208 869
208 876
209 375
209 553
209 592
209 657
209 666
209 678
209 756
209 835
209 864
209 869
209 876
210 375
210 712
211 242
211 327
211 423
211 468
211 596
211 685
211 698
211 709
211 717
211 864
212 553
212 657
212 678
212 876
213 295
213 328
213 331
213 347
213 351
213 358
213 359
213 412
213 431
213 485
213 537
213 558
213 565
213 606
213 672
213 700
213 703
213 768
214 219
214 293
214 294
214 313
214 326
214 376
214 418
214 470
214 492
214 504
214 526
214 540
214 549
214 569
214 583
214 587
214 601
214 637
214 652
214 655
214 711
214 725
214 763
214 792
214 811
214 888
215 218
215 219
215 226
215 227
215 232
215 233
215 241
215 247
215 250
215 258
215 279
215 285
215 287
215 313
215 321
215 324
215 326
215 357
215 391
215 428
215 450
215 454
215 470
215 492
215 496
215 501
215 503
215 504
215 515
215 526
215 540
215 547
215 552
215 572
215 574
215 583
215 585
215 587
215 588
215 601
215 618
215 637
215 646
215 652
215 663
215 674
215 683
215 695
215 696
215 708
215 711
215 725
215 742
215 747
215 767
215 792
215 807
215 808
215 813
215 832
215 842
215 848
215 868
216 261
216 524
216 582
216 632
216 711
217 273
217 657
217 740
217 862
218 219
218 226
218 227
218 232
218 233
218 247
218 250
218 258
218 285
218 287
218 313
218 316
218 321
218 324
218 326
218 339
218 356
218 357
218 391
218 428
218 450
218 454
218 470
218 492
218 494
218 496
218 501
218 503
218 504
218 515
218 526
218 540
218 547
218 552
218 583
218 585
218 587
218 588
218 601
218 618
218 637
218 646
218 652
218 663
218 671
218 674
218 683
218 692
218 695
218 696
218 707
218 708
218 711
218 725
218 742
218 767
218 788
218 792
218 807
218 808
218 811
218 842
218 848
218 868
218 888
219 226
219 227
219 232
219 233
219 241
219 247
219 250
219 258
219 279
219 285
219 287
219 313
219 321
219 324
219 326
219 356
219 357
219 391
219 428
219 433
219 450
219 454
219 470
219 492
219 496
219 501
219 503
219 504
219 515
219 526
219 540
219 547
219 549
219 552
219 583
219 587
219 588
219 601
219 618
219 637
219 646
219 652
219 663
219 674
219 683
219 695
219 696
219 708
219 711
219 725
219 742
219 767
219 783
219 792
219 794
219 807
219 808
219 813
219 832
219 842
219 848
219 868
219 872
220 710
221 249
221 254
221 269
221 274
221 304
221 334
221 337
221 342
221 354
221 360
221 368
221 379
221 400
221 408
221 440
221 442
221 453
221 460
221 472
221 488
221 495
221 560
221 566
221 624
221 626
221 628
221 642
221 645
221 687
221 699
221 722
221 775
221 798
221 806
221 818
221 823
221 827
221 843
221 844
221 845
221 856
222 738
224 518
224 613
224 825
225 344
225 656
225 693
225 866
226 227
226 232
226 233
226 247
226 250
226 258
226 278
226 285
226 287
226 313
226 321
226 324
226 326
226 357
226 391
226 397
226 418
226 428
226 450
226 454
226 470
226 492
226 496
226 501
226 503
226 504
226 515
226 526
226 540
226 547
226 549
226 552
226 583
226 585
226 587
226 588
226 601
226 618
226 629
226 637
226 646
226 652
226 663
226 674
226 683
226 695
226 696
226 704
226 708
226 711
226 725
226 742
226 767
226 792
226 806
226 807
226 808
226 813
226 828
226 842
226 848
226 868
227 232
227 233
227 247
227 250
227 258
227 285
227 287
227 313
227 321
227 324
227 326
227 357
227 391
227 428
227 450
227 454
227 470
227 492
227 496
227 501
227 503
227 504
227 515
227 526
227 540
227 547
227 552
227 583
227 585
227 587
227 588
227 601
227 618
227 637
227 646
227 652
227 663
227 674
227 683
227 695
227 696
227 704
227 708
227 711
227 725
227 742
227 767
227 792
227 807
227 808
227 813
227 842
227 848
227 868
228 478
228 498
228 563
229 245
229 330
229 352
229 627
229 715
229 730
229 735
230 241
230 326
230 583
230 587
230 674
230 686
230 711
230 725
231 553
231 579
231 656
231 657
231 678
231 873
231 876
232 233
232 241
232 247
232 250
232 258
232 278
232 279
232 285
232 287
232 293
232 313
232 321
232 324
232 326
232 357
232 391
232 428
232 450
232 454
232 470
232 492
232 496
232 501
232 503
232 504
232 515
232 526
232 540
232 547
232 552
232 569
232 583
232 587
232 588
232 601
232 618
232 637
232 646
232 652
232 663
232 674
232 683
232 692
232 695
232 696
232 704
232 708
232 711
232 725
232 742
232 744
232 747
232 767
232 783
232 788
232 792
232 794
232 807
232 808
232 813
232 842
232 848
232 868
233 247
233 250
233 258
233 285
233 287
233 313
233 321
233 324
233 326
233 357
233 391
233 428
233 450
233 454
233 470
233 492
233 496
233 501
233 503
233 504
233 515
233 526
233 540
233 547
233 552
233 583
233 585
233 587
233 588
233 601
233 618
233 637
233 646
233 652
233 663
233 674
233 683
233 695
233 696
233 708
233 711
233 725
233 742
233 767
233 792
233 807
233 808
233 842
233 848
233 868
234 309
234 636
234 777
234 786
235 270
235 303
235 353
235 387
235 393
235 475
235 500
235 517
235 610
235 653
235 656
235 657
235 676
235 678
235 797
235 815
235 867
236 831
237 244
237 445
237 602
237 605
237 730
237 732
237 741
237 782
237 819
238 249
239 471
239 553
239 607
239 678
239 876
240 320
240 618
240 620
240 686
240 737
240 813
241 250
241 258
241 279
241 326
241 340
241 357
241 391
241 501
241 504
241 526
241 549
241 572
241 574
241 583
241 585
241 587
241 588
241 618
241 637
241 652
241 663
241 671
241 674
241 708
241 711
241 725
241 742
241 775
241 783
241 792
241 794
241 807
241 808
241 813
241 848
241 868
241 872
242 553
242 579
242 657
242 666
242 678
242 718
242 745
242 876
243 553
243 657
243 666
243 678
243 745
243 791
243 864
243 876
244 256
244 295
244 297
244 322
244 341
244 430
244 445
244 505
244 602
244 605
244 622
244 649
244 730
244 731
244 732
244 741
244 755
244 770
244 781
244 782
244 819
245 330
245 352
245 627
245 715
245 730
245 735
246 385
246 702
246 764
247 250
247 258
247 285
247 287
247 294
247 313
247 321
247 324
247 326
247 357
247 389
247 391
247 397
247 428
247 433
247 450
247 454
247 470
247 492
247 496
247 501
247 503
247 504
247 515
247 526
247 540
247 547
247 552
247 583
247 587
247 588
247 601
247 618
247 637
247 646
247 652
247 663
247 674
247 683
247 695
247 696
247 704
247 708
247 711
247 725
247 742
247 767
247 792
247 807
247 808
247 813
247 842
247 848
247 868
248 311
248 386
248 520
248 553
248 657
248 678
248 854
248 862
248 876
249 254
249 262
249 269
249 274
249 283
249 296
249 304
249 334
249 337
249 342
249 354
249 360
249 368
249 379
249 400
249 408
249 411
249 440
249 442
249 453
249 460
249 472
249 486
249 488
249 495
249 560
249 566
249 624
249 626
249 628
249 642
249 645
249 648
249 687
249 699
249 716
249 722
249 744
249 775
249 798
249 801
249 806
249 818
249 823
249 825
249 827
249 843
249 844
249 845
249 856
250 258
250 279
250 285
250 287
250 293
250 294
250 313
250 321
250 324
250 326
250 357
250 391
250 428
250 450
250 454
250 470
250 492
250 496
250 501
250 503
250 504
250 515
250 526
250 540
250 547
250 552
250 572
250 574
250 583
250 585
250 587
250 588
250 601
250 618
250 637
250 646
250 652
250 663
250 674
250 683
250 692
250 695
250 696
250 704
250 708
250 711
250 725
250 742
250 767
250 792
250 807
250 808
250 813
250 842
250 848
250 868
251 480
251 712
251 734
252 261
252 362
252 410
252 595
252 658
252 677
252 800
252 803
252 804
253 553
253 656
253 657
253 678
253 876
254 269
254 274
254 304
254 334
254 337
254 342
254 354
254 360
254 368
254 379
254 400
254 408
254 440
254 442
254 453
254 460
254 472
254 479
254 488
254 495
254 560
254 566
254 624
254 626
254 628
254 642
254 645
254 687
254 699
254 722
254 775
254 798
254 806
254 818
254 823
254 827
254 843
254 844
254 845
254 856
255 435
255 592
255 864
256 297
256 602
256 768
256 819
257 553
257 657
257 666
257 678
257 812
257 835
257 864
257 869
257 876
258 285
258 287
258 313
258 321
258 324
258 326
258 357
258 391
258 397
258 418
258 428
258 450
258 454
258 470
258 492
258 496
258 501
258 503
258 504
258 515
258 526
258 540
258 547
258 552
258 583
258 587
258 588
258 601
258 618
258 637
258 646
258 652
258 663
258 674
258 683
258 695
258 696
258 708
258 711
258 725
258 742
258 767
258 792
258 805
258 807
258 808
258 817
258 842
258 848
258 868
258 872
259 658
259 675
259 719
260 752
260 866
261 362
261 595
261 658
261 677
261 740
261 778
261 800
261 803
261 804
262 460
262 486
262 626
262 628
262 639
262 645
262 648
262 671
262 716
262 722
262 798
262 801
262 806
262 818
262 823
262 844
262 851
262 861
263 553
263 579
263 657
263 678
263 876
264 427
264 540
264 629
264 805
265 375
265 461
265 553
265 657
265 678
265 690
265 727
265 785
265 862
265 876
266 712
267 626
267 775
268 373
268 657
269 274
269 304
269 334
269 337
269 342
269 354
269 360
269 368
269 379
269 400
269 408
269 440
269 442
269 453
269 460
269 472
269 488
269 495
269 560
269 566
269 624
269 626
269 628
269 642
269 645
269 687
269 699
269 722
269 775
269 798
269 806
269 818
269 823
269 827
269 843
269 844
269 845
269 856
270 383
270 467
270 500
270 653
270 676
270 797
270 867
271 755
272 346
272 415
272 513
272 530
272 542
272 608
272 681
272 821
272 858
272 881
272 885
273 275
273 530
274 299
274 304
274 334
274 337
274 342
274 354
274 360
274 368
274 379
274 400
274 408
274 440
274 442
274 453
274 460
274 472
274 488
274 495
274 560
274 566
274 624
274 626
274 628
274 642
274 645
274 687
274 699
274 722
274 775
274 798
274 806
274 818
274 823
274 827
274 843
274 844
274 845
274 856
275 657
276 295
276 300
276 537
277 553
277 656
277 657
277 876
278 356
278 540
278 583
278 611
278 646
278 707
278 828
279 326
279 340
279 549
279 572
279 574
279 583
279 585
279 587
279 618
279 652
279 671
279 674
279 708
279 725
279 794
279 805
279 808
279 813
280 315
280 771
280 790
281 447
282 712
282 860
283 296
283 645
283 716
283 806
283 843
284 305
284 553
284 592
284 612
284 657
284 666
284 678
284 718
284 745
284 835
284 876
285 287
285 313
285 316
285 321
285 324
285 326
285 357
285 382
285 391
285 428
285 450
285 454
285 470
285 496
285 501
285 503
285 504
285 515
285 526
285 540
285 547
285 552
285 583
285 587
285 588
285 601
285 618
285 637
285 646
285 652
285 663
285 671
285 674
285 683
285 692
285 695
285 696
285 708
285 711
285 725
285 742
285 744
285 767
285 792
285 807
285 808
285 842
285 848
285 868
285 872
286 376
286 389
286 494
286 587
286 637
286 671
286 725
286 805
286 851
287 313
287 321
287 324
287 326
287 357
287 391
287 428
287 450
287 470
287 501
287 503
287 504
287 515
287 526
287 540
287 547
287 552
287 583
287 601
287 618
287 637
287 652
287 663
287 674
287 683
287 695
287 696
287 711
287 725
287 742
287 767
287 788
287 792
287 807
287 808
287 817
287 842
287 848
287 868
288 331
290 553
290 657
290 666
290 678
290 698
290 745
290 835
290 864
290 876
291 657
291 852
291 864
292 478
292 657
293 294
293 313
293 326
293 418
293 492
293 504
293 549
293 552
293 569
293 652
293 695
293 711
293 763
294 313
294 324
294 326
294 418
294 428
294 492
294 549
294 569
294 583
294 587
294 637
294 652
294 711
294 725
294 742
294 763
294 848
295 328
295 341
295 431
295 505
295 519
295 537
295 602
295 731
295 822
296 453
296 486
296 657
296 801
296 806
296 853
297 602
297 732
297 819
297 822
299 337
299 348
299 354
299 356
299 460
299 472
299 626
299 628
299 629
299 642
299 687
299 722
299 760
299 783
299 818
299 823
299 843
299 845
300 537
300 657
300 702
301 307
301 775
302 761
302 837
303 371
303 589
303 653
303 657
303 676
303 797
303 815
303 874
304 334
304 337
304 342
304 354
304 360
304 368
304 379
304 400
304 408
304 440
304 442
304 453
304 460
304 472
304 488
304 495
304 560
304 566
304 624
304 626
304 628
304 642
304 645
304 687
304 699
304 722
304 775
304 798
304 806
304 818
304 823
304 827
304 843
304 844
304 845
304 856
305 401
305 432
305 477
305 510
305 528
305 596
305 697
305 745
305 834
305 864
305 869
306 657
307 576
307 615
308 553
308 635
308 657
308 659
308 662
308 678
308 862
308 876
309 636
309 786
310 390
310 457
311 386
311 520
311 553
311 657
311 678
311 854
311 862
311 876
312 402
312 553
312 882
313 321
313 324
313 326
313 357
313 391
313 418
313 428
313 433
313 450
313 454
313 470
313 492
313 496
313 501
313 503
313 504
313 515
313 526
313 540
313 547
313 549
313 552
313 569
313 583
313 587
313 588
313 601
313 618
313 629
313 637
313 646
313 652
313 663
313 674
313 683
313 695
313 696
313 708
313 711
313 725
313 742
313 763
313 767
313 792
313 794
313 807
313 808
313 842
313 848
313 868
314 603
314 636
314 647
315 490
315 516
315 690
315 771
315 790
315 795
315 862
316 339
316 345
316 433
316 540
316 671
316 707
316 747
316 766
316 788
316 792
316 805
316 811
316 832
316 888
317 514
317 545
317 657
317 759
317 873
318 479
318 646
318 726
318 801
318 827
319 434
319 479
319 532
320 737
321 324
321 326
321 357
321 391
321 397
321 428
321 450
321 454
321 470
321 496
321 501
321 503
321 504
321 515
321 526
321 540
321 547
321 552
321 583
321 587
321 588
321 601
321 618
321 629
321 637
321 646
321 652
321 663
321 674
321 683
321 695
321 696
321 708
321 711
321 725
321 742
321 767
321 783
321 792
321 807
321 808
321 842
321 848
321 868
322 602
323 335
323 508
323 512
323 543
323 581
323 599
323 603
323 630
323 633
323 636
323 657
323 678
323 777
323 787
323 846
324 326
324 357
324 391
324 397
324 418
324 428
324 450
324 454
324 470
324 492
324 496
324 501
324 503
324 504
324 515
324 526
324 540
324 547
324 549
324 552
324 583
324 585
324 587
324 588
324 601
324 618
324 637
324 646
324 652
324 663
324 674
324 683
324 695
324 696
324 708
324 711
324 725
324 742
324 767
324 792
324 807
324 808
324 842
324 848
324 868
325 619
325 668
326 357
326 391
326 418
326 428
326 450
326 454
326 470
326 492
326 496
326 501
326 503
326 504
326 515
326 526
326 540
326 547
326 549
326 552
326 556
326 570
326 572
326 583
326 587
326 588
326 601
326 618
326 637
326 646
326 652
326 663
326 674
326 683
326 692
326 695
326 696
326 708
326 711
326 725
326 742
326 744
326 767
326 792
326 794
326 807
326 808
326 813
326 842
326 848
326 868
326 872
327 416
327 423
327 468
327 616
327 678
327 685
327 698
327 705
327 709
327 717
327 864
328 330
328 341
328 404
328 431
328 451
328 485
328 505
328 636
328 777
328 819
329 482
329 489
329 553
329 656
329 657
329 678
329 841
329 873
329 876
330 352
330 627
330 715
330 730
330 735
332 430
332 509
333 512
333 543
333 581
333 599
333 603
333 630
333 633
333 636
333 751
333 846
334 337
334 342
334 354
334 360
334 368
334 379
334 400
334 408
334 440
334 442
334 453
334 460
334 472
334 488
334 495
334 560
334 566
334 624
334 626
334 628
334 642
334 645
334 687
334 699
334 722
334 775
334 798
334 806
334 818
334 823
334 827
334 843
334 844
334 845
334 856
335 398
335 481
335 512
335 543
335 564
335 581
335 599
335 603
335 630
335 633
335 636
335 647
335 706
335 743
335 751
335 777
335 846
336 693
336 866
337 342
337 354
337 360
337 368
337 379
337 400
337 408
337 440
337 442
337 453
337 460
337 472
337 488
337 495
337 560
337 566
337 624
337 626
337 628
337 642
337 645
337 687
337 699
337 722
337 775
337 798
337 801
337 806
337 818
337 823
337 825
337 827
337 843
337 844
337 845
337 856
338 406
338 423
338 657
338 670
338 685
338 698
338 705
338 709
338 717
338 864
339 356
339 494
339 707
339 747
339 783
340 394
340 541
340 549
340 572
340 618
340 671
340 674
340 805
340 813
341 445
341 602
341 770
342 354
342 360
342 368
342 379
342 400
342 408
342 440
342 442
342 453
342 460
342 472
342 488
342 495
342 560
342 566
342 624
342 626
342 628
342 642
342 645
342 687
342 699
342 722
342 775
342 798
342 806
342 818
342 823
342 827
342 843
342 844
342 845
342 856
343 553
343 657
343 678
343 876
344 553
344 656
344 657
344 678
344 847
344 866
344 876
345 492
345 540
345 652
345 671
345 707
345 711
345 788
345 792
345 811
345 851
345 888
346 415
346 513
346 530
346 542
346 608
346 681
346 821
346 858
346 881
346 885
347 351
347 558
347 565
347 606
348 556
348 683
348 760
348 806
348 807
348 872
349 369
350 375
350 553
350 656
350 657
350 678
350 682
350 876
351 558
351 565
351 606
351 700
351 768
352 627
352 715
352 730
352 735
353 525
353 653
353 778
353 850
354 360
354 368
354 379
354 400
354 408
354 440
354 442
354 453
354 460
354 472
354 488
354 495
354 560
354 566
354 624
354 626
354 628
354 642
354 645
354 669
354 687
354 699
354 722
354 744
354 760
354 775
354 798
354 806
354 818
354 823
354 827
354 843
354 844
354 845
354 856
355 553
355 639
355 657
355 666
355 678
355 864
355 869
355 876
356 427
356 470
356 474
356 503
356 540
356 574
356 611
356 637
356 646
356 652
356 663
356 669
356 692
356 704
356 707
356 744
356 747
356 760
356 766
356 779
356 783
356 805
356 811
356 832
357 391
357 428
357 450
357 454
357 470
357 492
357 496
357 501
357 503
357 504
357 515
357 526
357 540
357 547
357 552
357 583
357 585
357 587
357 588
357 601
357 618
357 637
357 646
357 652
357 663
357 674
357 683
357 692
357 695
357 696
357 704
357 708
357 711
357 725
357 742
357 767
357 783
357 792
357 794
357 807
357 808
357 842
357 848
357 868
358 497
358 558
358 672
358 768
359 558
359 565
360 368
360 379
360 400
360 408
360 440
360 442
360 453
360 460
360 472
360 488
360 495
360 560
360 566
360 624
360 626
360 628
360 642
360 645
360 648
360 669
360 687
360 699
360 722
360 760
360 775
360 798
360 801
360 806
360 818
360 823
360 827
360 843
360 844
360 845
360 856
361 553
361 746
362 479
362 595
362 658
362 677
362 800
362 803
362 804
363 553
363 657
363 678
363 795
363 876
365 553
365 579
365 634
365 657
365 678
365 864
365 873
365 876
366 553
366 657
366 678
366 826
366 862
366 876
367 421
367 839
367 840
367 864
368 379
368 400
368 408
368 440
368 442
368 453
368 460
368 472
368 488
368 495
368 560
368 566
368 624
368 626
368 628
368 642
368 645
368 687
368 699
368 722
368 775
368 798
368 806
368 818
368 823
368 827
368 843
368 844
368 845
368 856
369 573
369 765
370 629
371 676
372 403
372 480
372 657
372 712
373 438
373 554
373 598
373 631
373 657
373 733
374 529
374 739
374 884
375 405
375 443
375 477
375 511
375 551
375 559
375 678
375 712
375 721
375 734
375 771
375 776
375 795
375 860
375 862
375 863
375 869
375 873
375 876
376 389
376 470
376 494
376 504
376 583
376 587
376 637
376 725
376 747
376 792
376 805
377 524
378 404
378 555
379 400
379 408
379 440
379 442
379 453
379 460
379 472
379 488
379 495
379 548
379 560
379 566
379 624
379 626
379 628
379 642
379 645
379 687
379 699
379 716
379 722
379 775
379 798
379 801
379 806
379 818
379 823
379 825
379 827
379 843
379 844
379 845
379 856
380 437
380 553
380 656
380 657
380 678
380 876
381 553
381 657
381 666
381 678
381 756
381 791
381 869
381 876
382 389
382 504
382 526
382 540
382 552
382 637
382 671
383 541
383 553
383 586
383 607
383 610
383 612
383 653
383 657
383 676
383 729
383 850
383 859
383 862
383 866
384 757
385 505
385 702
385 764
386 387
386 426
386 520
386 535
386 553
386 554
386 579
386 607
386 657
386 666
386 678
386 688
386 694
386 791
386 820
386 826
386 835
386 854
386 855
386 860
386 862
386 864
386 876
386 889
387 590
387 661
387 689
387 729
388 435
388 553
388 641
388 657
388 666
388 678
388 816
388 864
388 876
389 494
389 504
389 583
389 587
389 637
389 671
389 725
389 805
389 808
390 457
391 428
391 450
391 454
391 470
391 492
391 496
391 501
391 503
391 504
391 515
391 526
391 540
391 547
391 552
391 583
391 585
391 587
391 588
391 601
391 618
391 637
391 646
391 652
391 663
391 674
391 683
391 692
391 695
391 696
391 708
391 711
391 725
391 742
391 767
391 783
391 792
391 807
391 808
391 813
391 842
391 848
391 868
392 658
393 517
393 553
393 561
393 653
393 657
393 778
393 797
393 862
393 864
394 541
394 813
395 469
395 476
395 553
395 657
395 678
395 688
395 831
395 873
395 876
396 712
397 428
397 450
397 470
397 492
397 504
397 526
397 540
397 552
397 569
397 583
397 585
397 637
397 696
397 711
397 725
397 788
397 792
397 808
397 868
398 603
398 636
398 706
399 553
399 641
399 657
399 666
399 678
399 745
399 864
399 876
400 408
400 440
400 442
400 453
400 460
400 472
400 488
400 495
400 560
400 566
400 624
400 626
400 628
400 642
400 645
400 687
400 699
400 722
400 775
400 798
400 806
400 818
400 823
400 827
400 843
400 844
400 845
400 856
401 553
401 657
401 666
401 678
401 745
401 835
401 864
401 876
402 657
402 673
403 511
403 553
403 657
403 678
403 712
403 835
403 862
403 876
405 511
405 553
405 678
405 862
405 863
405 876
406 553
406 641
406 657
406 666
406 678
406 709
406 756
406 864
406 869
406 876
407 553
407 657
407 678
407 835
407 876
408 440
408 442
408 453
408 460
408 472
408 488
408 495
408 560
408 566
408 624
408 626
408 628
408 642
408 645
408 687
408 699
408 722
408 775
408 798
408 801
408 806
408 818
408 823
408 827
408 843
408 844
408 845
408 856
409 461
409 553
409 554
409 785
410 415
410 620
410 651
410 880
410 882
410 885
411 457
411 472
411 529
411 636
411 673
411 843
412 558
412 565
412 700
412 768
413 427
413 657
413 747
414 765
414 831
415 513
415 530
415 542
415 608
415 681
415 821
415 858
415 881
415 885
416 553
416 600
416 641
416 657
416 666
416 678
416 745
416 864
416 876
417 448
417 619
417 627
417 762
417 814
418 470
418 492
418 504
418 549
418 569
418 583
418 585
418 652
418 663
418 696
418 711
418 725
418 742
418 763
418 808
418 848
418 868
419 553
419 657
420 553
420 657
420 678
420 876
421 435
421 553
421 593
421 657
421 678
421 876
422 492
422 504
422 526
422 552
422 692
422 783
423 577
423 598
423 616
423 657
423 678
423 705
423 718
423 840
423 862
423 864
424 455
424 645
424 765
424 797
424 806
425 553
425 678
425 863
425 876
426 469
426 657
426 678
426 688
426 694
426 820
426 862
427 611
427 646
427 657
427 760
427 805
428 450
428 454
428 470
428 492
428 496
428 501
428 503
428 504
428 515
428 526
428 540
428 547
428 552
428 569
428 583
428 587
428 588
428 601
428 618
428 637
428 646
428 652
428 663
428 674
428 683
428 695
428 696
428 708
428 711
428 725
428 742
428 767
428 792
428 807
428 808
428 842
428 848
428 868
429 553
429 657
429 678
429 712
429 876
430 602
431 700
431 738
432 553
432 579
432 598
432 657
432 666
432 678
432 745
432 862
432 864
432 870
432 876
433 503
433 504
433 540
433 556
433 572
433 587
433 637
433 663
433 707
433 711
433 725
433 766
433 792
433 794
433 813
433 872
434 805
435 510
435 553
435 593
435 596
435 657
435 678
435 749
435 816
435 834
435 839
435 852
435 864
435 873
435 876
436 541
437 656
437 693
438 476
438 554
438 598
438 631
438 733
438 746
439 761
440 442
440 453
440 460
440 472
440 488
440 495
440 560
440 566
440 624
440 626
440 628
440 642
440 645
440 687
440 699
440 716
440 722
440 744
440 775
440 798
440 806
440 818
440 823
440 827
440 843
440 844
440 845
440 856
441 772
442 453
442 460
442 472
442 488
442 495
442 560
442 566
442 624
442 626
442 628
442 642
442 645
442 687
442 699
442 722
442 775
442 798
442 806
442 818
442 823
442 825
442 827
442 843
442 844
442 845
442 856
443 860
444 657
444 880
445 602
445 732
445 770
446 534
446 657
447 479
447 509
447 669
447 744
447 806
447 861
448 456
448 619
448 762
448 814
449 553
449 657
450 454
450 470
450 492
450 496
450 501
450 503
450 504
450 515
450 526
450 540
450 547
450 552
450 569
450 583
450 585
450 587
450 588
450 601
450 618
450 637
450 646
450 652
450 663
450 674
450 683
450 692
450 695
450 696
450 704
450 708
450 711
450 725
450 742
450 747
450 767
450 792
450 807
450 808
450 842
450 848
450 868
451 738
451 765
451 784
452 464
452 491
453 460
453 472
453 488
453 495
453 560
453 566
453 624
453 626
453 628
453 642
453 645
453 687
453 699
453 722
453 775
453 798
453 806
453 818
453 823
453 827
453 843
453 844
453 845
453 856
454 470
454 492
454 496
454 501
454 503
454 504
454 515
454 526
454 540
454 547
454 552
454 583
454 587
454 588
454 601
454 618
454 637
454 646
454 652
454 663
454 674
454 683
454 695
454 696
454 708
454 711
454 725
454 742
454 767
454 788
454 792
454 807
454 808
454 817
454 832
454 842
454 848
454 868
455 560
455 644
455 797
459 739
460 472
460 488
460 495
460 560
460 566
460 624
460 626
460 628
460 642
460 645
460 669
460 687
460 699
460 716
460 722
460 744
460 760
460 775
460 798
460 801
460 806
460 818
460 823
460 825
460 827
460 843
460 844
460 845
460 856
461 657
461 667
461 749
461 773
461 862
462 545
462 657
462 830
462 877
463 786
463 865
464 491
464 557
464 571
465 553
465 656
465 657
465 678
465 835
465 876
466 529
466 613
466 636
467 553
467 657
467 797
467 874
468 592
468 685
468 698
468 709
468 717
468 864
469 688
469 694
470 492
470 496
470 501
470 503
470 504
470 515
470 526
470 540
470 547
470 549
470 552
470 574
470 583
470 585
470 587
470 588
470 601
470 618
470 637
470 646
470 652
470 663
470 674
470 683
470 695
470 696
470 708
470 711
470 725
470 742
470 766
470 767
470 792
470 807
470 808
470 813
470 817
470 842
470 848
470 868
471 839
472 479
472 488
472 495
472 560
472 566
472 624
472 626
472 628
472 642
472 645
472 648
472 687
472 699
472 716
472 722
472 744
472 760
472 775
472 798
472 801
472 806
472 818
472 823
472 825
472 827
472 843
472 844
472 845
472 856
473 553
473 656
473 657
473 678
473 876
474 646
474 783
474 868
475 500
475 625
475 653
475 657
475 676
475 797
475 862
475 867
475 874
476 553
476 657
476 678
476 873
476 876
477 545
477 553
477 657
477 678
477 864
477 869
477 876
478 498
478 563
479 570
479 646
479 806
479 851
479 861
480 487
480 554
480 586
480 657
480 659
481 636
481 647
481 853
482 489
482 553
482 657
482 678
482 876
483 553
483 572
483 574
483 646
483 692
483 716
483 792
483 805
483 872
484 553
484 657
484 678
484 727
484 773
484 864
484 876
485 529
485 565
485 606
485 636
485 672
485 700
485 768
486 648
486 716
486 775
486 798
486 806
486 818
486 827
487 657
487 864
488 495
488 560
488 566
488 624
488 626
488 628
488 642
488 645
488 687
488 699
488 722
488 775
488 798
488 806
488 818
488 823
488 827
488 843
488 844
488 845
488 856
490 516
490 690
490 771
490 790
491 557
492 496
492 501
492 503
492 504
492 515
492 547
492 549
492 569
492 583
492 585
492 601
492 646
492 652
492 663
492 696
492 711
492 725
492 726
492 742
492 763
492 767
492 792
492 807
492 808
492 811
492 848
493 507
493 657
493 678
493 734
494 540
494 587
494 637
494 671
494 707
494 725
494 805
495 560
495 566
495 624
495 626
495 628
495 642
495 645
495 687
495 699
495 716
495 722
495 775
495 779
495 798
495 806
495 818
495 823
495 827
495 843
495 844
495 845
495 856
496 501
496 503
496 504
496 515
496 526
496 540
496 547
496 549
496 552
496 569
496 570
496 583
496 585
496 601
496 618
496 629
496 637
496 652
496 663
496 674
496 683
496 695
496 704
496 711
496 725
496 742
496 747
496 767
496 792
496 807
496 808
496 842
496 848
496 851
496 861
496 868
497 672
498 591
500 525
500 607
500 653
500 676
500 678
500 797
500 867
501 503
501 504
501 515
501 526
501 540
501 547
501 552
501 583
501 585
501 587
501 588
501 601
501 618
501 637
501 646
501 652
501 663
501 674
501 683
501 695
501 696
501 708
501 711
501 725
501 742
501 767
501 792
501 807
501 808
501 842
501 848
501 868
502 765
503 504
503 515
503 526
503 540
503 547
503 552
503 583
503 585
503 587
503 588
503 601
503 618
503 637
503 646
503 652
503 663
503 674
503 683
503 695
503 696
503 704
503 708
503 711
503 725
503 742
503 767
503 792
503 794
503 807
503 808
503 828
503 842
503 848
503 868
504 515
504 526
504 540
504 547
504 552
504 556
504 569
504 583
504 585
504 587
504 588
504 601
504 618
504 629
504 637
504 646
504 652
504 655
504 663
504 674
504 683
504 692
504 695
504 696
504 707
504 708
504 711
504 725
504 726
504 736
504 742
504 766
504 767
504 792
504 794
504 805
504 807
504 808
504 811
504 813
504 817
504 842
504 848
504 868
505 531
505 537
505 602
506 539
506 584
506 590
506 862
507 678
507 796
508 581
508 599
508 603
508 636
509 582
509 748
510 553
510 657
510 678
510 718
510 864
510 876
511 662
511 678
511 712
511 863
512 543
512 564
512 581
512 599
512 603
512 630
512 633
512 636
512 743
512 777
512 846
513 530
513 542
513 608
513 681
513 821
513 858
513 881
513 885
514 553
514 561
514 598
514 705
514 850
514 864
514 878
515 526
515 540
515 547
515 552
515 583
515 587
515 588
515 601
515 618
515 637
515 646
515 652
515 663
515 674
515 683
515 692
515 695
515 696
515 708
515 711
515 725
515 742
515 766
515 767
515 792
515 807
515 808
515 813
515 842
515 848
515 851
515 868
516 771
517 553
517 586
517 607
517 653
518 806
518 843
519 537
520 553
520 657
520 678
520 854
520 862
520 876
521 654
521 734
521 759
522 740
522 877
523 553
523 656
523 657
523 678
523 876
524 849
525 612
525 657
525 676
525 749
525 850
525 854
525 862
526 540
526 547
526 552
526 569
526 583
526 587
526 588
526 601
526 618
526 637
526 646
526 652
526 663
526 674
526 683
526 695
526 696
526 708
526 711
526 725
526 726
526 742
526 767
526 792
526 794
526 807
526 808
526 813
526 842
526 848
526 868
527 553
527 657
527 678
527 862
527 873
527 876
528 553
528 657
528 666
528 678
528 745
528 864
528 876
529 636
529 739
529 740
529 884
530 542
530 582
530 608
530 681
530 821
530 858
530 881
530 885
533 553
533 641
533 657
533 666
533 678
533 745
533 864
533 876
534 765
535 657
535 678
535 854
535 876
536 553
536 705
536 840
536 864
536 870
536 871
537 657
537 761
537 765
537 772
538 657
538 776
539 553
539 561
539 584
539 657
539 678
539 720
539 873
539 876
540 547
540 552
540 556
540 572
540 574
540 583
540 587
540 588
540 601
540 611
540 618
540 629
540 637
540 646
540 652
540 663
540 671
540 674
540 683
540 695
540 696
540 704
540 707
540 708
540 711
540 725
540 726
540 742
540 747
540 766
540 767
540 783
540 788
540 792
540 794
540 805
540 807
540 808
540 811
540 813
540 817
540 832
540 842
540 848
540 868
540 872
540 888
542 608
542 681
542 821
542 858
542 881
542 885
543 581
543 599
543 603
543 630
543 633
543 636
543 647
543 743
543 777
543 846
544 617
544 657
544 669
547 552
547 583
547 585
547 587
547 588
547 601
547 618
547 637
547 646
547 652
547 663
547 674
547 683
547 695
547 696
547 708
547 711
547 725
547 742
547 767
547 792
547 807
547 808
547 842
547 848
547 868
548 599
548 626
548 636
549 569
549 572
549 583
549 585
549 618
549 671
549 674
549 696
549 742
549 763
549 813
550 786
550 865
551 553
551 657
551 678
551 773
551 876
552 569
552 583
552 587
552 588
552 601
552 618
552 637
552 646
552 652
552 663
552 674
552 683
552 695
552 696
552 708
552 711
552 725
552 726
552 742
552 767
552 792
552 807
552 808
552 813
552 832
552 842
552 848
552 868
553 559
553 562
553 567
553 568
553 575
553 577
553 578
553 586
553 593
553 596
553 604
553 610
553 614
553 616
553 625
553 635
553 653
553 656
553 657
553 659
553 662
553 664
553 665
553 670
553 676
553 678
553 680
553 682
553 684
553 697
553 705
553 712
553 714
553 721
553 734
553 745
553 746
553 750
553 753
553 756
553 759
553 769
553 771
553 773
553 774
553 776
553 785
553 787
553 793
553 795
553 799
553 810
553 812
553 816
553 826
553 833
553 834
553 836
553 840
553 841
553 847
553 850
553 852
553 854
553 855
553 857
553 860
553 863
553 866
553 869
553 870
553 873
553 874
553 876
553 879
553 883
554 586
554 598
554 607
554 631
554 733
556 587
556 637
556 652
556 683
556 692
556 704
556 708
556 725
556 760
556 794
556 807
556 808
556 872
557 571
557 599
557 636
558 565
558 606
558 700
559 657
559 678
559 712
559 864
559 876
560 566
560 624
560 626
560 628
560 642
560 645
560 687
560 699
560 716
560 722
560 775
560 798
560 806
560 818
560 823
560 825
560 827
560 843
560 844
560 845
560 856
561 610
561 657
561 873
561 878
562 641
562 657
562 666
562 678
562 745
562 876
563 701
564 581
564 599
564 603
564 630
564 633
564 636
564 777
564 786
564 846
565 606
565 660
565 672
565 691
565 703
565 768
566 624
566 626
566 628
566 642
566 645
566 687
566 699
566 722
566 775
566 798
566 806
566 818
566 823
566 827
566 843
566 844
566 845
566 856
567 657
567 678
567 712
567 876
568 656
568 657
568 678
568 862
568 876
569 583
569 587
569 637
569 663
569 696
569 708
569 711
569 725
569 763
569 767
569 792
569 808
569 868
570 646
570 692
570 696
570 725
570 851
570 861
572 574
572 583
572 585
572 587
572 588
572 618
572 637
572 646
572 652
572 671
572 674
572 692
572 708
572 711
572 725
572 794
572 805
572 807
572 808
572 813
573 765
574 585
574 618
574 637
574 646
574 652
574 674
574 696
574 711
574 725
574 794
574 805
574 807
574 808
574 813
575 589
575 615
575 657
575 676
575 678
575 787
575 815
577 657
577 718
577 864
578 657
578 678
578 721
578 745
578 864
578 876
579 596
579 610
579 641
579 659
579 791
579 835
579 862
579 889
581 599
581 603
581 630
581 633
581 636
581 647
581 743
581 751
581 777
581 786
581 846
583 585
583 587
583 588
583 601
583 618
583 637
583 646
583 652
583 655
583 663
583 674
583 683
583 692
583 695
583 696
583 704
583 708
583 711
583 725
583 742
583 767
583 783
583 792
583 794
583 807
583 808
583 813
583 842
583 848
583 868
583 872
585 601
585 618
585 652
585 674
585 696
585 742
585 767
585 794
585 813
585 848
586 657
586 773
586 862
587 601
587 618
587 637
587 652
587 655
587 663
587 674
587 683
587 695
587 696
587 711
587 742
587 767
587 792
587 805
587 807
587 808
587 813
587 842
587 848
587 868
588 601
588 618
588 637
588 652
588 663
588 674
588 683
588 695
588 696
588 704
588 711
588 725
588 742
588 767
588 788
588 792
588 808
588 813
588 817
588 842
588 848
588 868
589 653
589 657
589 676
589 757
589 874
590 657
590 661
590 689
590 729
592 749
592 864
593 657
593 678
593 835
593 876
594 631
594 657
594 862
595 658
595 677
595 800
595 803
595 804
596 657
596 666
596 678
596 685
596 876
597 660
598 607
598 631
598 657
598 666
598 678
598 685
598 698
598 717
598 733
598 749
598 864
599 603
599 630
599 633
599 636
599 647
599 716
599 724
599 743
599 777
599 786
599 846
600 678
600 745
600 864
601 618
601 629
601 637
601 646
601 652
601 663
601 674
601 683
601 695
601 696
601 708
601 711
601 725
601 742
601 767
601 792
601 807
601 808
601 842
601 848
601 851
601 868
602 605
602 622
602 649
602 657
602 730
602 731
602 732
602 741
602 755
602 770
602 781
602 782
602 819
603 630
603 633
603 636
603 647
603 706
603 724
603 743
603 751
603 777
603 846
604 614
604 678
604 862
605 730
605 732
605 741
605 782
605 819
606 672
606 768
607 657
607 673
607 678
607 685
607 717
607 718
607 733
607 862
607 864
608 681
608 821
608 858
608 881
608 885
609 691
609 703
609 864
610 611
610 614
610 641
610 678
610 680
610 791
610 797
610 815
610 826
610 835
610 862
610 864
610 876
610 889
611 657
611 678
611 760
611 797
611 805
612 657
612 785
613 657
614 654
614 678
614 815
614 876
616 657
616 864
617 657
618 637
618 646
618 652
618 663
618 671
618 674
618 683
618 695
618 696
618 707
618 708
618 711
618 725
618 736
618 742
618 767
618 792
618 794
618 807
618 808
618 813
618 838
618 842
618 848
618 868
619 762
619 814
620 806
621 840
621 864
622 819
623 869
624 626
624 628
624 642
624 645
624 687
624 699
624 716
624 722
624 775
624 798
624 806
624 818
624 823
624 827
624 843
624 844
624 845
624 856
625 656
625 657
625 678
625 797
625 862
625 876
626 628
626 642
626 645
626 648
626 669
626 687
626 699
626 716
626 722
626 760
626 775
626 798
626 806
626 818
626 823
626 827
626 843
626 844
626 845
626 856
627 672
627 715
627 730
627 735
628 642
628 645
628 687
628 699
628 722
628 744
628 760
628 775
628 798
628 806
628 818
628 823
628 827
628 843
628 844
628 845
628 856
629 637
629 646
629 652
629 696
629 707
629 747
629 767
629 783
629 808
629 811
629 832
630 633
630 636
630 647
630 706
630 743
630 777
630 846
631 657
631 733
633 636
633 647
633 743
633 751
633 777
633 846
634 657
634 831
634 839
634 864
634 873
635 657
635 662
635 678
635 876
636 647
636 669
636 706
636 716
636 724
636 740
636 743
636 751
636 777
636 786
636 846
636 853
637 646
637 652
637 655
637 663
637 671
637 674
637 683
637 695
637 696
637 704
637 708
637 711
637 725
637 736
637 742
637 744
637 767
637 792
637 794
637 805
637 807
637 808
637 813
637 828
637 842
637 848
637 868
637 872
638 779
638 886
639 864
640 740
640 824
641 662
641 665
641 684
641 697
641 791
641 835
641 862
641 889
642 645
642 669
642 687
642 699
642 722
642 744
642 760
642 775
642 798
642 806
642 818
642 823
642 827
642 843
642 844
642 845
642 856
643 651
643 885
644 744
645 687
645 699
645 722
645 744
645 775
645 798
645 806
645 818
645 823
645 827
645 843
645 844
645 845
645 856
646 652
646 663
646 669
646 674
646 683
646 692
646 695
646 696
646 704
646 711
646 725
646 726
646 742
646 744
646 766
646 767
646 783
646 792
646 794
646 805
646 807
646 808
646 813
646 817
646 828
646 832
646 842
646 848
646 868
646 872
646 888
647 724
647 743
647 777
647 846
647 853
648 716
648 779
648 798
648 806
648 818
648 825
648 843
649 781
649 819
650 796
651 885
652 663
652 674
652 683
652 695
652 696
652 704
652 708
652 711
652 725
652 742
652 767
652 792
652 794
652 807
652 808
652 813
652 842
652 848
652 868
653 676
653 797
653 815
653 850
653 867
654 680
654 713
654 734
654 810
654 831
654 833
654 839
655 671
655 725
655 805
655 817
656 657
656 664
656 678
656 682
656 693
656 841
656 847
656 866
656 873
656 876
657 659
657 661
657 662
657 664
657 665
657 666
657 667
657 670
657 675
657 676
657 678
657 680
657 682
657 684
657 685
657 686
657 697
657 705
657 709
657 712
657 713
657 714
657 719
657 720
657 721
657 729
657 733
657 734
657 737
657 745
657 746
657 749
657 750
657 753
657 754
657 756
657 759
657 771
657 773
657 774
657 776
657 778
657 785
657 787
657 789
657 793
657 795
657 797
657 799
657 809
657 812
657 815
657 816
657 826
657 829
657 831
657 834
657 836
657 841
657 847
657 850
657 852
657 854
657 859
657 860
657 862
657 864
657 866
657 867
657 869
657 870
657 873
657 874
657 876
657 877
657 878
657 880
657 881
657 883
658 669
658 677
658 800
658 803
658 804
658 851
659 678
659 876
661 689
661 729
662 678
662 876
663 674
663 683
663 695
663 696
663 704
663 708
663 711
663 725
663 742
663 767
663 788
663 792
663 807
663 808
663 832
663 842
663 848
663 868
663 872
664 678
664 862
664 876
665 666
665 678
665 745
665 864
665 876
666 684
666 697
666 721
666 749
666 756
666 774
666 816
666 834
666 864
667 693
667 847
668 761
669 744
669 760
669 805
669 806
669 809
669 843
670 678
670 698
670 745
670 864
670 876
671 674
671 707
671 708
671 726
671 766
671 788
671 805
671 808
671 811
671 813
671 817
671 888
673 831
673 864
674 683
674 695
674 696
674 708
674 711
674 725
674 742
674 767
674 792
674 794
674 807
674 808
674 813
674 842
674 848
674 868
675 719
676 815
676 850
676 867
676 874
677 800
677 803
677 804
678 680
678 682
678 684
678 685
678 688
678 697
678 712
678 714
678 718
678 721
678 734
678 740
678 745
678 746
678 749
678 750
678 753
678 756
678 759
678 769
678 771
678 774
678 776
678 785
678 789
678 793
678 795
678 797
678 799
678 812
678 815
678 816
678 820
678 826
678 829
678 834
678 836
678 841
678 847
678 852
678 854
678 855
678 857
678 860
678 862
678 863
678 864
678 866
678 869
678 870
678 873
678 876
678 879
678 883
679 704
679 861
680 876
681 821
681 858
681 881
681 885
682 876
683 695
683 696
683 708
683 711
683 725
683 742
683 760
683 767
683 788
683 792
683 807
683 808
683 842
683 848
683 868
684 745
684 864
684 876
685 698
685 709
685 717
685 745
685 839
685 864
687 699
687 722
687 775
687 798
687 806
687 818
687 823
687 827
687 843
687 844
687 845
687 856
688 694
688 820
688 873
688 876
689 729
690 771
691 703
692 707
692 725
692 742
692 766
692 788
692 792
692 807
692 808
692 811
692 817
692 868
692 872
693 752
693 754
694 876
695 696
695 707
695 708
695 711
695 725
695 742
695 767
695 783
695 792
695 807
695 808
695 842
695 848
695 868
696 704
696 708
696 711
696 725
696 742
696 747
696 767
696 792
696 807
696 808
696 842
696 848
696 851
696 861
696 868
697 745
697 864
697 876
698 709
698 717
698 749
698 756
698 864
699 722
699 775
699 798
699 806
699 818
699 823
699 825
699 827
699 843
699 844
699 845
699 856
700 768
702 764
704 711
704 742
704 783
704 805
704 807
704 832
704 861
704 872
705 718
705 840
705 850
705 864
705 871
707 744
707 766
707 788
707 805
707 811
707 817
707 888
708 711
708 725
708 742
708 767
708 792
708 807
708 813
708 828
708 842
708 848
708 868
709 717
709 864
711 725
711 736
711 742
711 747
711 767
711 783
711 788
711 792
711 794
711 805
711 807
711 808
711 813
711 817
711 842
711 848
711 868
711 872
712 734
712 789
712 862
712 873
712 876
713 864
714 864
714 869
714 876
715 730
715 735
716 775
716 798
716 801
716 806
716 818
716 844
717 864
718 864
721 864
721 876
721 889
722 760
722 775
722 798
722 806
722 818
722 823
722 827
722 843
722 844
722 845
722 856
723 779
723 886
724 751
724 777
724 786
725 742
725 744
725 767
725 783
725 792
725 805
725 807
725 808
725 813
725 817
725 842
725 848
725 868
725 872
726 805
726 832
727 769
728 864
729 862
730 732
730 735
730 741
730 782
730 819
731 755
731 819
732 741
732 782
732 819
734 862
734 876
736 792
736 805
736 813
737 862
738 784
739 884
740 825
741 782
741 819
742 767
742 792
742 794
742 807
742 808
742 813
742 828
742 842
742 848
742 868
743 751
743 777
743 846
744 807
744 808
744 843
745 749
745 795
745 826
745 864
745 870
745 876
746 873
746 876
747 766
747 783
747 788
747 807
747 813
747 817
747 832
747 888
749 773
749 862
749 864
749 869
750 835
750 876
753 835
753 876
756 835
756 864
756 869
756 876
759 815
759 850
759 862
759 873
759 876
759 882
760 783
760 805
760 806
760 807
760 818
760 843
760 872
762 814
766 805
766 817
766 888
767 792
767 807
767 808
767 842
767 848
767 868
769 876
771 785
771 795
771 876
773 860
773 864
774 835
774 864
774 869
774 876
774 878
775 798
775 806
775 818
775 823
775 827
775 843
775 844
775 845
775 856
776 785
776 862
776 876
777 786
777 846
777 865
779 886
779 888
782 819
783 805
783 807
783 813
783 832
785 799
785 873
785 876
786 865
788 792
788 807
788 811
788 817
788 872
788 888
791 834
791 835
791 862
791 889
792 794
792 805
792 807
792 808
792 813
792 817
792 842
792 848
792 868
792 872
793 835
793 876
794 807
794 808
794 813
794 828
794 842
794 868
794 888
795 826
795 876
796 864
797 815
797 867
797 874
798 801
798 806
798 818
798 823
798 827
798 843
798 844
798 845
798 856
799 862
799 873
799 876
800 803
800 804
801 806
801 818
801 825
801 843
801 845
801 872
802 859
803 804
805 817
805 853
805 872
805 888
806 818
806 823
806 825
806 827
806 843
806 844
806 845
806 853
806 856
807 808
807 813
807 817
807 832
807 842
807 848
807 868
808 813
808 828
808 842
808 848
808 868
808 872
809 849
810 833
811 888
812 864
812 869
812 876
813 838
813 868
815 874
816 835
816 864
816 876
817 872
818 823
818 825
818 827
818 843
818 844
818 845
818 856
819 875
820 831
820 862
820 876
821 858
821 881
821 885
823 827
823 843
823 844
823 845
823 856
825 843
825 856
825 862
826 876
827 843
827 844
827 845
827 856
831 839
831 864
831 874
832 872
834 876
835 836
835 862
835 879
835 889
836 876
839 864
840 850
840 864
840 871
841 873
841 876
842 848
842 868
843 844
843 845
843 856
844 845
844 856
845 856
847 876
848 868
850 854
850 862
851 861
852 864
852 876
854 862
854 876
855 860
855 862
855 876
857 876
857 879
858 881
858 885
859 874
860 862
860 876
861 887
862 876
862 878
862 879
862 889
863 876
864 869
864 870
864 872
866 876
868 872
869 873
869 876
869 883
873 876
873 883
876 879
876 883
881 885
