0 101
0 122
1 27
1 57
1 120
2 75
2 130
3 57
3 66
3 83
3 97
3 146
4 24
4 176
5 10
5 53
5 57
5 135
5 154
5 162
5 176
6 101
6 109
6 122
6 149
7 12
7 57
8 20
8 28
8 65
8 101
8 109
8 122
8 158
8 161
9 148
10 73
10 142
10 154
10 166
11 57
13 48
13 67
13 150
14 57
15 57
16 57
17 57
18 57
18 96
19 103
20 47
20 101
20 109
20 158
21 28
21 41
21 85
21 147
21 180
22 44
22 92
22 135
23 62
23 171
24 28
24 47
24 57
24 68
24 84
24 139
24 159
25 30
25 75
26 57
26 78
27 74
27 91
27 97
28 47
28 84
29 57
29 179
30 57
30 66
30 67
30 146
31 57
31 158
32 57
33 51
33 57
34 57
35 79
36 151
37 57
38 169
38 176
39 66
40 57
41 57
41 66
41 67
42 57
42 164
43 57
43 95
43 104
44 134
45 57
46 57
46 176
48 157
49 66
49 67
49 146
50 57
50 171
52 53
53 57
53 92
54 63
55 57
56 104
57 58
57 59
57 60
57 61
57 68
57 71
57 72
57 74
57 76
57 77
57 80
57 81
57 82
57 84
57 86
57 88
57 89
57 90
57 95
57 96
57 98
57 99
57 100
57 103
57 104
57 105
57 106
57 107
57 108
57 109
57 110
57 112
57 113
57 114
57 116
57 119
57 123
57 124
57 127
57 128
57 131
57 132
57 135
57 141
57 144
57 145
57 147
57 148
57 153
57 154
57 155
57 156
57 157
57 158
57 160
57 163
57 164
57 165
57 168
57 170
57 174
57 175
57 176
57 177
57 178
57 182
62 118
63 137
63 167
63 176
64 135
65 158
66 75
66 130
66 133
66 144
66 146
66 150
67 89
67 140
67 148
67 165
67 181
69 83
69 93
69 138
69 171
70 96
72 121
72 172
75 146
77 125
77 175
78 143
79 104
82 94
82 102
83 93
83 103
83 129
83 164
83 174
87 174
89 150
92 171
93 110
93 129
93 138
93 171
93 174
93 180
96 121
96 173
97 118
97 152
97 165
99 105
99 115
99 155
99 168
101 109
101 122
109 122
110 150
111 116
117 181
118 138
118 177
120 153
120 160
125 175
126 174
129 138
129 171
130 146
133 146
136 159
137 167
137 169
137 176
138 164
140 149
145 176
146 150
147 151
147 158
148 149
149 165
153 160
153 176
154 162
155 168
167 176
