0 1
0 218
0 254
0 301
0 819
0 850
0 1078
0 1263
0 1597
0 1627
0 2071
0 2378
0 2472
0 2568
0 2587
0 2605
0 2688
0 2702
0 2736
0 2761
0 2950
0 2993
0 3049
0 3062
0 3233
0 3348
0 3513
0 3547
0 3815
0 3890
0 4548
0 5119
0 5358
2 3
2 718
2 1068
2 1175
2 1742
3 4
3 5
3 6
3 7
3 8
3 9
3 10
3 11
3 12
3 13
3 14
3 15
3 16
3 17
4 2544
4 4024
5 376
5 4415
6 189
6 399
6 453
6 816
6 2515
6 4742
7 549
7 982
7 997
7 1195
7 1529
7 1565
7 2126
7 2215
7 2421
7 3077
7 3089
7 3400
7 3404
7 3523
7 4613
8 54
8 211
8 326
8 456
8 485
8 594
8 682
8 765
8 866
8 946
8 1042
8 1078
8 1171
8 1375
8 1434
8 1534
8 1548
8 1658
8 1849
8 1988
8 2056
8 2251
8 2383
8 2845
8 3117
8 3120
8 3314
8 3320
8 3552
8 3573
8 3675
8 3891
8 3973
8 3974
8 3995
8 4209
8 4262
8 4374
8 4378
8 4440
8 4690
8 4708
8 4969
8 5232
8 5457
8 5458
8 5633
8 5686
9 203
9 731
9 839
9 986
9 1081
9 1231
9 1676
9 1717
9 1781
9 1813
9 2115
9 2186
9 2201
9 2515
9 2519
9 2653
9 2750
9 3287
9 3366
9 3465
9 3471
9 3523
9 3633
9 3646
9 3730
9 3766
9 4026
9 4233
9 4269
9 4285
9 4615
9 4616
9 4949
9 4988
9 5053
9 5086
9 5095
9 5325
9 5330
12 860
14 3995
14 5721
15 159
15 203
15 438
15 472
15 576
15 628
15 696
15 785
15 1171
15 1218
15 1359
15 1433
15 1601
15 1645
15 1678
15 1906
15 2217
15 2383
15 2975
15 3621
15 3658
15 3675
15 3998
15 4421
15 5043
16 456
16 752
16 801
16 1565
16 1818
16 1916
16 2424
16 3010
16 4063
16 4253
16 4815
16 5184
16 5544
16 5864
17 163
17 1045
17 1076
17 1089
17 1379
17 1629
17 2574
17 2581
17 2587
17 2710
17 2986
17 3177
17 3187
17 3248
17 3305
17 3470
17 3532
17 3573
17 4596
17 4613
17 4663
17 4813
17 4926
17 5148
17 5216
17 5783
18 19
18 123
18 225
18 256
18 257
18 270
18 293
18 295
18 353
18 418
18 481
18 524
18 549
18 620
18 698
18 718
18 847
18 866
18 976
18 978
18 991
18 1004
18 1091
18 1152
18 1157
18 1181
18 1186
18 1224
18 1281
18 1308
18 1339
18 1379
18 1398
18 1500
18 1528
18 1563
18 1579
18 1597
18 1601
18 1630
18 1652
18 1653
18 1708
18 1717
18 1788
18 1808
18 1810
18 1882
18 1906
18 1918
18 1944
18 1993
18 2087
18 2100
18 2247
18 2285
18 2368
18 2407
18 2522
18 2544
18 2558
18 2571
18 2578
18 2593
18 2605
18 2665
18 2695
18 2699
18 2710
18 2736
18 2743
18 2761
18 2864
18 2894
18 2910
18 2925
18 2936
18 2959
18 3038
18 3059
18 3062
18 3091
18 3116
18 3152
18 3177
18 3191
18 3220
18 3269
18 3272
18 3306
18 3435
18 3440
18 3470
18 3512
18 3530
18 3592
18 3621
18 3671
18 3673
18 3724
18 3765
18 3865
18 3929
18 3974
18 3979
18 3987
18 4026
18 4034
18 4177
18 4378
18 4405
18 4444
18 4537
18 4748
18 4839
18 4949
18 4994
18 4998
18 5034
18 5036
18 5284
18 5305
18 5373
18 5760
19 20
19 21
19 22
19 23
19 24
19 25
19 26
19 27
19 28
19 29
20 456
20 549
20 1135
20 1356
20 2124
20 2173
20 2265
20 2486
20 2562
20 2593
20 2607
20 2658
20 3493
20 3781
20 4253
20 4542
20 4740
20 4744
20 4814
20 5101
21 1572
22 2131
22 2136
22 2487
22 2593
22 2766
22 2826
22 3411
22 3509
22 3659
22 3795
24 119
24 2981
24 5117
25 3391
26 3809
27 99
27 361
27 515
27 575
27 576
27 671
27 684
27 841
27 924
27 949
27 1181
27 1263
27 1275
27 1379
27 1460
27 1569
27 1597
27 1836
27 1882
27 2037
27 2087
27 2164
27 2271
27 2515
27 2612
27 2733
27 3017
27 3039
27 3225
27 3671
27 3754
27 3890
27 4151
27 4187
27 4347
27 4383
27 5036
27 5055
27 5190
27 5321
28 1333
28 1933
28 2005
28 2156
28 2355
28 2587
28 2607
28 2735
28 3553
28 4998
28 5527
30 31
30 1548
30 1562
30 1600
30 1788
30 1917
30 2115
30 2634
30 2824
30 3014
30 3903
30 4435
30 5119
30 5613
30 5672
32 33
32 353
32 731
32 906
32 946
32 1475
32 1555
32 1622
32 2472
32 3489
32 3626
32 3888
32 4135
32 4269
32 4503
32 5832
33 34
33 35
33 36
33 37
33 38
34 2469
34 2491
34 2623
34 2626
34 3693
34 4229
35 1251
35 1478
35 2290
35 2333
35 5118
35 5358
36 342
37 1788
37 2558
37 2893
37 5583
38 549
38 1906
38 2115
38 2360
38 4341
39 40
39 90
39 201
39 222
39 866
39 1108
39 1135
39 1209
39 1219
39 1329
39 1359
39 1548
39 2098
39 2323
39 2671
39 2981
39 3058
39 3193
39 3444
39 3464
39 3645
39 3675
39 3878
39 4018
39 4175
39 4266
39 4286
39 4383
39 4748
39 4860
39 5264
39 5366
39 5858
39 5871
39 5880
40 41
40 42
41 832
41 946
41 1081
41 1186
41 1231
41 1321
41 1398
41 3804
42 638
42 841
42 986
42 1081
42 1186
42 1200
42 1538
42 1838
42 2653
42 2839
42 3596
42 4141
42 4319
42 4789
42 4998
42 5109
42 5702
43 44
43 65
43 295
43 718
43 885
43 1013
43 1020
43 1081
43 1485
43 2212
43 2574
43 2593
43 2822
43 2910
43 3668
43 5273
43 5651
44 45
45 456
45 664
45 801
45 897
45 1003
45 1168
45 1280
45 1601
45 1650
45 1747
45 2012
45 2271
45 2497
45 2544
45 2699
45 2780
45 2910
45 2970
45 3011
45 3626
45 3716
45 4034
45 4769
45 4789
45 5207
46 47
46 1600
46 2776
46 3385
46 3619
46 3837
46 3948
46 3978
46 5847
47 48
47 49
47 50
47 51
47 52
48 2244
48 2635
48 2670
48 3876
48 4092
49 910
49 1219
49 1308
49 1670
49 1706
49 1960
49 2037
49 2047
49 2148
49 2233
49 3007
49 3225
49 3404
49 3855
49 4031
49 5097
49 5338
49 5839
50 515
50 647
50 763
50 785
50 847
50 1012
50 1025
50 1156
50 1183
50 1281
50 1600
50 1727
50 2128
50 2170
50 2318
50 2432
50 2618
50 2980
50 3297
50 3301
50 3730
50 3783
50 4281
50 4698
50 5038
50 5206
50 5366
50 5444
50 5671
50 5776
52 492
52 1135
52 1223
52 1378
52 1398
52 1659
52 1906
52 2261
52 2271
52 2639
52 2788
52 2839
52 3467
52 3515
52 3675
52 5183
52 5366
53 54
53 910
53 1972
53 2292
53 2511
53 2547
53 2549
53 2780
53 3582
53 4333
53 4424
53 4555
53 4868
53 5320
53 5552
53 5759
54 55
54 56
54 57
54 58
54 59
54 60
54 61
54 62
54 63
55 310
55 638
57 576
57 3792
58 5016
59 5220
60 671
60 3125
60 4074
64 65
64 235
64 483
64 1051
64 3037
64 3247
64 3426
64 3469
64 3848
64 5736
65 66
65 67
65 68
65 69
65 70
65 71
65 72
66 2497
66 2634
66 2948
66 3866
66 5207
67 527
67 816
67 1076
67 1223
67 1616
67 1787
67 2054
67 2405
67 2636
67 2733
67 2757
67 2834
67 2865
67 2963
67 3048
67 3054
67 3196
67 3962
67 3978
67 4289
67 4324
67 4347
67 4370
67 4826
67 4846
67 5262
67 5298
67 5320
67 5499
67 5530
67 5666
68 301
68 1004
68 1078
68 1950
68 2593
68 5036
69 594
69 962
69 1737
69 4010
69 4829
69 5095
69 5827
70 594
70 1013
70 2920
70 4307
70 4333
70 4792
70 5366
71 653
71 736
71 1118
71 1341
71 1478
71 1485
71 1948
71 2323
71 2602
71 2653
71 2695
71 2719
71 2820
71 2868
71 3357
71 3848
71 4356
71 4503
71 5007
71 5165
71 5273
71 5399
71 5716
72 4624
72 4803
72 4815
72 4970
72 5807
73 74
75 76
75 3331
75 3451
75 4937
77 78
77 90
77 1615
77 2910
77 2921
77 4356
77 4523
77 5385
78 79
78 80
78 81
79 346
79 924
79 1013
79 1999
79 2186
79 3500
79 4006
81 594
81 841
81 1087
81 2190
81 5253
82 83
82 569
82 4832
82 5431
84 85
84 2493
84 4302
86 87
86 225
86 763
86 1251
86 1478
86 1565
86 2052
86 2061
86 2195
86 2237
86 2297
86 2723
86 3062
86 3301
86 3462
86 3621
86 3742
86 3782
86 3946
86 4792
86 4909
86 4994
86 5408
86 5583
86 5742
87 88
87 89
88 2076
88 2765
88 2979
88 3621
88 5553
88 6394
89 144
89 225
89 431
89 500
89 570
89 628
89 631
89 638
89 664
89 690
89 733
89 780
89 841
89 924
89 982
89 1013
89 1060
89 1164
89 1186
89 1195
89 1231
89 1303
89 1379
89 1467
89 1478
89 1512
89 1518
89 1528
89 1537
89 1565
89 1597
89 1624
89 1707
89 1788
89 1807
89 1882
89 1906
89 2026
89 2115
89 2126
89 2204
89 2217
89 2227
89 2248
89 2251
89 2262
89 2303
89 2388
89 2402
89 2424
89 2578
89 2606
89 2612
89 2662
89 2693
89 2719
89 2721
89 2783
89 2786
89 2811
89 2893
89 2946
89 3077
89 3270
89 3433
89 3481
89 3487
89 3489
89 3509
89 3654
89 3684
89 3727
89 3855
89 3887
89 4164
89 4389
89 4391
89 4444
89 4705
89 4750
89 4978
89 5036
89 5113
89 5116
89 5190
89 5264
89 5268
89 5352
89 5366
89 5479
89 5721
89 6108
91 92
91 413
91 576
91 1219
91 1538
91 1783
91 2244
91 2541
91 2602
91 2636
91 2752
91 2780
91 2977
91 3067
91 3125
91 3189
91 3505
91 3609
91 3827
91 3833
91 3979
91 4079
91 4085
91 4198
91 4280
91 5023
91 5746
93 94
93 392
93 536
93 1239
93 1302
93 1600
93 2128
93 2189
93 2195
93 2227
93 2336
93 3089
93 3487
93 3617
93 3912
93 3926
93 3957
93 4088
93 4185
93 4284
93 4363
93 4994
93 5256
94 95
94 96
96 1280
96 2796
96 4752
97 98
99 100
99 101
99 102
99 103
99 104
101 1181
101 1713
101 2790
101 4111
101 5596
103 1950
103 2733
103 4633
104 413
104 1478
104 1783
104 2368
104 2790
104 5778
105 106
105 3166
106 107
106 108
106 109
108 413
108 733
108 832
108 906
108 1579
108 1904
108 2368
108 2593
108 2636
108 2889
108 3440
108 3979
108 4731
108 5264
109 509
109 1500
109 1752
109 1863
109 2631
109 2765
109 3658
109 3891
109 4256
109 5028
109 5364
110 111
110 814
110 2052
110 2385
110 2432
110 2474
110 2704
110 2769
110 5420
110 5537
112 113
112 467
112 536
112 763
112 1068
112 1302
112 1637
112 1776
112 2051
112 2322
112 2797
112 2890
112 3462
112 4209
112 4215
112 4819
112 4943
112 5824
113 114
113 115
113 116
113 117
115 392
115 984
115 1333
115 1580
115 1600
115 1717
115 1993
115 2164
115 2456
115 3066
115 3305
115 3357
115 3481
115 3609
115 3621
115 3624
115 3725
115 3742
115 3864
115 3980
115 4014
115 4185
115 4658
115 4736
115 4933
115 5250
115 5408
115 5414
116 181
116 1870
116 2472
116 3071
116 3853
118 119
118 2433
118 2574
118 3017
118 3879
119 120
119 121
119 122
120 1253
120 3229
120 3301
120 4086
120 4131
120 5365
121 2712
121 2899
121 4472
121 4526
121 4958
122 139
122 165
122 323
122 340
122 392
122 647
122 893
122 1053
122 1223
122 1543
122 1670
122 1678
122 1679
122 1783
122 2041
122 2284
122 2460
122 2618
122 2671
122 3007
122 3430
122 3491
122 3618
122 3782
122 4000
122 4137
122 4151
122 4251
122 4261
122 4542
122 4596
122 4654
122 4862
122 4994
122 5008
122 5289
122 5440
122 5703
123 124
123 125
123 126
123 127
123 128
124 635
124 638
124 2079
124 3125
125 301
125 600
125 841
125 1013
125 1321
125 1333
125 1810
125 2147
125 2587
125 2865
125 3493
125 3768
125 4057
125 4111
125 5832
126 203
126 2052
127 4949
127 5358
128 733
128 1142
128 1558
128 1641
128 2115
128 2574
128 2893
128 3077
128 3682
128 4844
128 6108
129 130
129 1810
129 2407
130 131
130 132
130 133
131 301
131 594
131 616
131 839
131 1011
131 1113
131 1200
131 1253
131 1263
131 1508
131 1589
131 1941
131 2193
131 2252
131 2285
131 2323
131 2431
131 2512
131 2572
131 2683
131 2894
131 2902
131 2977
131 3079
131 3241
131 3434
131 3697
131 3702
131 3866
131 4049
131 4236
131 4391
131 4423
131 4667
131 4828
131 4970
131 5207
131 5344
131 5358
131 5408
131 5486
132 1944
132 2328
132 2612
132 3428
133 653
133 821
133 1437
133 1467
133 1610
133 2486
133 2702
133 2858
133 3292
133 3462
133 4676
133 5183
133 5232
133 5358
133 5527
134 135
134 1314
134 1543
134 2013
134 2030
134 2076
134 2087
134 2388
134 2654
134 3439
134 3616
134 5167
134 5404
134 5553
135 136
135 137
136 328
136 2424
137 1246
137 1695
137 1834
138 139
139 140
139 141
139 142
140 5100
141 1370
141 1776
141 3098
141 5082
142 3097
142 3105
142 3390
142 3922
142 5110
142 5808
143 144
143 2315
143 4811
144 145
145 576
145 692
145 797
145 819
145 1078
145 1386
145 1478
145 1658
145 2076
145 2092
145 2456
145 2684
145 2695
145 2753
145 2973
145 3272
145 3470
145 3536
145 3779
145 3814
145 3980
145 4018
145 4494
145 4503
145 4658
145 4789
145 4899
145 5207
145 5450
145 5659
146 147
146 181
146 203
146 235
146 259
146 286
146 456
146 470
146 502
146 511
146 576
146 591
146 714
146 718
146 765
146 793
146 805
146 839
146 850
146 873
146 936
146 1012
146 1013
146 1076
146 1107
146 1118
146 1159
146 1189
146 1223
146 1303
146 1379
146 1398
146 1414
146 1447
146 1461
146 1467
146 1478
146 1485
146 1552
146 1555
146 1575
146 1579
146 1597
146 1617
146 1631
146 1640
146 1653
146 1745
146 1747
146 1756
146 1758
146 1803
146 1806
146 1807
146 1826
146 1939
146 1983
146 2023
146 2058
146 2066
146 2092
146 2115
146 2136
146 2153
146 2217
146 2248
146 2271
146 2284
146 2285
146 2287
146 2299
146 2316
146 2318
146 2346
146 2443
146 2484
146 2572
146 2618
146 2636
146 2642
146 2650
146 2658
146 2662
146 2710
146 2728
146 2743
146 2753
146 2754
146 2773
146 2778
146 2783
146 2824
146 2831
146 2842
146 2867
146 2868
146 2959
146 2971
146 3039
146 3056
146 3062
146 3093
146 3161
146 3179
146 3198
146 3215
146 3270
146 3271
146 3310
146 3368
146 3411
146 3414
146 3416
146 3457
146 3464
146 3477
146 3489
146 3509
146 3553
146 3621
146 3654
146 3666
146 3671
146 3694
146 3707
146 3764
146 3770
146 3778
146 3781
146 3785
146 3789
146 3813
146 3821
146 3827
146 3885
146 3933
146 3935
146 3983
146 4047
146 4080
146 4133
146 4226
146 4272
146 4287
146 4323
146 4337
146 4385
146 4388
146 4400
146 4415
146 4464
146 4696
146 4774
146 4786
146 4792
146 4805
146 4837
146 4842
146 4888
146 4899
146 4926
146 4949
146 4959
146 4989
146 4998
146 5036
146 5108
146 5113
146 5138
146 5148
146 5161
146 5193
146 5204
146 5232
146 5268
146 5284
146 5315
146 5326
146 5358
146 5364
146 5366
146 5373
146 5408
146 5527
146 5537
146 5614
146 5641
146 5650
146 5716
146 5722
146 5734
146 5796
146 5803
146 5814
146 5850
146 5882
147 148
148 2056
148 2681
148 2690
148 2773
148 2878
148 4128
148 4546
148 4850
148 4982
148 5044
148 5540
149 150
149 472
149 587
149 622
149 653
149 1122
149 2054
149 2104
149 2164
149 2297
149 2607
149 2750
149 2914
149 3093
149 3283
149 5290
149 5482
150 151
150 152
151 233
151 335
151 495
151 600
151 653
151 1045
151 1122
151 1168
151 1197
151 1215
151 1251
151 1378
151 1676
151 1694
151 1857
151 2156
151 2456
151 2544
151 2719
151 2783
151 3062
151 3127
151 3644
151 3667
151 3671
151 4088
151 4209
151 4468
151 4716
151 4729
151 4788
151 4868
151 4914
151 5138
151 5182
153 154
153 2715
154 155
154 156
154 157
155 452
155 1303
155 3394
155 4044
155 4967
155 5486
156 4461
157 2379
158 159
158 2323
158 3801
158 4025
158 5811
159 160
159 161
160 653
160 1091
160 1430
160 1842
160 2066
160 2233
160 2642
160 3609
160 4026
160 4372
160 4641
160 4673
160 4820
160 5693
161 4253
161 5929
162 163
162 254
162 653
162 718
162 821
162 1013
162 1143
162 1424
162 1579
162 1601
162 1696
162 1717
162 1788
162 2029
162 2115
162 2156
162 2186
162 2316
162 2416
162 2693
162 2695
162 2702
162 2728
162 2868
162 2994
162 3067
162 3277
162 3668
162 3974
162 4291
162 4383
162 4778
162 4949
162 5284
162 5315
162 5358
163 164
164 387
164 1223
164 1230
164 1478
164 1563
164 1717
164 2959
164 3018
164 3187
164 3272
165 166
165 167
165 168
165 169
165 170
165 171
166 2334
167 3592
169 259
169 513
169 1078
169 1359
169 2562
169 2910
169 3562
169 3621
169 3698
169 3934
169 4565
169 4983
169 5837
170 1068
171 680
171 1006
171 5073
172 173
173 174
173 175
173 176
174 315
174 1091
174 1175
174 1546
174 1569
174 1652
174 1776
174 1826
174 1941
174 2593
174 3124
174 3547
174 4203
174 4346
174 5786
175 536
175 1207
175 1601
175 2532
175 2989
175 4413
175 4418
175 4787
175 5381
175 5837
176 310
176 1321
176 1742
176 2642
176 2665
176 2749
176 2788
176 3609
176 4564
176 5017
176 5302
176 5324
176 5333
176 5381
177 178
177 2385
177 2564
179 180
179 289
179 1806
179 2104
179 2115
179 3368
179 4652
181 182
181 183
181 184
181 185
181 186
182 638
182 1781
182 2333
182 2686
182 2712
182 2754
182 2773
182 3289
182 5016
182 5711
183 2662
183 2773
183 2946
183 3655
184 301
184 315
184 1308
184 1500
184 1933
184 2173
184 2429
184 2444
184 2491
184 2574
184 2712
184 3062
184 3272
184 3286
184 3394
184 3395
184 3655
184 3874
184 4339
184 4658
184 4792
184 5034
184 5289
184 5290
184 5352
185 824
185 1569
185 1879
185 2607
185 3621
185 5647
186 671
186 924
186 1548
186 3510
187 188
187 189
187 819
187 2275
187 2699
187 3062
187 3089
187 3102
187 3243
187 3674
187 3768
187 3815
187 4760
187 5836
189 190
190 1956
190 2676
190 3346
191 192
191 1810
191 2662
191 3509
192 193
192 194
192 195
192 196
192 197
192 198
192 199
193 396
193 470
193 1268
193 1305
193 1441
193 1500
193 2334
193 2346
193 2773
193 2925
193 3161
193 3186
193 3200
193 3666
193 3887
193 4178
193 4383
193 4631
193 4764
193 5511
193 5877
193 6393
194 731
194 1076
194 1089
194 1108
194 1248
194 1398
194 1480
194 1764
194 2056
194 2286
194 2368
194 2406
194 2427
194 2450
194 2477
194 3200
194 3332
194 3413
194 3514
194 3626
194 3654
194 3754
194 3833
194 3852
194 3999
194 4026
194 4277
194 4563
194 4751
194 5071
194 5153
194 5162
194 5181
194 5225
194 5321
195 1113
195 1661
195 1983
195 2098
195 2354
195 2534
195 3156
195 4096
195 4617
196 235
196 728
196 841
196 1733
196 2914
196 2994
196 3878
196 4192
196 4792
196 4926
199 986
199 1331
199 1742
199 3186
199 3437
199 3666
199 3668
199 3706
199 4226
199 4394
199 4631
199 4684
199 4805
199 5844
200 201
200 1013
200 1182
200 1882
200 1993
200 3241
200 3628
200 4010
200 4490
200 4544
200 4588
200 4682
200 5661
201 202
202 1100
202 1620
203 204
203 205
203 206
203 207
203 208
203 209
205 549
205 1230
205 1759
205 2124
205 3477
205 3489
205 4039
205 4378
205 5523
205 5651
206 1091
206 1108
206 1238
206 1762
206 1870
206 1882
206 2054
206 2315
206 2745
206 2842
206 3084
206 3538
206 4464
206 4637
206 4914
206 5161
207 276
207 470
207 524
207 775
207 1485
207 2030
207 2333
207 2568
207 2754
207 2765
207 5856
208 723
208 1060
208 1321
208 1368
208 1370
208 1565
208 1674
208 1737
208 2115
208 2124
208 2306
208 2563
208 2702
208 2842
208 2876
208 2902
208 3058
208 3237
208 3277
208 3491
208 3573
208 3776
208 3911
208 4441
208 4842
208 5714
208 5787
209 376
209 490
209 1231
209 1788
209 2076
209 2564
209 3853
209 4512
209 4842
209 5475
210 211
210 2686
210 3677
210 3979
210 4026
211 212
211 213
211 214
211 215
211 216
212 3360
212 4488
213 2593
213 2683
213 3671
213 4778
213 4915
213 5125
213 5142
213 5627
214 399
214 500
214 653
214 810
214 1764
214 2710
214 3066
214 4026
214 4079
214 4393
214 4949
215 1518
215 1788
215 2052
215 2123
215 2285
215 2924
215 3059
215 3222
215 3728
215 3781
215 4161
215 4168
215 4352
215 4391
215 5352
217 218
217 738
217 821
217 2683
217 3091
217 3955
218 219
218 220
219 5196
219 5659
220 376
220 696
220 698
220 799
220 839
220 873
220 959
220 1321
220 1939
220 2115
220 2593
220 2615
220 2812
220 3102
220 3523
220 3758
220 3887
220 5305
220 5527
220 5725
221 222
222 223
222 224
223 254
223 1231
223 1252
223 1308
223 1659
223 1696
223 2406
223 2527
223 2658
223 2674
223 2896
223 3090
223 3697
223 4832
223 5016
223 5408
223 5466
223 5497
224 569
224 4162
226 227
226 708
226 1037
226 1354
226 1944
226 2424
226 2693
226 3054
226 3066
226 3522
226 3878
226 4092
226 4111
226 4191
226 4582
226 4976
226 5232
226 5284
226 5350
226 5617
228 229
228 276
228 293
228 495
228 1548
228 1982
228 2910
228 3062
228 3102
228 3272
228 4548
228 5651
229 230
229 231
229 232
230 492
230 883
230 3549
230 5435
230 5786
230 5810
231 992
231 1684
231 2151
231 2607
231 3354
231 4166
231 4698
233 234
234 259
234 452
234 850
234 1100
234 1706
234 2044
234 2618
234 2670
234 2910
234 3621
234 4071
234 4276
234 4613
234 5356
234 5419
234 5570
234 5858
235 236
235 237
235 238
235 239
235 240
235 241
236 2244
236 4789
237 278
237 470
237 638
237 767
237 832
237 1395
237 1740
237 1988
237 2193
237 2450
237 2553
237 3880
237 4362
237 4985
237 5390
237 5691
238 1020
238 1091
238 1321
238 1476
238 1505
238 1632
238 1808
238 1950
238 2355
238 3768
238 5003
238 5385
238 5452
238 5637
239 2896
239 4542
241 2920
242 243
242 259
242 527
242 1106
242 1548
242 2082
242 2549
242 2631
242 2685
242 2868
242 2989
242 3928
242 3978
242 4064
242 4342
242 4792
243 244
244 2631
244 3193
244 4180
245 246
245 1600
245 1882
245 2743
245 3017
245 4102
246 247
246 248
247 1230
247 2681
247 2953
247 3148
247 3648
247 3897
249 250
249 5232
250 251
250 252
250 253
251 824
251 2695
251 3356
251 4298
252 790
252 2719
253 418
253 909
253 1004
253 1147
253 1181
253 1393
253 1573
253 1797
253 1885
253 1933
253 2486
253 2605
253 2719
253 2723
253 2728
253 2803
253 2839
253 2840
253 2896
253 2929
253 2946
253 3219
253 3271
253 3707
253 3886
253 3997
253 4019
253 4203
253 4860
254 255
255 399
255 1823
255 2282
257 258
258 1207
258 1558
258 2639
258 2704
258 2953
258 4065
258 5001
258 5184
258 5871
259 260
259 261
259 262
259 263
259 264
260 425
260 511
260 1351
260 2374
260 2519
260 3272
260 3671
260 4043
260 4448
261 2114
261 2832
261 3866
262 1341
265 266
266 267
266 268
266 269
267 289
267 1534
267 2142
267 2719
267 2910
267 3609
267 3626
267 3679
267 4007
267 4325
268 5146
268 5255
268 5732
269 3073
270 271
270 272
271 3366
272 456
272 3243
272 3891
273 274
273 752
273 1460
273 1834
273 2217
273 2868
273 3272
273 3693
273 3934
273 4506
273 4722
273 5199
273 5450
273 5659
275 276
276 277
278 279
278 280
278 281
278 282
279 3116
279 3200
279 4402
280 990
280 1159
280 1379
280 1600
280 2179
280 2285
280 2642
280 2650
280 2910
280 2994
280 3225
280 3671
280 4234
280 4859
281 293
281 1321
281 1499
281 1696
281 3677
281 5148
282 295
282 824
282 2910
283 284
283 916
283 1203
283 3265
283 3902
283 4865
284 285
285 594
285 1275
285 1442
285 2156
285 3550
285 5543
286 287
286 288
287 3632
287 4056
289 290
291 292
291 576
291 2443
291 4253
293 294
294 301
294 399
294 694
294 785
294 978
294 1356
294 1537
294 2156
294 2515
294 2825
294 2910
294 3186
294 3195
294 3241
294 3446
294 3493
294 3589
294 3957
294 4057
294 4114
294 4185
294 4283
294 4409
294 4459
294 4847
294 5148
294 5224
294 5232
294 5326
294 5531
294 5536
294 5763
294 5785
294 5827
295 296
295 297
295 298
295 299
295 300
296 620
296 683
296 839
296 1004
296 1281
296 1418
296 1430
296 1810
296 1898
296 1959
296 2186
296 2195
296 2240
296 2368
296 2542
296 2571
296 2593
296 2877
296 2959
296 2990
296 3059
296 3062
296 3306
296 3470
296 3484
296 4179
296 4331
296 4897
296 4949
296 4994
296 5190
296 5876
297 5088
298 1219
298 1972
298 2087
298 2106
298 2489
298 2740
298 2813
298 4731
299 3344
299 3814
300 691
300 924
300 949
300 1081
300 1091
300 1808
300 2282
300 2311
300 3561
300 4061
300 4722
300 5207
300 5378
300 5692
300 5744
301 302
301 303
301 304
301 305
301 306
301 307
301 308
301 309
302 1461
302 1870
302 5366
303 547
303 2385
303 2545
303 3481
303 3805
303 5604
304 320
304 511
304 780
304 814
304 873
304 934
304 1229
304 1321
304 1470
304 1847
304 2071
304 2195
304 2572
304 2717
304 2824
304 2910
304 3085
304 3621
304 3626
304 3671
304 4832
304 4834
305 631
305 1166
305 1546
305 2640
305 4010
305 4792
305 4953
307 2539
307 2813
307 3296
307 4005
307 4185
308 3477
309 2156
309 5651
310 311
310 312
310 313
311 1849
312 1221
312 1496
312 1696
312 2587
312 4684
312 4914
313 1601
313 1930
313 1980
313 2191
313 3376
313 5119
314 315
314 387
314 487
314 576
314 650
314 1004
314 1013
314 1485
314 2082
314 2173
314 2211
314 2303
314 2527
314 2631
314 2695
314 3029
314 3048
314 3225
314 4064
314 4244
314 4637
314 4714
314 4774
314 4853
314 4860
314 4994
315 316
315 317
315 318
316 631
316 824
316 916
316 1948
316 1970
316 2807
316 2820
316 2876
316 3157
316 3261
316 3591
316 3690
316 3694
316 3890
316 4039
316 4064
316 4164
316 4288
316 4324
316 4951
316 4993
316 5022
316 5129
316 5372
316 5777
317 1152
317 1303
317 2719
318 765
318 3050
318 4030
318 5198
319 320
319 3157
319 3952
319 4096
319 5247
319 5460
320 321
320 322
322 594
322 1651
322 2593
322 2910
322 3231
322 4345
324 325
324 690
324 986
324 1081
324 1379
324 1747
324 2587
324 2642
324 2699
324 2915
324 3272
324 3561
324 3902
327 328
327 1013
327 1224
327 1932
327 3464
327 3602
327 4053
327 4868
327 4909
327 5514
327 5565
328 329
328 330
328 331
328 332
328 333
328 334
329 1308
329 1478
329 1810
329 2294
329 2916
329 3470
329 3477
329 3621
329 3671
329 3675
329 3995
329 4018
329 4065
329 4378
329 5190
329 5480
329 5537
329 5618
331 413
331 1529
331 2574
331 3306
331 3515
331 3932
331 4538
333 4950
333 5369
333 5653
334 869
334 1031
334 1608
334 1906
334 3039
334 3874
335 336
335 337
336 3706
336 5086
337 1641
337 2186
337 3221
337 4045
337 4374
337 6393
338 339
338 1724
338 5858
341 342
341 744
341 819
341 978
341 1349
341 1533
341 1799
341 1916
341 2052
341 2118
341 2119
341 2175
341 2276
341 2315
341 2374
341 2544
341 2549
341 2745
341 2799
341 2834
341 2868
341 2873
341 3067
341 3199
341 3240
341 3331
341 3437
341 3530
341 3538
341 3582
341 4165
341 4290
341 4388
341 4448
341 4464
341 4740
341 4807
341 4919
341 5370
341 5814
342 343
343 936
343 1013
343 1193
343 1203
343 1700
343 1764
343 2053
343 2092
343 2601
343 2788
343 2839
343 3099
343 3102
343 3230
343 3477
343 3679
343 3735
343 3837
343 3980
343 4018
343 4923
343 4950
343 5438
343 5627
343 6048
344 345
344 536
344 698
344 1281
344 4088
344 4331
344 4699
347 348
347 3633
347 4756
348 349
348 350
349 1824
349 3437
350 3491
351 352
351 1379
351 1485
351 1663
351 2721
351 3739
351 3763
351 4561
351 4949
351 5036
351 5255
351 5435
353 354
353 355
353 356
353 357
353 358
353 359
353 360
354 830
354 854
354 3192
354 4919
354 5277
354 5483
355 544
355 606
355 2418
355 2541
355 2953
355 4251
355 4363
355 4526
355 6086
357 761
357 773
357 924
357 1368
357 1875
357 1918
357 2182
357 2211
357 2227
357 2839
357 2854
357 2867
357 3355
357 3470
357 3530
357 3656
357 4014
357 4153
357 4476
357 4890
357 4899
357 5562
357 5857
358 3502
358 4965
358 5854
359 5581
360 2013
360 2486
360 4723
361 362
361 363
361 364
361 365
361 366
362 1906
362 2670
362 2719
362 4949
363 2920
364 653
364 1013
364 2323
364 5232
366 2658
366 3071
366 3662
366 3941
366 5053
367 368
367 3266
368 369
368 370
369 647
369 1181
369 1673
369 1925
369 2535
369 4461
371 372
371 2066
372 373
372 374
372 375
373 2195
374 453
374 990
374 1838
374 1971
374 2493
374 2542
374 3128
374 3229
374 4373
374 4785
374 4904
374 5139
374 5196
375 2418
376 377
376 378
377 3110
377 3303
377 3735
377 4390
377 4596
377 4920
377 5072
377 5073
379 380
379 2549
379 3027
379 5620
380 381
381 4520
382 383
382 3502
382 5082
382 6394
383 384
383 385
383 386
384 994
384 1107
384 5508
384 5738
385 1484
385 4715
387 388
387 389
387 390
388 1122
388 1159
388 2104
388 2323
388 2719
388 3091
388 3137
388 3462
388 3671
388 4931
388 5481
389 472
390 1327
390 1388
390 3739
390 4783
391 392
391 1020
391 1329
391 1398
391 1418
391 1518
391 1611
391 1678
391 2564
391 2684
391 2997
391 3825
391 4034
391 5284
391 5814
392 393
392 394
392 395
393 1143
393 1569
393 3062
393 3102
393 4345
393 4883
394 949
394 1347
394 1379
394 1826
394 1950
394 2084
394 2607
394 3115
394 3706
394 3716
394 3766
394 3866
394 4689
396 397
396 398
397 869
397 5625
398 1253
398 3742
399 400
399 401
399 402
399 403
399 404
399 405
399 406
400 820
400 2825
400 3489
400 3720
400 4885
401 696
401 718
401 1100
401 2339
402 1081
402 5148
406 2092
406 5482
407 408
407 946
407 3061
407 3065
407 3291
407 3855
407 5078
409 410
409 1037
409 4909
411 412
411 3522
413 414
413 415
413 416
413 417
414 456
414 936
414 1209
414 1253
414 1589
414 1807
414 1834
414 2037
414 2097
414 2426
414 2574
414 2631
414 2665
414 2670
414 2677
414 2692
414 2704
414 2727
414 3250
414 3280
414 3416
414 3534
414 3682
414 3759
414 3906
414 4162
414 4477
414 4548
414 5163
414 5817
415 1378
416 3876
416 5466
416 5523
417 2952
417 5184
418 419
418 420
418 421
421 1573
421 2128
421 5361
422 423
424 425
424 1920
424 2539
424 4797
424 4887
424 5632
425 426
425 427
425 428
425 429
426 1257
426 1476
426 1923
426 2568
426 2587
426 2684
426 3601
426 3616
426 4830
426 4998
426 5232
426 5525
426 5528
426 5716
427 5016
427 5379
429 1372
429 1986
429 2443
429 3708
429 4901
429 5270
429 5780
429 6393
430 431
430 2946
430 4203
431 432
431 433
431 434
431 435
432 472
432 487
432 1433
432 1659
432 1826
432 1842
432 3011
432 3037
432 3225
432 3323
433 1004
433 1113
433 1395
433 2987
433 4388
433 5343
434 1641
434 1752
434 1783
434 1906
434 2716
434 3191
434 5184
434 5366
434 5824
435 728
435 936
435 974
435 1001
435 1175
435 1733
435 2098
435 2240
435 2253
435 2424
435 2450
435 2856
435 2981
435 3247
435 3408
435 3496
435 3559
435 3579
435 3929
435 4025
435 4231
435 4244
435 4525
435 4662
435 4767
435 4910
435 5153
435 5219
435 5535
435 5790
435 5805
435 6269
435 6389
436 437
436 2602
436 4510
439 440
439 1263
439 1631
439 2052
439 2355
441 442
442 443
443 509
443 2748
443 3642
444 445
444 1536
444 1580
444 2383
445 446
445 447
445 448
446 1219
446 1579
448 924
448 992
448 1305
448 1341
448 1437
448 1810
448 2052
448 2443
448 3980
448 4078
448 4307
449 450
450 451
454 455
454 1546
456 457
456 458
456 459
456 460
456 461
456 462
456 463
456 464
456 465
456 466
457 1412
457 1478
457 2534
457 2832
457 3250
457 3854
457 4676
457 4836
458 1379
458 3272
458 3331
458 3961
458 4040
458 5380
458 5712
459 746
459 1168
459 1703
459 2356
459 3724
459 5331
460 2955
461 2702
461 3538
462 765
462 801
462 924
462 2910
462 2961
462 3232
462 3626
462 4157
462 4784
462 5284
464 2395
464 2715
464 3067
464 3197
464 3866
464 4650
464 4716
464 4852
464 5321
465 511
465 1138
465 1253
465 1379
465 1505
465 1651
465 2328
465 2433
465 2788
465 2851
465 2867
465 3039
465 3089
465 3277
465 3404
465 3515
465 3648
465 3852
465 4018
465 4280
465 4298
465 4462
465 4472
465 4503
465 4643
465 4683
465 4754
465 4788
465 4792
465 5232
465 5352
466 1379
466 2402
466 2811
466 3089
466 3114
466 3766
466 6380
467 468
468 1688
468 2041
468 3098
468 3461
468 4116
468 4752
468 4917
468 5597
469 470
469 589
469 1166
469 1181
469 1512
469 2519
469 2529
469 2533
469 3291
469 4657
469 5107
469 5743
470 471
471 4259
471 4468
471 5197
471 5808
472 473
472 474
472 475
472 476
472 477
472 478
472 479
472 480
473 1275
473 1653
473 1986
473 2593
473 3120
473 3648
473 3842
473 4036
473 4250
473 4711
474 924
474 978
474 982
474 2544
474 2562
474 2699
474 2730
474 2815
474 3062
474 4040
474 5305
474 5651
475 2916
475 4792
476 4487
479 2915
479 3133
480 1631
480 2712
480 2736
480 3671
480 4220
480 5119
481 482
482 1370
482 1500
482 2636
482 4020
482 5712
482 5716
483 484
484 1135
484 2276
484 4015
484 5452
485 486
486 4018
488 489
488 2618
490 491
492 493
493 527
493 2754
493 5838
494 495
494 3376
494 4114
494 4551
495 496
495 497
495 498
496 1114
497 635
497 698
497 1004
497 1040
497 1106
497 1166
497 1197
497 1248
497 1339
497 1367
497 1548
497 1597
497 1601
497 1641
497 1647
497 1776
497 1882
497 1906
497 1980
497 2368
497 2538
497 2544
497 2558
497 2690
497 2704
497 2719
497 2790
497 2893
497 3062
497 3121
497 3187
497 3272
497 3573
497 3682
497 3821
497 3888
497 4378
497 4531
497 4548
497 4748
497 4842
497 4994
497 5056
497 5115
497 5180
497 5350
497 5783
497 5832
497 5858
498 1670
498 2000
498 2662
499 500
499 1430
501 502
501 1379
501 2191
502 503
503 994
503 1826
503 4097
503 5352
503 5405
504 505
505 506
505 507
506 2651
507 3260
507 3837
507 4135
508 509
508 3018
508 3388
509 510
510 1558
510 1951
510 2748
510 3567
510 6048
512 513
512 1976
512 2658
513 514
514 1836
514 2173
514 4949
515 516
515 517
515 518
516 2878
516 5741
517 3982
517 5036
518 820
518 1223
518 1584
518 1624
518 1788
518 2248
518 4210
518 4334
518 4699
518 4812
518 5342
518 5472
519 520
519 5290
520 521
521 3732
521 4322
521 5827
522 523
522 628
522 697
522 1555
522 3730
522 5685
522 5710
524 525
525 728
525 1696
525 2665
525 3470
525 4015
525 4356
526 527
526 924
526 1491
526 1636
526 1761
526 2082
526 2439
526 2558
526 2692
526 2834
526 2996
526 3108
526 3758
526 3960
526 4774
526 4792
526 4999
527 528
527 529
527 530
527 531
527 532
528 2733
528 3272
528 5098
528 5352
529 1175
529 1807
529 2253
529 3699
530 606
530 1370
530 1413
530 4899
531 1589
531 2515
531 4216
532 1413
532 2566
532 2783
532 5034
532 5141
533 534
533 1960
534 535
535 4052
535 4406
535 4836
535 5680
536 537
537 2173
537 2271
538 539
538 1597
538 3368
538 3578
538 4340
538 5141
538 5498
539 540
539 541
539 542
542 1430
542 1997
542 2558
542 4995
542 5425
542 6174
543 544
543 1327
543 1470
543 4306
544 545
544 546
548 549
548 5148
549 550
549 551
549 552
549 553
549 554
549 555
549 556
549 557
549 558
549 559
549 560
549 561
549 562
549 563
550 805
550 841
550 4871
550 5119
551 847
551 2242
551 2761
553 2892
554 1483
554 4367
554 4833
555 1076
555 1246
556 1534
556 1548
556 1882
556 2790
556 2832
556 3571
556 3646
556 3935
556 5041
556 5847
556 5858
558 1834
558 2851
558 3404
560 1118
560 1601
560 2053
560 2424
560 2712
560 2818
560 3089
560 3692
560 5068
561 1512
561 2018
561 5691
563 1175
563 5061
564 565
565 566
565 567
565 568
566 620
566 3220
566 3248
566 3310
566 3518
566 3666
567 1947
567 2233
567 2612
567 3021
567 3181
567 4075
567 4216
567 4672
568 1647
568 3464
568 4216
570 571
570 572
570 573
570 574
571 3268
571 4697
571 5432
572 4959
572 5054
572 5186
572 5415
572 5933
573 651
573 698
573 942
573 971
573 1119
573 1624
573 2015
573 3779
573 4136
573 4646
573 5371
574 1031
574 1308
574 1700
574 2323
574 2712
574 2910
574 3404
574 3679
574 4673
574 4698
574 5034
574 5232
574 5440
574 5625
576 577
576 578
576 579
576 580
576 581
576 582
577 2986
577 3441
578 1122
578 2717
582 2076
582 2426
582 2443
582 4387
583 584
583 671
583 1573
583 1904
583 2058
583 2479
583 2857
583 3716
584 585
585 4792
586 587
587 588
588 2379
588 3567
589 590
591 592
592 1826
592 2515
592 2574
592 2662
592 2783
592 5036
592 5716
593 594
593 2636
593 2826
594 595
594 596
594 597
594 598
595 1518
595 2323
595 3866
596 3815
596 3858
596 5715
597 785
597 1476
597 3763
597 5066
597 5418
598 805
598 1379
598 2872
598 3244
598 3522
598 4191
599 600
599 971
599 1906
599 2985
599 3219
599 3682
600 601
601 1179
601 2686
601 2981
602 603
603 604
605 606
605 4909
606 607
606 608
606 609
606 610
606 611
606 612
606 613
606 614
606 615
611 1224
611 2018
611 2712
611 3602
612 3001
613 1788
613 2754
613 2788
615 1224
615 1641
616 617
616 618
616 619
617 827
617 1923
617 3538
617 4933
617 5293
619 3871
620 621
621 3514
621 5255
621 5338
623 624
623 946
623 5519
624 625
624 626
624 627
625 1050
625 1321
625 1826
625 3891
626 3618
626 4847
626 5742
628 629
628 630
631 632
631 633
631 634
632 2407
632 4169
632 4707
632 4752
632 4920
632 5479
632 5808
633 1066
633 1681
633 3592
633 4007
633 5069
633 5139
633 5791
636 637
636 2051
636 2333
636 2558
636 2890
636 2936
636 4539
636 5450
638 639
638 640
638 641
638 642
639 836
639 1321
639 3599
639 3620
640 1063
640 1741
640 3609
640 4390
640 4584
643 644
644 645
646 647
646 2712
646 3692
646 4367
646 4907
647 648
647 649
649 1913
651 652
653 654
653 655
653 656
653 657
653 658
653 659
653 660
653 661
653 662
653 663
654 2574
654 2671
654 2750
654 2992
654 4088
654 4563
654 5302
655 1242
655 2100
655 2706
655 3348
655 3716
655 3765
655 3873
655 4213
655 4762
655 5270
655 5403
655 5771
655 5882
656 832
656 3384
656 4269
656 4989
656 4994
656 5028
657 854
658 1388
658 1818
658 3890
658 5407
659 873
659 1379
659 2076
659 2333
659 2642
659 3271
659 3411
659 3742
659 4389
660 1281
660 4469
660 5143
661 3555
661 4144
661 4869
661 5232
661 5290
661 5849
662 1347
663 1614
663 3247
663 4792
664 665
664 666
664 667
664 668
664 669
664 670
665 2436
665 3779
669 1600
669 3670
670 2431
670 2602
670 2677
670 2692
670 3852
671 672
672 3264
672 3664
672 4829
672 5155
673 674
673 3316
673 4800
673 5004
673 5347
673 5432
673 5648
675 676
675 2303
675 3988
675 4169
675 5645
677 678
677 3182
677 5817
679 680
680 681
684 685
684 686
684 687
684 688
685 1805
685 4583
686 1518
686 2124
686 2156
686 2702
686 2975
686 3642
686 3897
687 3031
687 3036
687 3644
687 4144
688 824
688 1011
688 1538
688 1862
688 2542
688 4862
688 5636
689 690
689 1379
689 2640
689 2773
689 2803
689 3660
689 3666
692 693
693 2186
695 696
695 1370
695 1505
695 1696
695 2156
695 2456
695 2640
695 2877
695 3272
695 4949
695 5843
698 699
698 700
698 701
698 702
698 703
698 704
698 705
698 706
699 1999
700 1280
700 3065
700 3197
700 4994
700 6166
701 886
701 1257
701 1423
701 1538
701 1979
701 2081
701 2195
701 2635
701 2728
701 2826
701 3031
701 3067
701 3277
701 3698
701 3703
701 4006
701 4162
701 4496
701 4518
701 4523
701 4545
701 4774
701 4797
701 5215
701 5431
701 5432
701 5729
702 2558
702 5792
704 1281
704 3573
704 6086
705 1752
705 2328
705 2527
705 4716
705 4981
705 5510
705 5653
706 1980
706 3891
706 4333
706 5523
707 708
707 1372
707 1860
707 1920
707 2552
707 5405
707 5817
708 709
709 738
709 1641
709 1892
709 1923
709 2494
709 2501
709 2690
709 2758
709 2807
709 2845
709 3682
709 3779
709 3949
709 4203
709 4838
709 5462
710 711
710 3430
711 712
713 714
715 716
715 3994
716 717
717 1529
717 1683
717 2217
717 2474
717 2653
717 2985
717 2989
717 2994
717 3571
717 3730
717 4789
718 719
718 720
718 721
718 722
719 4303
721 1166
721 3890
721 6082
722 1068
722 1600
722 4819
723 724
724 1303
724 3366
724 4324
725 726
725 2633
725 3286
725 3631
725 4444
725 5526
725 5777
725 6161
727 728
727 4862
728 729
728 730
729 799
730 4480
731 732
732 5036
733 734
733 735
734 5419
735 1108
735 2514
736 737
737 1918
737 2692
737 3044
738 739
738 740
738 741
738 742
738 743
739 944
739 2405
739 2515
739 3270
740 1063
740 2104
740 3050
740 5204
742 1197
742 4797
743 1349
743 1877
743 3270
744 745
745 1673
745 2066
745 2989
745 3479
745 4131
746 747
746 748
747 1721
747 3794
749 750
749 1248
749 5350
751 752
751 1724
751 1805
751 1875
751 2121
751 3599
751 4253
751 4300
751 4401
751 4425
751 4723
751 4788
751 5544
751 5608
752 753
752 754
752 755
752 756
755 1419
755 2986
755 3544
755 3599
755 3852
755 4662
756 1542
756 2393
756 3624
756 4352
756 4513
756 5335
757 758
759 760
759 2373
759 4760
759 5431
759 5486
761 762
763 764
764 2377
765 766
766 3340
766 3730
767 768
767 769
768 3495
768 4698
768 5255
768 5352
769 2552
769 2706
769 2743
769 4337
769 4683
769 5060
769 5625
769 5712
770 771
770 1321
770 1601
770 1624
770 1665
770 1742
770 1898
770 2311
770 2323
770 2593
770 2743
770 2761
770 3007
770 3095
770 3340
770 3720
770 4567
770 4950
770 5148
770 5184
770 5305
770 5358
771 772
773 774
774 1834
774 2261
774 3628
774 3890
774 5243
774 5342
775 776
775 777
775 778
775 779
776 1505
776 2642
776 6014
777 2118
777 2256
777 2360
777 2628
777 4043
777 4807
778 2767
778 2826
779 1466
779 1904
779 3599
779 3793
779 4307
780 781
780 782
780 783
781 1658
781 2995
781 5029
782 1834
784 785
784 1147
784 1379
784 1993
784 3366
784 3814
785 786
785 787
785 788
788 1653
788 2433
788 3983
788 4384
788 4897
789 790
789 3201
790 791
790 792
792 924
792 1589
792 1650
792 2572
793 794
793 795
794 2745
794 3125
794 3886
796 797
796 1708
796 3890
797 798
798 905
798 1398
798 2953
798 3573
798 4538
798 5455
800 801
800 3274
800 5779
801 802
801 803
801 804
802 1013
802 2217
802 2574
802 2702
802 2910
802 3102
802 3980
802 4026
802 4068
802 5036
802 5429
803 5119
804 3077
804 6191
805 806
805 807
805 808
805 809
807 1305
807 3609
807 3972
807 4964
807 5376
808 982
808 1087
808 1270
808 1291
808 1308
808 1375
808 1475
808 1592
808 1620
808 1882
808 2153
808 2155
808 2311
808 2676
808 2803
808 2834
808 2841
808 2868
808 2963
808 3141
808 3261
808 3414
808 3422
808 3487
808 3883
808 3885
808 4064
808 4187
808 4503
808 4519
808 4714
808 4792
808 4899
808 5023
808 5264
809 2836
810 811
810 812
810 813
811 2280
811 2777
811 2840
811 2841
811 3143
811 3490
811 3793
811 3883
811 4004
811 4358
811 4841
811 5248
811 5267
811 6393
812 1001
812 3153
812 3595
812 4226
812 4322
813 1584
814 815
817 818
817 2670
817 2841
821 822
821 823
822 1100
822 1627
822 1676
822 2568
822 2910
822 4019
822 4949
823 1626
823 4464
823 4949
824 825
824 826
825 4542
825 4949
826 5479
828 829
830 831
831 2005
831 2896
831 2990
831 3940
831 4410
831 4698
833 834
833 4505
834 835
835 3293
835 3482
836 837
836 838
837 1797
837 3011
837 3078
837 3200
837 3537
837 3896
837 4444
837 5385
838 2029
839 840
840 3251
841 842
841 843
841 844
841 845
841 846
842 2056
842 5042
843 2217
844 2115
844 3621
844 3906
848 849
850 851
850 852
850 853
851 5129
851 5816
852 1972
852 2076
852 2662
852 2771
852 3029
852 6086
853 2115
853 2360
853 2374
853 4729
853 5810
855 856
855 2698
855 3635
855 4107
855 5430
855 5541
856 857
856 858
857 1966
857 3800
858 3263
859 860
859 3629
860 861
861 2173
861 2631
861 3395
861 4256
861 5408
862 863
862 4840
862 5257
864 865
864 2779
864 2908
864 4019
866 867
867 1013
867 1076
867 2052
867 2053
867 2323
867 3239
867 3857
867 4161
867 4472
867 4919
868 869
868 2719
868 4307
869 870
871 872
873 874
873 875
873 876
873 877
873 878
873 879
875 2385
876 2974
877 1061
877 2543
877 3366
877 4203
877 4859
878 1321
880 881
880 2444
880 3396
880 4513
880 4692
880 5421
880 5485
880 5758
880 5879
882 883
882 1224
882 1413
882 1592
882 1704
882 1917
882 2151
882 2229
882 2834
882 2868
882 2930
882 3161
882 3557
882 3609
882 3635
882 3790
882 3918
882 4053
882 4064
882 4087
882 4102
882 4215
882 4377
882 4405
882 4454
882 4509
882 4573
882 4614
882 4670
882 4788
882 4841
882 4925
882 4940
882 4969
882 5072
882 5099
882 5104
882 5166
882 5191
882 5295
882 5376
882 5525
882 5599
883 884
884 2443
884 3982
886 887
886 888
886 889
886 890
886 891
886 892
887 1091
887 3038
887 3188
887 5036
887 5284
888 1569
888 1863
888 2204
888 2417
888 2507
888 2628
888 2824
888 2878
888 2920
888 3482
888 3511
888 3518
888 4162
888 4817
888 5261
889 1600
889 1656
889 2186
889 2653
889 4287
889 6243
890 1860
890 3499
890 4057
890 4949
891 906
892 1485
892 1745
892 1898
892 2360
892 3084
892 4093
892 4464
892 4998
892 5063
893 894
893 895
893 896
896 2424
896 2671
896 4634
897 898
898 1518
899 900
900 901
900 902
900 903
901 3632
903 2852
904 905
907 908
907 1231
907 1885
907 3276
907 3310
907 5231
910 911
910 912
910 913
910 914
912 3584
913 1580
913 3988
914 2961
914 3404
914 4374
914 4424
914 4924
914 4942
915 916
917 918
918 919
920 921
920 942
920 1611
920 2719
921 922
922 4554
923 924
923 1365
923 1496
923 2456
923 2527
923 2562
923 2756
923 3222
923 3823
923 3935
923 4307
923 4553
923 4749
923 5452
923 5546
924 925
924 926
924 927
924 928
924 929
924 930
924 931
926 1768
928 1597
928 1826
928 2562
928 4073
928 4374
928 4412
928 5148
928 5577
929 4555
929 5497
932 933
932 2046
932 2153
932 3414
932 3679
932 3885
932 3979
932 4004
934 935
935 1505
935 1972
935 2477
935 3890
935 5000
935 5097
935 5838
936 937
936 938
936 939
936 940
936 941
937 978
937 1370
937 1485
937 1826
937 3315
937 3512
937 4018
937 4095
937 5232
937 5321
937 5412
941 2642
941 2839
941 4352
942 943
943 4000
943 4033
944 945
946 947
947 2732
947 2978
948 949
948 3984
948 5653
948 5914
949 950
949 951
949 952
949 953
949 954
950 1906
952 3650
954 2771
954 3014
954 3085
954 3271
954 3416
954 3571
954 4203
954 4661
954 4803
955 956
955 1806
955 4026
955 4203
955 4804
955 5651
956 957
957 1135
957 1341
957 2702
957 3389
957 3420
957 4072
957 4424
957 4692
957 5260
957 5385
958 959
958 2563
959 960
959 961
960 2593
960 5431
962 963
962 964
962 965
962 966
962 967
962 968
962 969
962 970
967 5386
969 3621
970 3734
971 972
971 973
972 6394
973 3935
974 975
975 1344
975 1349
975 2211
975 2229
976 977
978 979
978 980
979 2783
979 5601
981 982
982 983
984 985
985 2662
985 4410
986 987
986 988
986 989
987 1927
987 4706
987 4760
987 5400
987 6388
989 1081
989 1696
989 3708
989 4384
989 4477
992 993
994 995
996 997
996 2047
996 3039
996 4340
997 998
997 999
1000 1001
1000 4441
1001 1002
1002 1600
1002 2377
1005 1006
1005 2148
1006 1007
1007 3918
1008 1009
1008 2468
1008 2743
1008 4507
1008 5602
1009 1010
1010 1537
1010 1670
1010 2443
1010 2521
1010 2571
1010 2603
1010 2699
1010 2920
1010 2959
1010 3014
1010 3570
1010 3682
1010 3782
1010 4989
1010 5358
1010 5618
1010 5640
1010 5644
1013 1014
1013 1015
1013 1016
1013 1017
1013 1018
1014 1543
1014 2001
1014 2120
1014 2975
1014 4157
1014 4551
1014 4860
1014 4994
1014 5034
1014 5507
1014 6191
1014 6265
1016 1081
1016 2401
1016 3093
1016 3980
1016 4378
1018 1795
1018 3911
1018 4138
1019 1020
1019 1308
1019 3778
1019 4352
1019 5465
1020 1021
1020 1022
1020 1023
1021 2693
1022 4647
1024 1025
1024 2970
1024 3321
1024 5518
1025 1026
1025 1027
1025 1028
1027 1135
1029 1030
1031 1032
1031 1033
1031 1034
1031 1035
1032 3704
1034 4185
1035 1122
1035 2503
1035 2743
1035 2801
1035 3544
1035 4130
1035 4287
1036 1037
1036 3671
1036 5525
1036 5781
1037 1038
1037 1039
1038 3489
1038 5891
1041 1042
1042 1043
1043 1414
1043 1692
1043 2631
1043 2990
1043 3332
1043 3398
1043 3586
1043 3801
1043 3986
1043 4018
1043 4235
1043 4328
1043 4464
1043 4471
1043 4549
1043 4627
1043 4743
1043 4867
1043 5258
1043 5274
1043 5334
1043 5623
1043 5643
1044 1045
1046 1047
1046 2767
1046 3462
1046 5253
1046 5463
1046 5773
1048 1049
1051 1052
1053 1054
1054 1281
1054 2717
1054 2813
1055 1056
1055 4457
1056 1057
1056 1058
1059 1060
1059 2824
1059 2842
1061 1062
1064 1065
1064 3546
1064 5163
1066 1067
1067 1546
1067 1898
1067 2484
1067 3058
1067 3297
1067 3534
1067 4705
1067 4952
1067 5432
1068 1069
1068 1070
1068 1071
1068 1072
1068 1073
1068 1074
1068 1075
1070 5419
1071 2195
1071 2828
1071 2877
1071 3782
1071 3935
1071 4612
1071 5121
1071 5851
1071 6166
1072 1592
1072 1906
1072 5623
1076 1077
1077 5066
1078 1079
1078 1080
1080 2150
1080 4425
1081 1082
1081 1083
1081 1084
1081 1085
1083 2092
1083 2642
1083 3758
1083 4153
1083 4705
1083 5342
1084 3766
1086 1087
1086 4915
1086 5828
1087 1088
1089 1090
1090 2971
1090 4873
1091 1092
1091 1093
1094 1095
1096 1097
1096 3252
1096 4109
1096 5324
1097 1098
1099 1100
1100 1101
1100 1102
1100 1103
1100 1104
1100 1105
1103 2693
1103 3271
1104 4983
1108 1109
1108 1110
1108 1111
1111 1357
1111 2101
1111 2910
1111 2962
1111 3084
1111 3331
1111 4539
1111 4899
1112 1113
1114 1115
1114 1116
1114 1117
1115 5073
1119 1120
1121 1122
1121 1359
1121 4171
1122 1123
1122 1124
1122 1125
1122 1126
1122 1127
1122 1128
1122 1129
1122 1130
1122 1131
1122 1132
1123 3404
1123 3570
1123 5598
1123 5671
1124 3121
1124 3193
1124 3274
1124 3551
1126 3188
1126 4668
1127 1349
1127 2783
1127 2946
1127 3268
1127 4168
1127 4513
1127 4944
1127 5094
1127 5250
1127 5404
1128 1180
1128 1426
1128 2443
1128 2444
1128 3187
1131 2395
1131 2529
1131 4225
1131 4992
1131 5617
1132 2617
1132 3035
1132 3296
1132 3376
1132 3818
1132 4010
1133 1134
1133 4018
1135 1136
1137 1138
1137 1652
1138 1139
1138 1140
1139 2828
1139 5095
1140 2148
1140 2519
1141 1142
1143 1144
1143 1145
1145 1263
1145 1538
1145 1803
1145 2894
1145 2993
1145 3218
1145 3368
1145 3468
1145 4153
1145 4523
1145 4833
1145 4949
1145 5797
1146 1147
1146 1351
1146 2184
1146 3912
1146 4203
1147 1148
1147 1149
1147 1150
1147 1151
1148 1713
1149 5184
1150 1251
1150 2310
1152 1153
1153 1641
1153 1788
1153 2979
1153 4774
1154 1155
1154 4166
1154 4340
1157 1158
1158 2912
1159 1160
1161 1162
1161 2761
1161 4932
1161 5461
1163 1164
1163 4367
1164 1165
1166 1167
1167 2290
1167 2585
1167 3219
1167 3280
1167 3621
1168 1169
1170 1171
1170 2402
1170 2617
1171 1172
1173 1174
1175 1176
1175 1177
1177 1242
1177 3085
1177 3630
1177 4237
1178 1179
1183 1184
1183 1185
1184 2981
1184 3609
1184 4306
1184 5421
1184 6138
1186 1187
1186 1188
1188 5036
1189 1190
1189 1191
1189 1192
1191 2212
1191 5778
1192 1753
1193 1194
1194 2856
1194 2933
1194 3809
1194 4590
1194 5225
1194 5689
1194 5801
1196 1197
1196 1624
1196 2343
1196 2368
1196 3250
1196 3288
1196 3422
1197 1198
1197 1199
1198 3653
1200 1201
1200 1202
1201 1505
1201 1849
1201 2115
1201 3037
1201 3483
1201 3573
1201 4428
1201 5077
1201 5148
1202 2193
1202 2921
1202 3248
1202 4357
1202 5182
1203 1204
1205 1206
1205 2382
1205 4297
1208 1209
1208 1897
1208 2244
1208 2782
1208 2878
1208 3418
1208 3512
1208 5451
1209 1210
1209 1211
1209 1212
1210 1485
1210 1918
1210 3673
1210 5315
1210 5814
1211 2364
1211 2406
1211 3005
1211 3596
1211 5747
1212 2699
1213 1214
1213 1224
1213 1287
1213 1359
1213 1787
1215 1216
1215 1217
1220 1221
1220 2604
1220 2771
1220 3620
1220 3645
1220 4831
1220 4882
1220 5034
1220 5325
1220 5375
1220 5551
1221 1222
1224 1225
1224 1226
1224 1227
1224 1228
1228 2191
1231 1232
1233 1234
1233 2515
1233 3565
1233 5780
1234 1235
1234 1236
1236 2892
1237 1238
1237 1877
1237 2092
1237 2764
1237 2868
1237 2930
1237 3809
1237 3998
1237 4094
1237 4272
1239 1240
1240 2195
1240 3890
1240 4265
1240 4331
1240 4376
1240 4904
1240 5871
1241 1242
1242 1243
1244 1245
1244 2092
1246 1247
1248 1249
1248 1250
1250 4109
1250 4745
1253 1254
1254 1783
1254 1834
1254 4290
1255 1256
1257 1258
1258 2215
1258 2607
1258 2994
1259 1260
1259 2217
1259 3962
1260 1261
1260 1262
1262 1913
1262 3352
1262 4835
1262 4995
1262 5140
1262 6191
1263 1264
1263 1265
1265 4234
1265 4277
1265 5315
1266 1267
1269 1270
1271 1272
1271 2706
1271 3629
1272 1273
1272 1274
1274 3773
1274 5722
1275 1276
1275 1277
1275 1278
1275 1279
1276 1849
1276 3648
1276 4570
1278 2711
1278 3297
1278 3779
1278 5637
1279 1860
1279 3895
1279 4076
1281 1282
1281 1283
1281 1284
1281 1285
1285 1518
1285 3671
1285 4339
1285 5373
1286 1287
1287 1288
1287 1289
1288 3642
1288 4003
1288 4012
1288 4771
1290 1291
1290 5880
1291 1292
1292 3144
1293 1294
1293 3216
1293 5259
1293 5609
1295 1296
1295 1491
1295 1575
1295 1656
1295 1753
1295 1885
1295 2024
1295 2082
1295 2211
1295 2552
1295 2571
1295 2574
1295 2719
1295 2734
1295 2754
1295 2766
1295 2834
1295 2943
1295 2979
1295 3310
1295 3653
1295 3669
1295 4401
1295 5263
1295 5544
1296 1297
1296 1298
1296 1299
1300 1301
1300 5781
1303 1304
1305 1306
1305 1307
1307 4830
1308 1309
1308 1310
1308 1311
1308 1312
1308 1313
1309 2636
1309 2640
1309 4676
1310 4753
1311 1422
1311 1824
1311 2124
1311 2257
1311 2383
1311 3357
1311 3487
1311 3897
1311 5814
1315 1316
1315 4347
1316 1317
1318 1319
1319 1320
1320 4332
1321 1322
1321 1323
1322 2076
1322 2136
1322 2542
1322 2695
1322 2719
1322 2990
1322 4612
1322 5284
1322 5301
1323 2729
1323 3671
1324 1325
1326 1327
1326 4792
1328 1329
1328 1379
1328 1788
1328 2018
1328 3344
1328 4325
1329 1330
1331 1332
1333 1334
1333 1335
1334 2521
1336 1337
1336 3985
1337 1338
1339 1340
1340 1960
1340 1980
1341 1342
1341 1343
1343 5687
1344 1345
1344 1346
1345 2195
1345 2961
1345 4162
1345 4548
1346 2769
1346 2813
1346 3997
1346 4026
1346 5157
1347 1348
1349 1350
1352 1353
1352 1930
1352 3573
1352 5783
1354 1355
1355 3242
1358 1359
1358 1563
1358 1941
1358 2276
1358 3029
1358 3196
1358 3315
1358 4748
1359 1360
1359 1361
1359 1362
1359 1363
1359 1364
1360 5255
1361 5571
1363 1988
1363 2899
1363 3285
1364 1635
1364 1985
1364 2562
1364 2707
1364 4068
1364 4115
1364 4552
1364 5817
1366 1367
1366 1898
1369 1370
1369 3280
1369 5008
1369 5541
1370 1371
1371 1505
1371 2124
1371 2341
1371 3277
1371 3400
1372 1373
1372 1374
1373 1670
1374 5157
1375 1376
1375 1377
1376 1651
1376 2433
1376 3348
1376 4684
1376 5929
1379 1380
1379 1381
1379 1382
1379 1383
1379 1384
1379 1385
1381 2432
1381 2699
1381 4162
1383 1742
1383 2443
1383 2633
1383 3121
1383 3271
1383 3457
1384 2618
1384 4286
1384 4858
1385 2776
1385 2946
1386 1387
1387 1461
1387 2587
1388 1389
1388 1390
1389 3468
1389 4731
1391 1392
1394 1395
1394 1785
1395 1396
1395 1397
1397 2375
1397 4927
1398 1399
1398 1400
1398 1401
1398 1402
1398 1403
1398 1404
1398 1405
1398 1406
1398 1407
1398 1408
1398 1409
1400 1900
1401 1807
1402 5344
1404 3669
1405 1788
1405 2022
1406 2153
1408 4733
1408 5394
1408 5611
1409 2926
1409 3127
1409 5817
1410 1411
1410 1652
1414 1415
1414 1416
1414 1417
1415 1635
1415 1656
1415 2142
1415 3116
1415 3667
1415 3983
1415 4274
1416 2195
1416 2385
1416 3671
1416 5472
1417 1589
1417 2568
1417 4192
1419 1420
1419 1421
1421 3515
1421 5095
1425 1426
1425 2128
1426 1427
1428 1429
1428 3470
1428 3671
1428 5373
1430 1431
1430 1432
1431 4949
1432 3673
1434 1435
1436 1437
1436 5974
1437 1438
1437 1439
1437 1440
1438 5189
1439 2012
1439 2323
1440 2148
1442 1443
1444 1445
1444 5218
1445 1446
1446 2715
1446 4042
1446 5593
1448 1449
1449 1450
1451 1452
1451 5247
1453 1454
1453 1565
1453 2893
1453 3855
1453 5247
1453 6086
1454 1455
1454 1456
1454 1457
1455 2056
1455 2780
1455 5546
1455 5738
1456 4472
1456 6269
1457 1934
1457 2052
1458 1459
1458 4951
1461 1462
1461 1463
1461 1464
1462 1548
1462 2076
1462 2115
1462 2765
1462 3573
1462 3671
1462 4402
1462 4792
1463 3177
1464 3239
1465 1466
1465 4919
1467 1468
1467 1469
1468 2003
1468 2265
1469 1548
1469 2896
1469 3416
1469 3843
1469 4177
1470 1471
1470 1472
1470 1473
1471 1740
1471 2142
1471 2873
1471 3196
1471 3315
1471 4539
1474 1475
1474 1548
1474 2100
1474 3143
1474 5651
1476 1477
1478 1479
1479 3684
1479 4851
1480 1481
1481 1663
1481 2191
1482 1483
1485 1486
1485 1487
1485 1488
1485 1489
1486 4545
1486 4705
1487 1826
1489 2443
1489 2839
1489 3500
1489 4367
1489 4661
1489 4891
1489 5034
1490 1491
1490 3294
1490 5137
1491 1492
1491 1493
1491 1494
1491 1495
1492 1742
1492 1980
1492 1997
1492 3301
1492 4896
1492 5346
1493 2995
1493 4994
1494 3922
1494 5072
1494 5742
1495 1753
1495 1781
1495 2443
1495 2587
1495 2642
1495 2779
1495 2878
1495 3786
1495 3953
1495 3974
1495 4026
1495 4102
1495 4140
1495 4165
1495 4518
1495 4979
1495 5409
1495 5653
1496 1497
1497 4307
1498 1499
1500 1501
1502 1503
1502 2728
1502 2783
1504 1505
1504 1579
1504 3324
1505 1506
1505 1507
1506 3395
1507 1652
1508 1509
1508 1510
1508 1511
1511 4463
1511 4749
1512 1513
1512 1514
1513 4466
1513 5153
1515 1516
1515 3396
1516 1517
1517 4337
1518 1519
1518 1520
1518 1521
1518 1522
1518 1523
1518 1524
1518 1525
1518 1526
1518 1527
1520 3978
1520 4041
1520 4839
1521 2555
1521 2715
1521 2878
1521 3067
1521 3097
1521 3105
1521 3181
1521 3185
1521 3197
1521 3275
1521 3596
1521 3723
1521 3829
1521 4266
1521 4295
1521 4313
1521 4346
1521 4369
1521 4392
1521 4500
1521 4503
1521 4556
1521 4650
1521 4656
1521 4826
1521 4856
1521 4995
1521 5248
1521 5457
1521 5514
1521 5703
1521 5712
1521 5731
1521 5808
1521 5904
1523 1836
1523 2402
1523 2802
1523 2920
1523 3178
1523 3781
1523 3792
1523 4002
1523 4428
1523 4671
1523 4751
1523 5431
1523 5763
1523 5836
1524 2831
1524 4102
1529 1530
1529 1531
1529 1532
1531 1776
1531 4613
1532 5036
1534 1535
1535 3385
1538 1539
1538 1540
1539 3067
1539 3602
1540 2841
1540 3477
1540 4642
1540 5599
1541 1542
1541 4182
1543 1544
1543 1545
1544 4232
1546 1547
1547 2417
1548 1549
1548 1550
1548 1551
1550 2156
1550 2574
1550 3166
1550 4792
1552 1553
1552 1554
1554 2368
1554 2562
1554 4180
1555 1556
1556 2376
1556 4658
1557 1558
1558 1559
1558 1560
1558 1561
1559 4565
1560 1636
1560 1732
1560 1875
1560 2118
1560 2204
1560 2211
1560 2315
1560 2455
1560 2593
1560 2611
1560 2745
1560 3553
1560 3929
1560 4064
1560 4639
1560 4774
1560 4915
1560 5057
1560 5380
1560 5810
1561 3125
1564 1565
1564 3489
1564 3669
1564 3880
1564 4640
1565 1566
1565 1567
1565 1568
1566 3388
1567 2950
1567 3477
1567 5242
1568 2828
1568 5523
1569 1570
1569 1571
1570 2734
1570 4083
1573 1574
1574 4208
1575 1576
1575 1577
1575 1578
1577 2045
1577 2318
1577 2334
1577 2360
1577 2524
1577 2756
1577 2799
1577 3365
1577 4464
1577 5267
1578 2854
1578 4026
1580 1581
1580 1582
1582 1882
1582 2179
1582 3039
1582 3478
1582 4705
1582 4757
1582 5776
1583 1584
1583 2368
1583 3746
1584 1585
1584 1586
1584 1587
1586 1888
1586 2214
1586 2460
1586 2670
1586 3012
1586 4647
1588 1589
1589 1590
1589 1591
1590 2929
1591 1627
1591 2717
1591 2729
1591 2977
1591 4307
1592 1593
1592 1594
1592 1595
1592 1596
1593 1862
1593 2405
1593 2834
1593 2868
1593 3272
1593 4792
1594 2315
1594 2333
1594 2661
1594 4774
1594 5389
1596 1845
1596 2915
1596 3059
1596 3313
1596 5036
1597 1598
1597 1599
1598 1900
1598 2227
1598 2728
1598 3349
1598 5114
1598 5381
1599 1670
1599 2256
1599 3630
1599 4297
1599 4461
1601 1602
1601 1603
1601 1604
1601 1605
1601 1606
1601 1607
1603 1616
1603 2118
1603 2358
1603 3239
1603 3451
1603 4780
1603 5496
1604 2406
1604 2662
1608 1609
1611 1612
1611 1613
1612 1811
1612 2676
1617 1618
1617 1619
1620 1621
1621 1742
1621 3599
1621 4166
1621 4949
1621 5028
1623 1624
1623 3671
1624 1625
1625 2248
1625 5408
1627 1628
1633 1634
1637 1638
1637 1639
1641 1642
1641 1643
1641 1644
1643 5017
1645 1646
1648 1649
1653 1654
1653 1655
1654 3754
1654 4185
1654 5100
1655 4626
1656 1657
1657 1703
1657 2030
1657 2244
1657 2320
1657 2406
1657 2443
1657 2815
1657 3673
1657 4792
1657 4870
1657 5119
1657 5167
1657 5523
1660 1661
1661 1662
1664 1665
1664 2564
1664 2820
1664 2936
1664 4444
1664 4520
1664 5284
1665 1666
1665 1667
1665 1668
1665 1669
1666 2651
1666 3065
1666 3594
1670 1671
1670 1672
1674 1675
1675 2837
1675 3519
1675 5872
1677 1678
1677 2148
1680 1681
1680 1913
1680 2645
1680 3329
1681 1682
1682 1719
1684 1685
1684 1686
1685 5531
1686 2346
1686 2431
1687 1688
1688 1689
1688 1690
1688 1691
1690 2087
1690 4459
1692 1693
1696 1697
1696 1698
1697 2360
1698 1970
1698 3668
1698 5659
1699 1700
1699 1762
1699 2558
1699 2878
1699 4949
1700 1701
1701 2780
1701 3866
1701 6380
1702 1703
1702 4029
1705 1706
1705 2699
1705 3742
1708 1709
1708 1710
1711 1712
1711 5388
1713 1714
1714 3082
1715 1716
1717 1718
1718 3853
1718 4714
1718 5071
1718 5119
1718 5861
1719 1720
1721 1722
1721 1723
1723 3557
1723 3849
1723 3950
1723 4898
1723 5050
1723 5439
1723 5599
1723 5788
1725 1726
1727 1728
1727 1729
1728 2057
1728 2395
1730 1731
1734 1735
1736 1737
1736 3157
1738 1739
1738 1863
1738 1988
1738 2121
1738 3472
1738 3543
1738 4069
1738 4300
1738 4639
1742 1743
1742 1744
1743 2217
1744 1954
1744 2334
1744 3853
1744 5119
1745 1746
1747 1748
1747 1749
1747 1750
1747 1751
1748 2587
1748 3422
1748 5662
1749 2836
1749 4542
1753 1754
1753 1755
1754 2121
1754 3708
1754 3984
1754 5133
1755 2082
1755 2522
1755 2674
1755 2867
1755 3825
1755 4464
1756 1757
1759 1760
1760 2547
1760 2839
1760 3900
1760 5315
1762 1763
1763 3288
1763 4032
1763 5370
1763 5877
1765 1766
1766 1767
1767 3033
1769 1770
1769 5827
1771 1772
1772 1773
1773 4989
1773 5268
1774 2407
1774 5095
1775 1776
1776 1777
1776 1778
1776 1779
1776 1780
1777 4652
1781 1782
1782 2193
1783 1784
1785 1786
1786 1863
1786 3085
1788 1789
1788 1790
1788 1791
1788 1792
1788 1793
1789 2872
1791 5036
1792 2780
1793 2728
1793 5632
1794 1795
1795 1796
1796 4055
1796 5506
1797 1798
1798 1976
1798 2255
1798 2402
1798 2497
1798 3166
1798 3827
1798 5523
1799 1800
1799 1801
1800 2867
1802 1803
1802 3029
1802 3561
1803 1804
1804 3827
1808 1809
1812 1813
1813 1814
1813 1815
1813 1816
1815 2872
1815 3780
1815 4388
1815 5082
1815 5334
1816 3252
1817 1818
1817 2872
1817 4184
1817 5004
1818 1819
1818 1820
1818 1821
1820 2248
1820 2642
1820 3125
1820 3660
1820 4380
1820 5176
1821 2393
1821 3974
1822 1823
1822 1898
1822 2261
1822 2424
1822 2802
1822 2834
1822 2935
1822 3029
1822 3564
1822 4075
1822 4661
1824 1825
1826 1827
1826 1828
1826 1829
1826 1830
1826 1831
1826 1832
1826 1833
1827 3974
1831 1834
1831 4356
1831 4673
1831 5415
1834 1835
1835 1888
1835 2179
1835 2850
1835 3079
1835 3477
1835 4538
1836 1837
1837 2868
1837 2873
1837 2963
1838 1839
1839 3193
1839 3420
1840 1841
1842 1843
1843 2433
1844 1845
1844 2360
1846 1847
1846 3315
1846 3793
1846 4686
1846 4728
1846 4992
1848 1849
1848 3996
1849 1850
1849 1851
1849 1852
1853 1854
1853 2676
1853 3053
1853 5798
1854 1855
1854 1856
1856 5443
1857 1858
1857 1859
1858 2677
1858 3505
1858 3762
1859 2894
1859 4751
1861 1862
1863 1864
1863 1865
1864 5191
1865 2531
1865 3444
1865 4248
1866 1867
1868 1869
1871 1872
1873 1874
1876 1877
1878 1879
1878 4483
1878 4817
1878 5718
1879 1880
1879 1881
1880 1927
1880 3657
1880 4783
1880 5062
1880 5400
1880 5795
1880 5804
1881 1950
1881 2786
1882 1883
1882 1884
1884 5871
1885 1886
1885 1887
1886 2651
1886 5430
1888 1889
1888 1890
1889 1926
1889 2156
1889 3029
1891 1892
1891 4946
1891 4976
1891 5537
1893 1894
1893 5058
1893 5069
1894 1895
1894 1896
1896 4336
1896 4685
1898 1899
1899 3181
1899 4035
1900 1901
1900 1902
1900 1903
1903 2265
1904 1905
1905 2420
1905 4586
1906 1907
1906 1908
1906 1909
1906 1910
1906 1911
1906 1912
1907 3668
1907 3824
1907 4183
1907 4290
1907 4296
1907 5107
1907 5231
1907 6350
1910 2690
1911 2076
1911 5380
1912 2233
1912 2837
1912 5144
1912 5646
1912 5817
1913 1914
1913 1915
1915 2407
1915 2732
1915 4909
1918 1919
1919 6275
1920 1921
1920 1922
1921 2114
1923 1924
1927 1928
1927 1929
1930 1931
1931 4622
1934 1935
1936 1937
1936 2450
1936 3140
1936 3489
1936 4563
1936 5480
1937 1938
1939 1940
1940 2649
1940 5691
1941 1942
1941 1943
1942 4644
1943 2409
1943 2994
1943 3987
1943 4019
1944 1945
1946 1947
1946 3384
1946 3953
1946 5284
1946 5789
1949 1950
1949 2146
1949 3248
1949 3338
1949 3360
1949 3666
1949 3706
1949 3757
1949 4026
1949 4488
1949 5034
1949 5523
1951 1952
1953 1954
1954 1955
1955 3039
1955 5119
1955 5600
1955 5839
1956 1957
1956 1958
1957 2956
1957 5610
1957 5658
1958 2310
1960 1961
1960 1962
1961 3356
1961 4006
1963 1964
1963 2715
1965 1966
1965 2636
1966 1967
1966 1968
1967 3720
1968 4019
1969 1970
1969 5814
1972 1973
1972 1974
1973 3691
1975 1976
1976 1977
1976 1978
1977 2334
1977 2952
1978 3404
1980 1981
1984 1985
1984 2193
1984 5497
1986 1987
1987 3716
1987 4221
1987 4767
1988 1989
1990 1991
1990 4985
1991 1992
1992 5160
1993 1994
1993 1995
1993 1996
1995 2633
1995 3179
1996 2956
1998 1999
2001 2002
2002 3682
2004 2005
2004 4482
2005 2006
2005 2007
2007 2311
2008 2009
2008 3075
2008 3112
2008 3289
2008 3639
2008 3890
2008 4803
2008 5635
2009 2010
2010 2876
2010 3384
2010 3621
2010 4810
2010 5507
2011 2012
2014 2015
2015 2016
2015 2017
2016 5249
2018 2019
2018 2020
2018 2021
2019 4324
2019 4787
2025 2026
2026 2027
2026 2028
2027 5741
2030 2031
2030 2032
2031 3277
2031 3955
2032 2950
2032 3766
2032 4842
2033 2034
2035 2036
2037 2038
2037 2039
2037 2040
2038 4346
2040 3617
2040 4894
2040 5192
2041 2042
2042 2147
2042 3035
2042 4281
2043 2044
2047 2048
2047 2049
2047 2050
2050 5725
2054 2055
2055 2061
2055 2115
2055 2118
2055 4807
2058 2059
2058 2060
2059 3509
2059 3762
2059 3788
2059 4911
2060 3865
2061 2062
2061 2063
2064 2065
2064 2455
2064 4652
2066 2067
2066 2068
2066 2069
2066 2070
2067 2789
2069 2460
2071 2072
2072 2719
2072 5150
2073 2074
2073 6265
2074 2075
2076 2077
2076 2078
2078 2310
2078 3179
2078 3887
2078 4102
2078 4276
2080 2081
2083 2084
2083 3398
2083 3941
2084 2085
2085 3289
2086 2087
2086 2237
2087 2088
2087 2089
2087 2090
2087 2091
2089 2920
2089 4141
2089 4860
2089 5642
2090 2255
2090 2360
2090 4133
2090 4259
2090 5171
2090 5816
2091 2662
2091 2950
2091 5627
2092 2093
2092 2094
2092 2095
2093 2212
2093 2432
2093 2674
2093 3159
2093 3360
2093 4207
2094 4018
2094 5164
2095 2568
2096 2097
2098 2099
2101 2102
2102 3779
2103 2104
2105 2106
2105 2887
2106 2107
2106 2108
2106 2109
2110 2111
2111 2112
2111 2113
2113 2128
2113 3197
2113 3356
2113 3398
2113 4334
2113 4650
2113 4893
2115 2116
2115 2117
2117 2388
2117 2717
2121 2122
2122 2261
2122 2799
2122 4970
2124 2125
2125 5339
2127 2128
2127 2148
2128 2129
2128 2130
2130 2454
2131 2132
2131 2133
2132 3029
2133 2692
2133 2723
2133 3029
2133 3779
2133 4355
2134 2135
2136 2137
2136 2138
2136 2139
2137 2868
2137 5647
2138 2574
2138 3846
2140 2141
2142 2143
2142 2144
2142 2145
2144 2151
2144 2524
2144 3870
2144 4571
2145 2612
2148 2149
2149 2887
2149 3833
2149 4332
2151 2152
2153 2154
2154 2297
2154 2456
2154 3457
2154 5130
2154 5690
2156 2157
2156 2158
2156 2159
2156 2160
2156 2161
2157 2402
2157 5877
2158 2910
2159 4455
2160 3197
2160 4668
2162 2163
2162 2199
2162 3138
2162 4495
2162 5063
2164 2165
2164 2166
2164 2167
2164 2168
2165 4298
2165 4706
2165 5498
2168 5594
2169 2170
2169 2628
2169 3713
2171 2172
2171 3536
2173 2174
2174 2343
2174 3039
2174 3704
2174 3943
2174 5515
2175 2176
2176 2611
2176 3890
2177 2178
2179 2180
2179 2181
2180 2519
2180 3609
2180 4086
2181 3495
2181 5255
2181 5521
2183 2184
2184 2185
2186 2187
2186 2188
2187 3232
2187 3277
2187 3621
2187 4954
2187 5452
2188 3010
2188 4306
2191 2192
2192 2712
2192 3205
2192 3804
2192 4236
2192 4305
2192 4697
2192 5586
2192 5774
2193 2194
2194 4310
2195 2196
2195 2197
2195 2198
2198 5802
2200 2201
2200 4899
2201 2202
2203 2204
2204 2205
2204 2206
2204 2207
2205 2334
2205 3788
2207 3098
2207 5029
2207 5653
2207 5725
2208 2209
2208 2734
2208 3660
2208 3789
2208 5290
2208 6269
2209 2210
2212 2213
2215 2216
2217 2218
2217 2219
2217 2220
2217 2221
2217 2222
2217 2223
2217 2224
2218 3621
2220 2895
2220 5472
2221 2265
2221 2810
2221 3671
2221 3957
2221 4750
2221 5619
2224 3393
2224 3831
2224 4023
2225 2226
2227 2228
2230 2231
2230 2607
2232 2233
2232 3679
2233 2234
2233 2235
2233 2236
2234 2281
2234 2929
2234 3078
2236 4203
2236 5050
2236 5138
2237 2238
2239 2240
2240 2241
2241 4052
2242 2243
2243 2587
2243 2716
2243 2914
2243 2936
2243 3742
2243 3974
2243 4139
2243 5184
2243 5366
2245 2246
2248 2249
2248 2250
2249 4307
2250 2397
2250 2494
2250 3910
2250 3974
2250 4041
2250 4129
2250 4696
2250 5290
2253 2254
2258 2259
2259 2260
2260 3725
2260 4729
2262 2263
2262 2264
2265 2266
2265 2267
2265 2268
2265 2269
2265 2270
2268 2407
2269 2872
2270 4369
2270 4660
2270 5343
2271 2272
2271 2273
2271 2274
2272 2544
2272 2899
2272 4920
2272 5745
2276 2277
2276 2278
2276 2279
2282 2283
2283 3404
2283 3513
2288 2289
2288 3312
2291 2292
2291 2486
2291 3039
2292 2293
2294 2295
2294 2296
2295 3340
2297 2298
2299 2300
2300 2924
2300 5659
2301 2302
2301 2836
2301 2876
2301 3491
2301 3724
2303 2304
2303 2305
2304 2603
2304 2642
2304 3499
2304 5408
2305 3303
2305 3602
2305 4357
2307 2308
2309 2310
2311 2312
2311 2313
2311 2314
2312 4057
2316 2317
2318 2319
2321 2322
2323 2324
2323 2325
2323 2326
2323 2327
2326 4201
2326 5578
2328 2329
2330 2331
2330 2878
2331 2332
2332 2450
2332 2933
2332 3905
2332 5238
2332 5467
2334 2335
2335 4009
2336 2337
2338 2339
2339 2340
2341 2342
2342 5358
2343 2344
2343 2345
2345 3243
2345 4826
2345 5221
2345 5410
2347 2348
2347 5865
2349 2350
2349 3071
2349 3642
2350 2351
2350 2352
2350 2353
2351 3029
2351 3490
2351 3660
2351 4075
2357 2358
2358 2359
2360 2361
2360 2362
2360 2363
2361 2374
2365 2366
2366 2367
2368 2369
2368 2370
2369 3462
2369 4018
2369 4660
2371 2372
2371 2667
2379 2380
2379 2381
2380 4232
2383 2384
2384 2645
2384 2983
2384 3962
2384 5792
2385 2386
2385 2387
2387 2750
2388 2389
2388 2390
2391 2392
2391 4273
2391 4666
2391 4949
2394 2395
2395 2396
2396 3862
2396 4298
2397 2398
2399 2400
2402 2403
2402 2404
2403 2858
2403 3062
2403 5482
2408 2409
2410 2411
2410 3520
2411 2412
2411 2413
2412 2916
2413 3218
2413 5053
2414 2415
2414 3602
2414 3969
2414 6191
2418 2419
2419 4293
2419 4826
2419 5342
2419 5666
2421 2422
2421 2423
2422 2761
2424 2425
2428 2429
2430 2431
2430 2966
2434 2435
2437 2438
2440 2441
2441 2442
2445 2446
2445 4464
2447 2448
2449 2450
2450 2451
2450 2452
2451 4397
2452 4993
2453 2454
2453 5228
2453 5834
2456 2457
2456 2458
2458 3388
2458 4031
2458 4834
2459 2460
2460 2461
2460 2462
2460 2463
2460 2464
2460 2465
2460 2466
2465 5085
2467 2468
2467 2568
2467 2631
2467 2950
2470 2471
2473 2474
2474 2475
2475 3715
2475 5514
2476 2477
2476 3780
2476 3857
2476 4253
2477 2478
2478 3476
2478 3510
2478 4020
2478 5522
2478 5599
2480 2481
2480 4391
2480 4452
2480 4678
2480 5072
2482 2483
2482 3046
2482 5307
2482 5346
2482 5357
2484 2485
2485 5415
2487 2488
2490 2491
2490 3258
2491 2492
2492 3018
2492 3189
2492 3266
2492 3320
2492 3528
2492 4404
2492 4549
2492 4870
2492 4891
2494 2495
2496 2497
2497 2498
2497 2499
2497 2500
2498 2839
2498 3100
2498 3166
2498 4187
2498 4340
2498 4356
2498 4975
2498 5003
2498 5023
2498 5290
2499 2839
2499 3012
2499 3669
2499 4538
2499 4828
2501 2502
2502 3782
2503 2504
2505 2506
2508 2509
2509 2510
2513 2514
2513 4010
2515 2516
2515 2517
2515 2518
2516 3374
2516 4160
2516 4509
2516 5468
2517 3039
2518 3624
2518 3628
2519 2520
2520 4123
2522 2523
2523 5354
2524 2525
2524 2526
2525 3330
2525 3472
2526 2677
2526 2834
2527 2528
2528 3115
2528 3277
2530 2531
2530 3789
2530 4781
2535 2536
2536 4140
2536 4165
2536 5716
2537 2538
2539 2540
2545 2546
2548 2549
2548 3665
2548 4325
2548 5059
2548 5399
2549 2550
2549 2551
2551 2657
2551 2830
2551 3085
2553 2554
2555 2556
2555 2557
2556 2580
2556 3039
2556 3046
2556 4002
2556 5813
2558 2559
2558 2560
2558 2561
2560 5647
2565 2566
2565 5929
2567 2568
2568 2569
2568 2570
2569 4530
2569 4711
2569 5401
2569 5756
2570 2916
2570 4127
2572 2573
2574 2575
2574 2576
2574 2577
2575 2734
2575 4339
2578 2579
2582 2583
2582 3295
2583 2584
2584 3384
2585 2586
2587 2588
2587 2589
2588 2910
2588 5315
2589 2719
2589 2864
2589 3272
2589 3569
2589 4455
2589 5321
2589 5600
2590 2591
2591 2592
2593 2594
2593 2595
2593 2596
2593 2597
2593 2598
2593 2599
2593 2600
2594 3247
2594 3377
2594 3682
2594 5073
2594 5082
2595 2709
2595 4436
2597 2887
2597 3880
2597 4295
2597 4948
2597 5261
2607 2608
2607 2609
2607 2610
2608 3201
2610 5453
2612 2613
2613 3520
2614 2615
2614 3696
2615 2616
2618 2619
2618 2620
2618 2621
2618 2622
2621 4058
2621 5653
2623 2624
2623 2625
2625 4002
2627 2628
2627 4046
2629 2630
2631 2632
2636 2637
2636 2638
2637 4491
2640 2641
2642 2643
2642 2644
2644 5592
2646 2647
2646 3484
2646 3609
2646 4098
2646 4102
2646 4333
2646 5232
2646 5604
2647 2648
2651 2652
2654 2655
2655 3229
2655 3316
2655 3987
2655 4585
2655 4775
2656 2657
2658 2659
2660 2661
2662 2663
2662 2664
2663 3430
2664 3886
2664 4037
2665 2666
2666 3602
2666 4421
2668 2669
2668 3602
2671 2672
2671 2673
2672 3623
2674 2675
2677 2678
2677 2679
2677 2680
2678 2765
2678 4026
2681 2682
2686 2687
2688 2689
2691 2692
2693 2694
2695 2696
2696 3319
2696 4622
2697 2698
2699 2700
2699 2701
2701 2797
2702 2703
2705 2706
2705 3077
2705 4595
2705 5880
2707 2708
2712 2713
2712 2714
2717 2718
2719 2720
2720 3626
2720 3980
2721 2722
2724 2725
2726 2727
2730 2731
2731 4031
2736 2737
2736 2738
2736 2739
2739 2899
2739 3545
2739 4444
2739 4752
2739 5350
2739 5817
2740 2741
2740 2742
2743 2744
2745 2746
2746 2806
2746 2815
2747 2748
2751 2752
2751 3659
2751 3912
2754 2755
2759 2760
2762 2763
2762 3653
2767 2768
2768 3514
2768 3559
2768 3841
2768 4425
2769 2770
2771 2772
2772 2834
2772 3144
2772 5879
2773 2774
2773 2775
2774 2977
2774 3233
2774 3891
2774 4531
2774 4971
2774 5430
2775 4153
2780 2781
2783 2784
2785 2786
2785 4328
2785 4756
2786 2787
2787 4998
2790 2791
2790 2792
2791 3573
2791 4971
2791 5105
2791 5573
2793 2794
2795 2796
2797 2798
2798 5738
2800 2801
2803 2804
2804 3621
2805 2806
2805 3108
2805 4306
2808 2809
2808 3366
2808 4812
2808 6325
2813 2814
2815 2816
2815 2817
2816 3692
2816 4172
2816 4736
2816 5414
2818 2819
2819 5446
2820 2821
2821 5174
2822 2823
2827 2828
2828 2829
2832 2833
2834 2835
2838 2839
2838 3056
2842 2843
2842 2844
2844 3222
2845 2846
2845 2847
2845 2848
2846 4414
2847 4915
2848 3621
2849 2850
2852 2853
2855 2856
2859 2860
2861 2862
2861 3507
2862 2863
2863 2902
2863 3003
2865 2866
2866 4021
2868 2869
2868 2870
2868 2871
2871 3315
2871 4116
2871 5671
2873 2874
2873 2875
2878 2879
2878 2880
2878 2881
2878 2882
2878 2883
2878 2884
2878 2885
2878 2886
2879 5098
2879 5297
2879 5321
2879 5458
2883 4317
2883 4346
2883 4405
2886 3986
2886 4436
2886 5158
2886 5373
2887 2888
2888 4164
2888 4319
2888 5572
2888 5580
2891 2892
2896 2897
2898 2899
2900 2901
2903 2904
2903 3046
2903 4537
2903 5036
2904 2905
2906 2907
2908 2909
2909 3292
2911 2912
2911 3166
2911 3429
2912 2913
2913 5756
2917 2918
2917 3416
2919 2920
2919 2981
2921 2922
2921 2923
2923 3952
2923 4536
2926 2927
2926 2928
2927 3194
2930 2931
2930 2932
2934 2935
2936 2937
2936 2938
2939 2940
2939 5316
2940 2941
2942 2943
2942 4764
2942 5091
2943 2944
2943 2945
2946 2947
2947 4266
2947 4979
2948 2949
2949 3368
2950 2951
2951 5321
2953 2954
2956 2957
2956 2958
2957 3299
2957 5428
2958 3629
2959 2960
2960 4157
2960 4915
2960 5034
2960 5528
2964 2965
2967 4249
2967 5070
2967 5212
2967 5605
2967 5738
2969 3609
2969 3988
2969 5171
2971 2972
2972 4203
2975 2976
2981 2982
2982 5250
2983 2984
2987 2988
2988 3382
2990 2991
2997 2998
2997 2999
3000 3001
3001 3002
3004 3005
3006 3007
3007 3008
3007 3009
3009 4198
3013 3014
3014 3015
3016 3017
3016 3487
3016 4474
3016 5150
3016 5454
3019 3020
3022 3023
3022 4495
3022 4771
3024 3787
3026 5681
3027 3028
3028 5003
3029 3030
3031 3032
3034 3035
3039 3040
3039 3041
3039 3042
3039 3043
3042 5036
3044 3045
3045 5238
3045 5352
3045 5751
3046 3047
3047 4491
3051 3052
3054 3055
3056 3057
3059 3060
3062 3063
3062 3064
3063 5366
3064 3748
3067 3068
3067 3069
3067 3070
3069 4455
3072 3073
3072 3274
3072 4356
3074 3075
3074 3933
3074 4773
3075 3076
3080 3081
3082 3083
3085 3086
3085 3087
3085 3088
3086 4767
3091 3092
3093 3094
3096 3097
3100 3101
3101 4706
3102 3103
3104 3105
3105 3106
3105 3107
3106 3837
3109 3110
3110 3111
3111 4451
3113 3114
3117 3118
3117 3119
3118 3567
3118 3902
3118 5634
3118 5680
3121 3122
3121 3123
3126 3127
3126 3250
3126 5514
3128 3129
3129 3331
3129 3846
3129 4632
3130 3131
3130 3491
3130 3724
3130 4244
3130 4932
3130 5426
3131 3132
3132 3333
3134 3135
3136 3137
3138 3139
3141 3142
3145 3146
3145 3417
3145 3651
3146 3147
3149 3150
3149 3393
3149 3965
3149 4403
3150 3151
3151 4808
3154 3155
3154 4259
3154 5647
3157 3158
3159 3160
3161 3162
3162 3428
3162 5616
3163 3164
3163 4406
3163 5611
3165 3166
3166 3167
3166 3168
3166 3169
3166 3170
3166 3171
3166 3172
3166 3173
3167 4526
3174 3175
3174 3520
3174 3764
3174 4274
3175 3176
3179 3180
3183 3184
3189 3190
3190 3536
3190 4280
3190 5709
3201 3202
3201 3203
3204 3205
3204 4520
3205 3206
3207 3208
3207 4386
3207 5053
3209 3210
3209 4031
3209 4114
3209 4479
3209 4569
3209 5819
3211 3212
3211 5321
3213 3214
3213 6130
3216 3217
3223 3224
3225 3226
3225 3227
3225 3228
3226 3495
3226 4277
3226 5366
3228 4181
3228 5509
3233 3234
3235 3236
3235 3716
3238 3239
3244 3245
3244 3246
3245 4239
3246 4269
3248 3249
3252 3253
3252 3254
3252 3255
3252 3256
3252 3257
3258 3259
3259 3340
3259 3674
3259 5092
3261 3262
3262 3354
3262 4124
3266 3267
3267 5171
3267 5759
3272 3273
3273 3671
3277 3278
3277 3279
3280 3281
3282 3283
3283 3284
3284 5168
3284 5369
3289 3290
3298 3299
3298 5578
3299 3300
3301 3302
3304 3305
3306 3307
3307 5472
3308 3309
3311 3312
3316 3317
3318 3319
3318 3878
3318 4917
3322 3323
3324 3325
3326 3327
3327 3328
3334 3335
3334 3391
3334 4630
3334 4884
3334 5333
3334 5457
3336 3337
3339 3340
3339 3470
3339 5036
3340 3341
3341 3513
3342 3343
3344 3345
3345 3545
3345 3776
3345 4203
3345 5290
3345 5485
3346 3347
3347 5458
3349 3350
3349 3351
3350 4435
3351 3874
3353 3354
3358 3359
3360 3361
3360 3362
3362 4890
3363 3364
3366 3367
3368 3369
3368 3370
3370 5105
3370 5519
3371 3372
3373 3374
3373 5279
3373 5849
3374 3375
3377 3378
3379 3380
3380 3381
3382 3383
3385 3386
3385 3387
3386 3912
3386 3972
3392 3393
3396 3397
3398 3399
3399 3866
3399 4197
3399 4856
3401 3402
3403 3404
3404 3405
3404 3406
3404 3407
3408 3409
3410 3411
3410 4186
3412 3413
3412 3420
3414 3415
3419 3420
3419 5214
3421 3422
3423 3424
3425 3426
3425 4395
3425 4767
3425 4962
3425 6314
3426 3427
3430 3431
3430 3432
3435 3436
3436 5835
3437 3438
3441 3442
3442 3742
3442 5498
3443 3444
3445 3446
3446 3447
3448 3449
3450 3451
3452 3453
3453 3454
3455 3456
3458 3459
3458 3758
3459 3460
3462 3463
3465 3466
3466 5671
3472 3473
3472 3474
3472 3475
3474 6347
3479 3480
3480 4217
3485 3486
3487 3488
3488 4082
3492 3493
3493 3494
3497 3498
3501 3502
3502 3503
3502 3504
3506 3507
3506 5821
3507 3508
3515 3516
3515 3517
3520 3521
3523 3524
3525 3526
3526 3527
3528 3529
3529 4427
3530 3531
3533 3534
3534 3535
3539 3540
3541 3542
3548 3549
3548 5662
3553 3554
3556 3557
3558 3559
3559 3560
3562 3563
3565 3566
3566 3960
3567 3568
3568 5342
3572 3573
3573 3574
3573 3575
3573 3576
3573 3577
3574 6252
3576 5487
3580 3581
3583 3584
3585 3586
3586 3587
3588 3589
3590 3591
3590 4722
3592 3593
3593 4364
3597 3598
3599 3600
3600 5340
3600 5655
3600 5711
3602 3603
3602 3604
3602 3605
3602 3606
3602 3607
3607 4500
3607 4610
3607 5834
3608 3609
3609 3610
3609 3611
3609 3612
3609 3613
3609 3614
3609 3615
3610 3859
3621 3622
3622 5607
3624 3625
3626 3627
3627 4207
3633 3634
3634 5486
3636 3637
3637 3638
3639 3640
3640 4946
3641 3642
3643 3644
3646 3647
3649 3650
3651 3652
3660 3661
3663 3664
3663 4987
3663 5093
3663 5221
3671 3672
3676 3677
3676 5528
3677 3678
3678 3943
3678 5624
3679 3680
3679 3681
3682 3683
3684 3685
3684 3686
3684 3687
3688 3689
3694 3695
3700 3701
3700 5358
3704 3705
3708 3709
3708 3710
3711 3712
3714 3715
3716 3717
3716 3718
3717 4422
3717 4549
3717 4870
3719 3720
3721 3722
3725 3726
3726 5280
3728 3729
3729 4175
3729 5321
3730 3731
3732 3733
3735 3736
3736 5343
3737 3738
3739 3740
3739 3741
3741 5413
3742 3743
3742 3744
3742 3745
3747 3748
3747 4086
3747 5792
3749 3750
3750 3751
3751 5459
3752 3753
3755 3756
3759 3760
3761 3762
3761 5358
3766 3767
3768 3769
3771 3772
3771 5715
3773 3774
3773 3775
3776 3777
3783 3784
3790 3791
3796 3797
3798 3799
3801 3802
3801 3803
3806 3807
3806 4192
3808 3809
3809 3810
3810 5162
3811 3812
3811 4715
3816 3817
3819 3820
3821 3822
3825 3826
3827 3828
3829 3830
3832 3833
3832 3880
3833 3834
3835 3836
3837 3838
3837 3839
3837 3840
3844 3845
3844 4836
3846 3847
3850 3851
3855 3856
3860 3861
3863 3864
3866 3867
3866 3868
3867 4172
3869 3870
3872 3873
3874 3875
3876 3877
3880 3881
3882 3883
3883 3884
3888 3889
3891 3892
3893 3894
3893 3961
3897 3898
3897 3899
3898 5721
3899 5504
3901 3902
3903 3904
3904 4322
3907 3908
3907 5597
3909 3910
3912 3913
3912 3914
3915 3916
3917 3918
3918 3919
3918 3920
3921 3922
3921 4529
3921 5463
3921 5544
3921 5757
3922 3923
3922 3924
3922 3925
3926 3927
3929 3930
3930 4361
3931 3932
3935 3936
3935 3937
3936 4994
3937 4064
3937 5067
3938 3939
3938 3985
3941 3942
3943 3944
3945 3946
3945 5647
3947 3948
3950 3951
3951 6086
3953 3954
3955 3956
3956 5358
3958 3959
3958 4910
3958 5043
3962 3963
3963 4668
3964 3965
3964 5363
3965 3966
3967 3968
3970 3971
3974 3975
3974 3976
3974 3977
3976 5184
3980 3981
3988 3989
3990 3991
3992 3993
4000 4001
4008 4009
4008 4244
4008 4384
4008 4391
4008 4542
4010 4011
4011 5563
4012 4013
4016 4017
4022 4023
4026 4027
4026 4028
4037 4038
4048 4049
4049 4050
4049 4051
4053 4054
4054 5881
4059 4060
4061 4062
4065 4066
4065 4067
4067 5183
4070 4071
4076 4077
4080 4081
4084 4085
4088 4089
4090 4091
4099 4100
4099 4387
4100 4101
4102 4103
4104 4105
4104 4170
4106 4107
4108 4109
4109 4110
4110 4275
4110 5038
4112 4113
4116 4117
4118 4119
4119 4120
4121 4122
4124 4125
4124 4126
4125 4399
4125 4486
4125 4771
4126 4253
4131 4132
4133 4134
4142 4143
4142 4258
4144 4145
4144 4146
4147 4148
4147 6243
4149 4150
4151 4152
4153 4154
4153 4155
4155 5647
4156 4157
4157 4158
4157 4159
4162 4163
4166 4167
4172 4173
4172 4174
4175 4176
4176 4993
4187 4188
4189 4190
4189 4713
4189 5758
4193 4194
4195 4196
4199 4200
4199 4590
4201 4202
4203 4204
4203 4205
4203 4206
4210 4211
4210 4212
4211 5136
4212 5602
4212 5731
4213 4214
4218 4219
4222 4223
4222 4733
4223 4224
4224 4426
4224 5852
4227 4228
4227 4264
4229 4230
4238 4239
4239 4240
4239 4241
4239 4242
4239 4243
4244 4245
4244 4246
4244 4247
4251 4252
4252 4991
4252 5002
4253 4254
4253 4255
4256 4257
4259 4260
4262 4263
4266 4267
4268 4269
4269 4270
4269 4271
4277 4278
4277 4279
4281 4282
4292 4293
4294 4295
4294 5175
4294 5824
4298 4299
4300 4301
4304 4305
4307 4308
4307 4309
4310 4311
4311 5384
4312 4313
4313 4314
4313 4315
4315 4773
4316 4317
4317 4318
4318 4427
4318 4690
4318 4763
4318 5643
4319 4320
4321 4322
4325 4326
4325 4327
4328 4329
4330 4331
4334 4335
4335 4836
4335 4963
4335 5470
4337 4338
4343 4344
4348 4349
4348 5846
4348 6388
4349 4350
4349 4351
4352 4353
4354 4355
4359 4360
4359 5155
4365 4366
4367 4368
4368 6368
4370 4371
4375 4376
4379 4380
4379 5669
4380 4381
4380 4382
4395 4396
4397 4398
4398 5827
4406 4407
4407 4634
4407 5680
4408 4409
4410 4411
4416 4417
4418 4419
4420 4421
4420 5281
4429 4430
4429 4589
4431 4432
4433 4434
4436 4437
4436 4438
4439 4440
4442 4443
4444 4445
4446 4447
4448 4449
4450 4451
4453 4454
4455 4456
4456 5807
4458 4459
4458 5082
4459 4460
4460 5161
4460 6086
4460 6243
4464 4465
4465 4539
4466 4467
4469 4470
4472 4473
4475 4476
4478 4479
4480 4481
4481 5523
4484 4485
4484 4654
4488 4489
4489 5815
4492 4493
4497 4498
4499 4500
4500 4501
4500 4502
4501 4987
4501 5822
4503 4504
4507 4508
4511 4512
4513 4514
4513 4515
4516 4517
4521 4522
4523 4524
4526 4527
4526 4528
4531 4532
4531 4533
4531 4534
4531 4535
4532 5573
4532 5855
4533 5423
4540 4541
4542 4543
4546 4547
4549 4550
4557 4558
4559 4560
4559 5221
4561 4562
4566 4567
4567 4568
4568 5190
4571 4572
4572 5749
4574 4575
4575 4576
4575 4577
4577 5355
4577 6345
4578 4579
4579 4580
4581 4582
4586 4587
4591 4592
4593 4594
4597 4598
4599 4600
4601 4602
4603 4604
4604 4605
4604 4606
4606 5655
4607 4608
4609 4610
4610 4611
4618 4619
4619 4620
4621 4622
4622 4623
4625 4626
4628 4629
4635 4636
4635 5016
4635 5858
4637 4638
4638 5877
4644 4645
4648 4649
4648 5415
4648 5559
4648 5706
4648 5711
4648 5829
4650 4651
4652 4653
4655 4656
4658 4659
4659 5776
4664 4665
4668 4669
4673 4674
4673 4675
4676 4677
4678 4679
4680 4681
4687 4688
4691 4692
4692 4693
4693 5615
4694 4695
4700 4701
4702 4703
4702 4921
4703 4704
4709 4710
4711 4712
4716 4717
4716 4718
4716 4719
4716 4720
4716 4721
4719 4834
4721 4950
4724 4725
4726 4727
4729 4730
4731 4732
4732 5682
4734 4735
4736 4737
4737 5414
4738 4739
4740 4741
4746 4747
4754 4755
4755 5537
4758 4759
4760 4761
4765 4766
4768 4769
4770 4771
4770 4918
4771 4772
4776 4777
4778 4779
4781 4782
4789 4790
4789 4791
4792 4793
4792 4794
4792 4795
4792 4796
4797 4798
4797 4799
4801 4802
4805 4806
4808 4809
4809 4974
4815 4816
4818 4819
4821 4822
4821 4939
4821 5717
4822 4823
4824 4825
4827 4828
4827 5461
4842 4843
4845 4846
4845 4923
4845 5244
4848 4849
4854 4855
4856 4857
4860 4861
4862 4863
4862 4864
4866 4867
4872 4873
4873 4874
4875 4876
4877 4878
4878 4879
4878 4880
4879 5706
4881 4882
4885 4886
4886 5145
4888 4889
4891 4892
4894 4895
4899 4900
4902 4903
4904 4905
4905 4921
4906 4907
4907 4908
4908 5308
4912 4913
4915 4916
4916 5828
4921 4922
4928 4929
4929 4930
4933 4934
4933 4935
4936 4937
4937 4938
4940 4941
4945 4946
4946 4947
4947 5250
4955 4956
4956 4957
4960 4961
4960 5116
4966 4967
4967 4968
4972 4973
4976 4977
4979 4980
4983 4984
4985 4986
4989 4990
4996 4997
5005 5006
5009 5010
5011 5012
5013 5014
5014 5015
5017 5018
5017 5019
5017 5020
5018 5311
5019 5093
5019 5097
5021 5022
5024 5025
5026 5027
5029 5030
5029 5031
5032 5033
5034 5035
5036 5037
5039 5040
5045 5046
5045 5769
5046 5047
5046 5048
5046 5049
5050 5051
5050 5052
5064 5065
5073 5074
5073 5075
5073 5076
5078 5079
5080 5081
5082 5083
5082 5084
5087 5088
5088 5089
5088 5090
5095 5096
5101 5102
5102 5428
5103 5104
5103 5311
5105 5106
5111 5112
5119 5120
5121 5122
5121 5123
5124 5125
5126 5127
5127 5128
5131 5132
5131 5188
5134 5135
5146 5147
5148 5149
5151 5152
5153 5154
5155 5156
5156 5206
5156 5496
5159 5160
5169 5170
5171 5172
5171 5173
5177 5178
5177 5221
5178 5179
5184 5185
5187 5188
5194 5195
5199 5200
5199 5201
5202 5203
5202 5423
5205 5206
5207 5208
5207 5209
5210 5211
5213 5214
5213 5862
5217 5218
5217 5655
5221 5222
5221 5223
5222 5486
5225 5226
5227 5228
5228 5229
5228 5230
5229 5571
5229 5720
5232 5233
5232 5234
5235 5236
5237 5238
5238 5239
5238 5240
5241 5242
5245 5246
5250 5251
5250 5252
5254 5255
5264 5265
5264 5266
5269 5270
5271 5272
5275 5276
5277 5278
5281 5282
5281 5283
5284 5285
5284 5286
5284 5287
5285 5462
5288 5289
5290 5291
5290 5292
5294 5295
5295 5296
5299 5300
5303 5304
5303 5396
5303 5956
5303 5961
5306 5307
5309 5310
5311 5312
5311 5313
5311 5314
5317 5318
5318 5319
5321 5322
5321 5323
5327 5328
5329 5330
5329 5333
5331 5332
5336 5337
5340 5341
5345 5346
5348 5349
5350 5351
5352 5353
5358 5359
5360 5361
5362 5363
5366 5367
5366 5368
5367 5912
5373 5374
5376 5377
5382 5383
5386 5387
5390 5391
5392 5393
5395 5396
5397 5398
5401 5402
5405 5406
5410 5411
5415 5416
5415 5417
5421 5422
5423 5424
5427 5428
5427 5827
5432 5433
5434 5435
5436 5437
5441 5442
5445 5446
5446 5447
5448 5449
5456 5457
5463 5464
5468 5469
5471 5472
5472 5473
5472 5474
5475 5476
5477 5478
5484 5485
5488 5489
5490 5491
5492 5493
5494 5495
5500 5501
5501 5502
5503 5504
5504 5505
5512 5513
5516 5517
5519 5520
5523 5524
5528 5529
5532 5533
5534 5535
5537 5538
5537 5539
5541 5542
5544 5545
5546 5547
5548 5549
5549 5550
5553 5554
5555 5556
5556 5557
5558 5559
5560 5561
5564 5565
5566 5567
5568 5569
5574 5575
5575 5576
5578 5579
5582 5583
5583 5584
5585 5586
5586 5587
5588 5589
5590 5591
5595 5596
5602 5603
5603 5797
5603 5840
5606 5607
5612 5613
5621 5622
5621 5859
5625 5626
5628 5629
5630 5631
5638 5639
5648 5649
5651 5652
5654 5655
5655 5656
5655 5657
5660 5661
5662 5663
5664 5665
5666 5667
5666 5668
5669 5670
5672 5673
5674 5675
5675 5676
5677 5678
5678 5679
5679 5830
5683 5684
5688 5689
5694 5695
5696 5697
5698 5699
5700 5701
5704 5705
5707 5708
5713 5714
5719 5720
5723 5724
5723 5738
5723 5782
5725 5726
5725 5727
5728 5729
5729 5730
5733 5734
5734 5735
5737 5738
5739 5740
5748 5749
5749 5750
5752 5753
5753 5754
5753 5755
5761 5762
5764 5765
5765 5766
5767 5768
5769 5770
5772 5773
5775 5776
5783 5784
5793 5794
5799 5800
5806 5807
5808 5809
5812 5813
5817 5818
5819 5820
5822 5823
5823 5933
5825 5826
5831 5832
5832 5833
5841 5842
5845 5846
5847 5848
5852 5853
5859 5860
5862 5863
5866 5867
5868 5869
5869 5870
5872 5873
5874 5875
5874 6265
5877 5878
5883 5884
5885 5886
5886 5887
5888 5889
5890 5891
5891 5892
5893 5894
5894 5895
5896 5897
5898 5899
5900 5901
5900 6316
5902 5903
5905 5906
5907 5908
5909 5910
5910 5911
5912 5913
5915 5916
5917 5918
5919 5920
5921 5922
5923 5924
5924 5925
5926 5927
5926 5949
5927 5928
5929 5930
5931 5932
5934 5935
5935 5936
5935 5937
5938 5939
5939 5940
5941 5942
5943 5944
5945 5946
5946 5947
5948 5949
5949 5950
5949 5951
5949 5952
5949 5953
5949 5954
5949 5955
5957 5958
5959 5960
5961 5962
5961 5963
5961 5964
5965 5966
5967 5968
5968 5969
5970 5971
5972 5973
5974 5975
5974 5976
5977 5978
5979 5980
5980 5981
5982 5983
5983 5984
5985 5986
5987 5988
5989 5990
5991 5992
5992 5993
5994 5995
5995 5996
5995 5997
5995 5998
5999 6000
6001 6002
6003 6004
6004 6005
6004 6006
6007 6008
6009 6010
6010 6011
6012 6013
6014 6015
6016 6017
6018 6019
6019 6020
6019 6021
6022 6023
6024 6025
6025 6026
6025 6027
6025 6028
6025 6029
6025 6030
6025 6031
6032 6033
6034 6035
6036 6037
6038 6039
6040 6041
6041 6042
6043 6044
6044 6045
6046 6047
6049 6050
6050 6051
6052 6053
6053 6054
6053 6055
6053 6056
6053 6057
6058 6059
6060 6061
6062 6063
6064 6065
6065 6066
6067 6068
6069 6070
6071 6072
6073 6074
6075 6076
6077 6078
6077 6222
6079 6080
6081 6082
6082 6083
6084 6085
6086 6087
6086 6088
6089 6090
6090 6091
6092 6093
6094 6095
6096 6097
6098 6099
6099 6100
6099 6101
6102 6103
6104 6105
6106 6107
6109 6110
6111 6112
6113 6114
6115 6116
6117 6118
6118 6119
6118 6120
6121 6122
6122 6123
6122 6124
6122 6125
6126 6127
6128 6129
6131 6132
6132 6133
6133 6368
6134 6135
6136 6137
6139 6140
6140 6141
6142 6143
6143 6144
6144 6193
6145 6146
6146 6147
6148 6149
6150 6151
6151 6152
6153 6154
6155 6156
6157 6158
6159 6160
6162 6163
6163 6164
6165 6166
6166 6167
6166 6168
6166 6169
6166 6170
6166 6171
6166 6172
6173 6174
6175 6176
6176 6177
6178 6179
6179 6180
6181 6182
6183 6184
6185 6186
6186 6187
6186 6188
6189 6190
6191 6192
6194 6195
6196 6197
6198 6199
6199 6200
6201 6202
6203 6204
6204 6205
6206 6207
6208 6209
6210 6211
6212 6213
6213 6214
6215 6216
6217 6218
6219 6220
6220 6221
6223 6224
6224 6225
6224 6226
6227 6228
6229 6230
6230 6231
6230 6232
6233 6234
6235 6236
6236 6237
6236 6238
6236 6239
6236 6240
6241 6242
6243 6244
6245 6246
6247 6248
6249 6250
6251 6252
6252 6253
6252 6254
6252 6255
6252 6256
6252 6257
6252 6258
6252 6259
6260 6261
6262 6263
6264 6265
6265 6266
6265 6267
6265 6268
6270 6271
6272 6273
6274 6275
6276 6277
6278 6279
6279 6280
6279 6281
6282 6283
6284 6285
6286 6287
6288 6289
6289 6290
6289 6291
6289 6292
6293 6294
6294 6295
6294 6296
6297 6298
6298 6299
6298 6300
6298 6301
6302 6303
6303 6304
6305 6306
6306 6307
6306 6308
6309 6310
6310 6311
6310 6312
6313 6314
6315 6316
6316 6317
6318 6319
6320 6321
6322 6323
6324 6325
6326 6327
6328 6329
6330 6331
6332 6333
6333 6334
6333 6335
6336 6337
6337 6338
6337 6339
6340 6341
6342 6343
6343 6344
6346 6347
6347 6348
6347 6349
6351 6352
6353 6354
6354 6355
6356 6357
6358 6359
6359 6360
6361 6362
6362 6363
6362 6364
6362 6365
6362 6366
6367 6368
6368 6369
6368 6370
6368 6371
6372 6373
6373 6374
6373 6375
6373 6376
6373 6377
6378 6379
6381 6382
6382 6383
6384 6385
6385 6386
6385 6387
6390 6391
6391 6392
6397 6398
6399 6400
6400 6401
6402 6403
