0 15
0 18
0 227
0 230
0 231
0 232
0 234
0 235
0 236
0 237
0 239
0 241
0 242
0 243
0 246
0 247
0 249
0 256
0 260
0 261
0 262
0 263
0 264
0 302
0 348
0 390
0 391
0 393
0 394
0 395
0 396
0 397
0 398
0 399
0 401
0 422
0 423
0 424
0 425
0 426
0 445
0 446
0 471
0 472
0 485
0 486
0 487
0 541
0 576
0 577
0 585
1 239
1 260
1 261
1 262
1 293
1 294
1 295
1 394
1 395
1 399
1 421
1 422
1 423
1 471
1 472
1 541
1 577
1 578
1 579
1 580
1 581
1 582
1 583
1 584
1 585
1 593
1 609
1 611
1 624
1 664
1 665
2 235
2 236
2 241
2 246
2 394
2 395
2 396
2 423
3 246
3 247
3 263
3 264
3 393
3 394
3 395
3 396
3 422
3 423
3 472
3 473
3 670
3 671
3 672
3 673
3 674
3 675
3 676
3 677
4 28
4 29
4 235
4 236
5 21
5 22
5 23
5 24
6 125
6 136
6 138
6 139
6 215
6 393
6 395
6 396
7 29
7 30
7 232
7 235
7 393
7 396
8 232
8 233
8 244
8 245
8 249
8 256
9 236
9 241
9 246
9 247
9 262
9 295
9 302
9 348
9 390
9 422
9 423
9 472
9 486
9 541
10 231
10 295
10 302
10 348
10 390
10 422
10 423
10 472
10 541
11 22
11 23
11 25
11 233
12 233
12 241
12 246
12 247
12 295
12 348
12 390
12 423
12 427
12 486
12 675
13 231
13 295
13 348
13 390
13 423
13 427
13 675
14 21
14 24
14 26
14 232
15 236
15 263
16 25
16 220
16 242
16 243
16 249
16 256
16 393
16 394
16 395
16 396
16 423
17 124
17 125
17 137
17 138
17 139
18 263
18 393
18 395
18 396
19 241
19 244
19 247
19 249
20 231
20 393
20 395
20 396
21 233
21 244
21 293
21 294
21 295
21 302
21 397
21 424
21 425
21 485
22 233
22 244
22 293
22 295
22 302
22 397
22 424
22 425
22 485
23 233
23 244
23 248
23 293
23 294
23 295
23 302
23 397
23 424
23 425
23 485
23 486
24 233
24 244
24 293
24 294
24 295
24 302
24 397
24 424
24 425
24 485
24 486
25 233
25 235
25 236
25 237
25 242
25 243
25 245
25 249
25 293
25 294
25 295
25 302
25 397
25 422
25 424
25 425
25 485
26 233
26 245
26 293
26 294
26 295
26 302
26 397
26 424
26 425
27 233
27 235
27 237
27 240
27 242
27 243
27 244
27 246
27 248
27 256
27 294
27 295
27 397
27 422
27 424
27 425
27 486
28 237
28 240
28 242
28 243
28 244
28 246
28 294
28 295
28 397
28 422
28 423
28 425
28 486
29 233
29 235
29 237
29 242
29 243
29 244
29 245
29 246
29 247
29 248
29 249
29 256
29 293
29 294
29 295
29 302
29 397
29 423
29 425
29 426
29 485
29 486
30 233
30 235
30 236
30 237
30 242
30 243
30 245
30 256
30 293
30 294
30 295
30 302
30 397
30 422
30 423
30 425
30 426
30 485
30 486
31 235
31 236
31 237
31 240
31 248
31 256
31 261
31 262
31 293
31 294
31 302
31 397
31 423
31 425
31 486
31 577
31 624
32 237
32 240
32 249
32 256
32 261
32 262
32 302
32 397
32 486
32 576
32 622
33 237
33 238
33 261
33 262
33 302
33 422
33 486
33 487
33 576
33 611
33 642
34 235
34 237
34 238
34 247
34 260
34 261
34 262
34 422
34 487
35 237
35 238
35 260
35 422
35 487
35 622
35 624
35 641
36 566
37 398
37 487
37 566
37 622
37 642
37 664
37 672
38 255
38 259
38 265
38 471
38 642
39 512
39 624
40 221
40 265
40 437
40 596
41 471
41 566
41 622
41 642
41 672
42 344
42 455
43 286
43 344
43 455
43 622
44 344
44 455
44 604
44 622
45 286
45 455
45 566
45 604
46 344
46 455
46 471
46 641
47 390
47 455
48 264
48 325
48 335
48 390
48 455
49 390
49 455
49 487
49 531
50 265
50 286
50 390
50 456
51 229
51 286
51 390
51 456
51 641
51 672
51 673
52 390
52 456
52 633
52 641
53 286
53 390
53 456
53 566
53 595
53 611
54 674
55 344
55 405
56 588
57 482
57 647
57 674
58 326
58 611
58 622
58 641
59 326
59 605
60 605
60 680
61 264
61 320
61 401
61 640
61 682
62 326
62 679
62 682
62 685
63 325
63 605
63 612
63 624
64 612
65 413
65 461
65 605
65 608
65 622
65 631
65 643
65 647
65 677
65 679
65 682
65 684
66 226
66 264
66 323
66 413
66 478
66 482
66 605
66 608
66 622
66 631
66 643
66 645
66 675
66 677
66 681
66 682
67 422
67 451
67 452
67 453
67 475
67 490
67 640
67 681
68 256
68 392
68 395
68 401
68 405
68 421
68 546
68 576
68 577
68 595
68 596
68 645
68 653
69 257
69 452
69 476
69 587
69 673
70 256
70 257
70 294
70 302
70 377
70 577
70 597
70 645
71 257
71 259
71 285
71 364
71 377
71 380
71 382
71 390
71 447
71 449
71 452
71 587
71 608
71 642
71 671
71 677
72 257
72 259
72 285
72 351
72 378
72 381
72 390
72 397
72 447
72 449
72 452
72 587
72 608
72 671
72 677
73 257
73 259
73 349
73 377
73 390
73 421
73 483
73 521
73 604
73 605
73 608
73 622
73 634
73 638
73 642
73 672
74 257
74 373
74 391
74 401
74 611
74 640
74 680
75 258
75 391
75 453
75 500
75 680
75 682
76 258
76 271
76 281
76 383
76 391
76 393
76 405
76 453
76 480
76 501
76 607
76 631
76 646
76 679
76 681
76 682
77 258
77 391
77 396
77 411
77 453
77 607
77 611
77 645
77 646
77 673
77 681
77 682
78 258
78 270
78 310
78 391
78 410
78 419
78 453
78 679
78 681
79 391
79 396
79 405
79 440
79 453
79 475
79 643
79 664
79 681
79 685
80 225
80 259
80 268
80 269
80 360
80 390
80 391
80 452
80 453
80 501
80 506
80 535
80 576
80 608
80 622
80 624
80 640
80 643
80 646
80 672
80 675
81 259
81 351
81 390
81 391
81 647
81 674
82 240
82 259
82 351
82 364
82 379
82 422
82 501
82 546
82 595
82 597
82 666
83 256
83 259
83 302
83 351
83 378
83 422
83 546
83 576
83 587
83 596
84 259
84 294
84 302
84 422
84 576
84 645
85 257
85 259
85 349
85 350
85 379
85 382
85 390
85 391
85 487
85 546
85 576
85 605
85 641
85 673
85 677
86 240
86 257
86 259
86 285
86 357
86 377
86 383
86 390
86 391
86 449
86 487
86 546
86 576
86 587
86 588
86 595
86 597
86 605
86 641
86 673
86 677
87 232
87 257
87 259
87 299
87 349
87 352
87 364
87 390
87 472
87 647
87 670
87 671
87 673
88 257
88 259
88 299
88 350
88 352
88 390
88 472
88 647
88 670
88 671
88 673
88 677
89 257
89 259
89 262
89 291
89 380
89 406
89 422
89 471
89 515
89 519
89 522
89 588
89 611
89 622
89 634
89 638
89 645
89 672
90 258
90 266
90 392
90 395
90 401
90 402
90 421
90 470
90 607
90 670
90 677
91 258
91 266
91 309
91 372
91 392
91 394
91 395
91 401
91 402
91 421
91 470
91 608
91 640
91 643
91 677
91 682
91 684
92 258
92 392
92 395
92 402
92 421
92 451
92 452
92 453
92 470
92 471
92 473
92 484
92 607
92 608
92 611
92 645
92 672
92 679
92 682
93 259
93 265
93 392
93 402
93 423
93 446
93 450
93 453
93 454
93 464
93 465
93 466
93 492
93 497
94 221
94 258
94 259
94 265
94 266
94 392
94 402
94 439
94 446
94 450
94 454
94 503
94 622
94 642
94 673
94 676
94 682
95 258
95 265
95 266
95 392
95 401
95 402
95 446
95 450
95 451
95 472
95 475
95 503
95 521
95 647
95 673
95 676
95 681
95 682
96 258
96 265
96 273
96 392
96 401
96 402
96 403
96 428
96 437
96 450
96 451
96 473
96 475
96 492
96 495
96 496
96 500
96 503
96 510
96 527
96 529
96 530
96 531
96 533
96 631
96 642
96 647
96 680
97 257
97 258
97 337
97 401
97 402
97 447
97 449
97 450
97 451
97 452
97 453
97 470
97 473
97 609
97 622
97 642
97 643
98 258
98 266
98 276
98 299
98 363
98 402
98 472
98 490
98 511
98 560
98 597
98 604
98 605
98 607
98 612
98 624
98 673
98 676
98 682
99 258
99 266
99 299
99 402
99 471
99 472
99 498
99 511
99 604
99 605
99 611
99 612
99 622
99 631
99 641
99 642
99 673
99 675
99 676
99 677
99 679
99 682
100 258
100 259
100 299
100 390
100 446
100 452
100 453
100 464
100 474
100 475
100 480
100 481
100 482
100 487
100 492
100 604
100 609
100 642
100 670
100 672
100 677
101 257
101 258
101 265
101 450
101 483
101 607
101 642
101 680
102 258
102 265
102 277
102 640
102 667
102 680
102 682
103 258
103 265
103 475
103 492
103 622
103 672
103 677
104 222
104 258
104 266
104 278
104 287
104 289
104 401
104 449
104 482
104 487
104 498
104 611
104 647
104 670
105 258
105 265
105 299
105 360
105 446
105 450
105 451
105 478
105 484
105 486
105 503
105 587
105 646
105 664
105 670
105 672
105 673
105 674
105 680
106 258
106 265
106 299
106 343
106 446
106 450
106 451
106 478
106 484
106 486
106 503
106 587
106 605
106 640
106 643
106 664
106 670
106 672
106 673
106 674
106 676
106 679
106 680
107 258
107 259
107 262
107 265
107 299
107 372
107 374
107 446
107 450
107 451
107 478
107 503
107 511
107 587
107 604
107 605
107 609
107 622
107 643
107 645
107 646
107 670
107 672
107 673
107 674
107 676
107 682
108 257
108 258
108 259
108 262
108 265
108 299
108 343
108 374
108 390
108 391
108 403
108 446
108 450
108 451
108 471
108 478
108 480
108 481
108 484
108 503
108 511
108 557
108 604
108 609
108 624
108 645
108 646
108 672
108 673
108 674
109 258
109 265
109 299
109 374
109 390
109 403
109 450
109 451
109 478
109 481
109 503
109 604
109 633
109 641
109 643
109 672
109 673
109 674
109 681
109 682
110 385
110 390
110 446
110 450
110 453
110 471
110 472
110 480
110 607
110 611
110 641
110 673
110 674
110 679
111 257
111 259
111 287
111 401
111 403
111 449
111 475
111 480
111 484
111 506
111 520
111 523
111 634
111 640
111 674
111 680
112 258
112 265
112 266
112 279
112 290
112 336
112 452
112 453
112 463
112 464
112 465
112 466
112 471
112 472
112 493
112 526
112 529
112 647
112 670
112 680
112 681
112 682
113 258
113 265
113 266
113 322
113 647
114 265
114 266
114 385
114 449
115 446
115 450
115 454
115 464
115 471
115 607
115 622
115 645
115 673
115 681
116 446
116 482
116 602
116 608
116 680
117 258
117 449
117 450
117 452
117 453
117 471
117 472
117 474
117 480
117 483
117 607
117 622
117 647
117 674
118 265
118 471
118 483
118 493
118 497
118 609
118 677
119 265
119 267
119 328
119 365
119 453
119 471
119 492
119 508
119 609
119 640
120 265
120 453
120 494
120 508
120 557
121 259
121 280
121 392
121 401
121 446
121 470
121 471
121 473
121 508
121 605
121 609
121 612
121 622
121 647
121 678
122 258
122 343
122 455
122 456
122 470
122 471
122 481
122 505
122 539
122 556
122 670
123 361
123 362
123 463
123 464
123 470
123 471
123 473
123 475
123 478
123 480
123 482
123 608
123 634
123 641
123 647
124 257
124 258
124 259
124 264
124 265
124 315
124 327
124 334
124 342
124 367
124 384
124 405
124 422
124 463
124 464
124 465
124 471
124 472
124 477
124 480
124 481
124 483
124 484
124 503
124 505
124 526
124 529
124 587
124 612
124 640
124 643
124 645
124 646
124 667
124 671
124 672
124 677
124 679
124 680
124 682
125 257
125 258
125 259
125 265
125 266
125 311
125 328
125 331
125 367
125 384
125 404
125 405
125 422
125 437
125 455
125 461
125 463
125 472
125 473
125 477
125 481
125 482
125 483
125 484
125 503
125 505
125 523
125 587
125 612
125 622
125 640
125 645
125 667
125 671
125 677
125 679
125 680
125 682
125 684
126 258
126 259
126 265
126 283
126 291
126 390
126 421
126 446
126 449
126 451
126 461
126 463
126 473
126 477
126 480
126 482
126 503
126 605
126 622
126 671
126 674
127 258
127 259
127 265
127 280
127 283
127 291
127 296
127 299
127 412
127 446
127 447
127 449
127 451
127 474
127 477
127 481
127 482
127 487
127 503
127 506
127 529
127 537
127 612
127 633
127 643
127 646
127 671
127 674
127 677
128 258
128 259
128 265
128 287
128 296
128 299
128 314
128 330
128 341
128 360
128 371
128 390
128 392
128 446
128 447
128 451
128 456
128 471
128 472
128 474
128 477
128 478
128 481
128 483
128 484
128 505
128 506
128 605
128 611
128 612
128 633
128 643
128 646
128 647
128 667
128 673
128 682
129 258
129 262
129 265
129 266
129 298
129 402
129 407
129 451
129 457
129 458
129 473
129 495
129 528
129 557
129 602
129 607
129 611
129 641
129 643
129 646
129 647
129 664
129 667
129 670
129 673
129 677
129 679
129 681
129 682
130 258
130 265
130 288
130 322
130 385
130 402
130 481
130 519
130 608
130 609
130 622
130 673
130 676
130 681
130 682
131 258
131 265
131 402
131 520
131 522
131 608
131 640
131 673
131 676
131 681
131 682
132 258
132 298
132 402
132 499
132 510
132 526
132 604
132 670
133 258
133 394
133 402
133 513
133 532
133 604
133 670
133 682
134 223
134 258
134 261
134 340
134 402
134 472
134 604
134 605
134 670
134 681
135 258
135 402
135 414
135 419
135 587
135 605
135 645
135 670
136 259
136 327
136 350
136 390
136 402
136 459
136 473
136 604
137 327
137 402
137 671
137 680
138 258
138 284
138 333
138 334
138 402
139 258
139 266
139 284
139 332
139 339
139 367
139 384
139 385
139 401
139 402
139 502
139 670
139 672
139 682
140 258
140 266
140 298
140 324
140 371
140 384
140 401
140 402
140 602
140 643
140 670
140 682
141 258
141 266
141 274
141 278
141 333
141 386
141 401
141 402
141 602
141 631
141 642
141 645
141 670
141 671
141 679
141 682
142 258
142 266
142 401
142 402
142 536
142 602
142 631
142 633
142 642
142 643
142 670
142 679
142 682
143 266
143 278
143 316
143 402
143 419
143 455
143 481
143 528
143 671
143 682
144 266
144 278
144 402
144 418
144 671
144 681
144 682
145 266
145 278
145 284
145 331
145 402
145 437
145 504
145 513
145 528
145 671
145 681
145 682
146 259
146 266
146 278
146 306
146 317
146 402
146 409
146 503
146 647
146 681
146 682
147 266
147 278
147 282
147 316
147 391
147 402
147 508
147 528
147 682
147 685
148 266
148 278
148 284
148 402
148 406
148 454
148 492
148 526
148 631
148 682
149 224
149 266
149 278
149 284
149 312
149 402
149 495
149 512
149 602
149 681
150 266
150 278
150 284
150 312
150 402
150 510
150 527
150 647
150 681
151 266
151 278
151 279
151 284
151 310
151 402
151 509
151 647
151 681
152 227
152 266
152 278
152 329
152 402
152 529
152 538
152 681
153 258
153 266
153 278
153 402
153 500
153 519
153 520
153 643
153 682
154 258
154 266
154 335
154 365
154 465
154 466
154 471
154 481
154 487
154 504
154 531
154 587
154 624
154 641
154 643
154 677
154 679
154 680
154 681
154 682
155 258
155 266
155 278
155 329
155 337
155 413
155 424
155 642
155 674
155 677
155 679
155 681
155 682
155 685
156 258
156 266
156 386
156 587
156 677
156 682
157 258
157 265
157 333
157 334
157 375
157 432
157 455
157 471
157 504
157 515
157 523
157 611
157 672
157 676
158 258
158 265
158 375
158 459
158 461
158 471
158 484
158 491
158 504
158 516
158 560
158 611
158 640
158 667
158 676
159 228
159 258
159 265
159 266
159 289
159 375
159 403
159 459
159 461
159 471
159 482
159 490
159 494
159 498
159 504
159 517
159 611
159 622
159 667
159 676
160 257
160 284
160 371
160 403
160 447
160 455
160 459
160 461
160 472
160 475
160 481
160 484
160 514
160 515
160 518
160 634
160 638
160 647
160 667
160 672
160 673
161 259
161 288
161 346
161 403
161 434
161 443
161 471
161 475
161 480
161 489
161 496
161 505
161 607
161 622
161 645
162 258
162 304
162 403
162 456
162 496
162 602
162 622
162 667
162 670
162 673
162 677
162 679
162 682
163 258
163 266
163 304
163 313
163 403
163 456
163 605
163 670
163 676
163 680
164 258
164 266
164 287
164 304
164 345
164 403
164 454
164 456
164 482
164 605
164 670
164 676
165 262
165 266
165 277
165 304
165 403
165 446
165 451
165 456
165 471
165 482
165 681
166 228
166 262
166 266
166 304
166 366
166 403
166 434
166 446
166 451
166 454
166 456
166 471
166 480
166 607
166 681
167 262
167 266
167 279
167 304
167 366
167 403
167 446
167 451
167 471
167 607
168 258
168 262
168 266
168 277
168 304
168 372
168 403
168 422
168 454
168 556
168 607
168 612
168 643
168 682
169 266
169 308
169 442
169 641
169 682
170 266
170 369
170 438
170 471
170 472
170 481
170 682
171 258
171 265
171 266
171 285
171 421
171 429
171 450
171 453
171 461
171 471
171 472
171 473
171 490
171 495
171 527
171 607
171 611
171 640
171 647
172 258
172 265
172 266
172 285
172 450
172 453
172 472
172 609
172 622
172 670
173 258
173 265
173 438
173 450
173 453
173 459
173 472
173 526
173 605
173 609
173 611
173 646
173 670
173 682
174 258
174 265
174 417
174 450
174 453
174 459
174 472
174 605
174 609
174 612
174 646
174 675
174 682
175 258
175 284
175 318
175 459
175 488
175 612
175 631
175 646
175 678
176 258
176 265
176 287
176 305
176 319
176 436
176 441
176 455
176 456
176 471
176 472
176 481
176 489
176 498
176 556
176 631
176 646
176 677
177 258
177 415
177 471
177 494
177 496
177 560
177 608
177 624
177 638
177 645
177 664
177 680
177 682
178 258
178 259
178 265
178 266
178 361
178 362
178 391
178 392
178 401
178 402
178 421
178 483
178 602
178 609
178 622
178 643
178 667
178 670
178 672
179 258
179 259
179 265
179 402
179 435
179 455
179 484
179 556
179 602
179 667
179 677
180 228
180 258
180 259
180 265
180 321
180 401
180 470
180 480
180 481
180 495
180 602
180 612
180 641
180 647
180 674
180 679
181 259
181 265
181 280
181 299
181 446
181 647
182 265
182 364
182 421
182 490
182 496
182 497
182 647
183 265
183 488
184 258
184 265
184 290
184 403
184 449
184 471
184 507
184 556
184 681
185 258
185 265
185 282
185 298
185 328
185 422
185 446
185 447
185 449
185 453
185 474
185 475
185 478
185 480
185 483
185 488
185 507
185 518
185 522
185 612
185 634
185 638
185 672
185 677
186 265
186 328
186 446
186 447
186 449
186 453
186 474
186 475
186 478
186 480
186 489
186 493
186 507
186 519
186 602
186 612
186 622
186 624
186 634
186 638
186 672
186 677
187 277
187 421
187 446
187 455
187 642
187 646
187 671
187 673
187 682
188 265
188 446
188 455
188 456
188 470
188 509
188 526
188 527
188 529
188 531
188 642
188 646
188 671
188 673
189 265
189 390
189 446
189 455
189 456
189 470
189 646
189 671
189 676
190 259
190 401
190 449
190 587
190 622
191 259
191 265
191 376
191 401
191 449
191 608
191 640
191 647
192 258
192 265
192 266
192 277
192 360
192 363
192 449
192 451
192 470
192 607
192 642
192 647
192 667
193 258
193 265
193 266
193 386
193 449
193 451
193 470
193 607
194 258
194 265
194 339
194 449
194 471
194 473
194 491
194 493
194 495
194 500
194 505
194 514
194 515
194 518
195 258
195 272
195 403
195 422
195 446
195 506
195 510
195 526
195 527
195 529
195 531
195 560
195 634
195 645
195 679
195 682
196 258
196 277
196 422
196 438
196 446
196 506
196 638
196 682
197 259
197 265
197 288
197 338
197 524
197 605
197 612
197 641
197 643
197 671
197 678
197 681
198 257
198 259
198 284
198 299
198 390
198 392
198 422
198 446
198 449
198 470
198 474
198 475
198 481
198 482
198 506
198 514
198 516
198 517
198 557
198 607
198 622
198 634
198 638
198 674
198 680
199 258
199 259
199 265
199 361
199 362
199 376
199 381
199 451
199 466
199 482
199 490
199 500
199 504
199 517
199 520
199 609
199 672
199 676
199 681
199 682
200 258
200 259
200 265
200 369
200 386
200 451
200 466
200 471
200 494
200 521
200 608
200 609
200 674
200 681
200 682
201 257
201 259
201 388
201 390
201 391
201 463
201 465
201 466
201 472
201 473
201 474
201 477
201 482
201 488
201 497
201 498
201 504
201 505
201 523
201 525
201 609
201 624
201 640
201 646
201 670
201 671
201 674
202 257
202 259
202 390
202 463
202 465
202 466
202 472
202 474
202 477
202 483
202 489
202 505
202 521
202 522
202 609
202 612
202 646
202 670
202 671
202 684
203 259
203 265
203 299
203 307
203 366
203 390
203 402
203 403
203 422
203 449
203 451
203 470
203 472
203 474
203 477
203 482
203 483
203 487
203 505
203 514
203 516
203 517
203 601
203 605
203 608
203 622
203 634
203 638
203 641
203 664
203 671
203 672
203 674
203 677
203 682
203 684
204 258
204 259
204 265
204 266
204 407
204 437
204 439
204 453
204 509
204 529
204 676
204 680
205 258
205 259
205 376
205 515
206 258
206 259
206 388
206 431
206 451
206 556
206 597
206 622
206 633
206 641
206 647
206 673
206 679
207 258
207 416
207 446
207 513
208 258
208 269
208 290
208 451
208 473
208 497
209 258
209 401
209 518
209 525
209 560
209 647
210 404
210 524
211 253
211 265
211 428
211 486
212 258
212 265
212 266
212 275
212 388
212 433
212 437
213 258
213 265
213 488
213 494
213 526
213 622
214 258
214 266
214 408
214 419
214 486
214 507
214 514
214 531
214 647
215 446
215 489
215 622
215 647
216 257
216 258
216 430
216 486
216 647
217 266
217 491
217 497
217 510
217 540
217 673
218 259
218 265
218 390
218 473
218 511
218 516
219 259
219 262
219 265
219 512
219 534
219 546
219 556
219 597
219 647
219 684
220 259
220 260
220 261
220 262
220 301
220 398
220 588
220 641
220 642
220 643
220 645
220 647
220 672
220 674
220 675
220 680
221 260
221 301
221 348
221 376
221 389
221 394
221 395
221 396
221 398
221 472
221 675
222 301
222 348
222 389
222 394
222 395
222 396
222 398
222 472
222 675
223 260
223 301
223 348
223 374
223 389
223 394
223 395
223 396
223 398
223 472
223 541
223 611
223 643
223 675
224 260
224 301
224 348
224 389
224 394
224 395
224 396
224 398
224 472
224 675
224 679
224 680
225 260
225 301
225 348
225 389
225 394
225 395
225 396
225 398
225 401
225 449
225 472
225 675
225 679
225 680
226 261
226 262
226 301
226 347
226 348
226 375
226 389
226 393
226 394
226 395
226 396
226 398
226 401
226 449
226 472
226 611
226 624
226 641
226 642
226 643
226 664
226 675
227 260
227 261
227 262
227 301
227 347
227 348
227 389
227 393
227 394
227 395
227 396
227 398
227 449
227 472
227 487
227 541
227 611
227 640
227 675
227 684
228 260
228 261
228 262
228 301
228 348
228 369
228 394
228 395
228 396
228 398
228 449
228 472
228 641
228 675
229 262
229 393
229 394
229 395
229 396
229 675
229 676
230 348
230 398
230 485
230 576
230 675
231 256
231 294
231 576
231 598
232 242
232 243
232 247
232 256
232 294
233 243
233 294
233 302
233 485
234 243
234 246
234 247
234 256
234 294
234 387
235 545
235 561
235 562
235 596
236 545
236 561
236 562
237 545
237 561
237 562
237 596
237 603
237 633
237 664
238 242
238 243
238 244
238 246
238 603
238 611
238 640
239 303
239 551
239 561
239 576
239 577
239 599
240 303
240 551
240 561
240 576
240 577
240 598
241 256
241 294
241 303
241 426
241 485
241 545
241 546
241 553
241 561
241 590
241 594
241 598
242 249
242 256
242 293
242 294
242 295
242 302
242 303
242 424
242 425
242 426
242 485
242 553
242 590
243 256
243 293
243 294
243 295
243 302
243 303
243 423
243 424
243 425
243 426
243 485
243 553
243 590
244 256
244 293
244 294
244 295
244 302
244 303
244 426
244 485
244 553
244 680
245 256
245 293
245 294
245 295
245 302
245 303
245 424
245 426
245 485
245 553
246 256
246 293
246 294
246 303
246 423
246 426
246 485
246 553
246 590
247 256
247 294
247 303
247 485
247 553
247 561
247 590
248 303
248 561
248 562
248 576
248 577
248 581
248 597
248 614
248 643
249 251
249 253
249 254
249 255
249 277
249 293
249 295
249 303
249 447
249 543
249 546
249 548
249 549
249 551
249 555
249 577
249 599
249 602
249 610
249 614
249 619
249 627
249 636
249 653
249 655
249 656
249 659
249 661
250 251
250 252
250 254
250 255
250 258
250 276
250 277
250 279
250 280
250 281
250 387
250 422
250 423
250 424
250 425
250 431
250 433
250 444
250 445
250 446
250 447
250 448
250 449
250 450
250 455
250 456
250 463
250 464
250 474
250 477
250 479
250 480
250 481
250 482
250 483
250 484
250 485
250 486
250 511
250 517
250 522
250 523
250 529
250 548
250 549
250 576
250 602
250 613
250 614
250 617
250 623
250 624
250 635
250 656
250 658
251 252
251 253
251 254
251 255
251 256
251 258
251 259
251 276
251 282
251 283
251 285
251 305
251 421
251 422
251 423
251 424
251 425
251 426
251 441
251 445
251 447
251 448
251 449
251 451
251 455
251 456
251 461
251 463
251 474
251 476
251 477
251 478
251 479
251 482
251 483
251 484
251 505
251 506
251 521
251 526
251 529
251 531
251 548
251 549
251 562
251 576
251 602
251 613
251 614
251 617
251 623
251 624
251 637
251 645
251 656
251 657
251 678
252 253
252 254
252 255
252 256
252 274
252 282
252 287
252 293
252 294
252 295
252 302
252 422
252 423
252 425
252 426
252 445
252 446
252 447
252 448
252 449
252 450
252 455
252 475
252 477
252 480
252 481
252 483
252 484
252 486
252 506
252 522
252 523
252 543
252 546
252 548
252 549
252 551
252 562
252 576
252 577
252 603
252 606
252 610
252 616
252 618
252 628
252 630
252 636
252 637
252 661
253 254
253 255
253 274
253 279
253 282
253 288
253 293
253 294
253 295
253 302
253 303
253 387
253 422
253 444
253 446
253 448
253 449
253 450
253 459
253 460
253 475
253 477
253 478
253 479
253 480
253 481
253 482
253 483
253 484
253 485
253 486
253 520
253 521
253 526
253 548
253 549
253 551
253 562
253 576
253 598
253 599
253 610
253 614
253 617
253 623
253 630
253 637
254 279
254 290
254 293
254 294
254 295
254 302
254 303
254 397
254 422
254 423
254 424
254 425
254 426
254 444
254 445
254 446
254 447
254 448
254 449
254 450
254 455
254 462
254 474
254 477
254 478
254 479
254 480
254 481
254 482
254 483
254 484
254 485
254 505
254 523
254 527
254 548
254 549
254 551
254 553
254 576
254 602
254 614
254 617
254 623
254 630
254 640
254 653
254 678
254 679
255 256
255 273
255 294
255 295
255 303
255 348
255 401
255 421
255 422
255 424
255 425
255 426
255 432
255 444
255 445
255 447
255 448
255 449
255 450
255 455
255 460
255 463
255 464
255 472
255 475
255 477
255 478
255 479
255 480
255 481
255 482
255 483
255 486
255 511
255 548
255 549
255 576
255 602
255 613
255 614
255 617
255 623
255 635
255 679
255 680
256 293
256 295
256 303
256 447
256 469
256 470
256 548
256 549
256 551
256 553
256 555
256 576
256 594
256 603
256 615
256 616
256 621
256 636
256 637
256 641
256 650
256 654
256 655
256 656
257 260
257 261
257 272
257 299
257 343
257 448
257 469
257 470
257 552
257 558
257 563
257 564
257 565
257 595
257 598
257 603
257 610
257 613
257 614
257 620
257 624
257 627
257 628
257 629
257 640
257 641
257 642
257 643
257 648
257 649
257 655
257 664
257 683
257 684
258 292
258 293
258 297
258 300
258 343
258 448
258 468
258 469
258 470
258 472
258 479
258 558
258 563
258 564
258 565
258 566
258 598
258 603
258 604
258 606
258 610
258 613
258 614
258 623
258 624
258 629
258 640
258 641
258 642
258 643
258 645
258 649
258 655
258 664
258 665
258 678
258 683
258 684
259 297
259 299
259 469
259 470
259 613
259 623
259 624
259 628
259 629
259 649
259 653
259 654
259 655
259 665
259 678
260 292
260 300
260 469
260 470
260 528
260 535
260 536
260 552
260 553
260 598
260 619
260 629
260 655
261 299
261 355
261 360
261 361
261 362
261 363
261 469
261 470
261 479
261 532
261 533
261 541
261 542
261 553
261 595
261 601
261 610
261 613
261 614
261 620
261 623
261 624
261 629
261 641
261 645
261 648
261 655
261 683
262 299
262 368
262 469
262 470
262 563
262 598
262 604
262 610
262 613
262 617
262 623
262 624
262 627
262 629
262 643
262 655
262 683
263 299
263 357
263 469
263 470
263 472
263 611
263 614
263 615
263 618
263 619
263 633
263 666
263 683
264 299
264 368
264 469
264 470
264 472
264 553
264 559
264 565
264 603
264 615
264 641
264 652
264 657
264 666
265 292
265 297
265 472
265 557
265 563
265 564
265 565
265 566
265 597
265 604
265 606
265 610
265 628
265 630
265 649
265 650
265 652
265 669
265 678
265 679
265 681
265 683
266 292
266 297
266 557
266 604
266 606
266 627
266 636
266 637
266 645
266 654
266 655
266 678
266 679
266 684
267 387
267 468
267 471
267 618
268 468
268 470
268 471
268 618
269 468
269 471
269 527
269 618
270 297
270 468
270 471
270 616
270 618
271 468
271 471
271 542
271 618
272 292
272 297
272 361
272 467
272 468
272 471
272 477
272 478
272 598
272 611
272 615
272 618
272 621
272 639
273 292
273 297
273 467
273 471
273 472
273 477
273 478
273 611
273 639
274 292
274 297
274 467
274 471
274 477
274 478
274 615
274 618
274 621
274 639
275 292
275 297
275 467
275 468
275 471
275 477
275 478
276 292
276 353
276 448
276 467
276 469
276 470
276 477
276 479
276 598
276 603
276 606
276 616
276 630
276 635
276 655
276 678
276 679
277 292
277 297
277 354
277 389
277 448
277 467
277 469
277 470
277 471
277 477
277 479
277 564
277 597
277 598
277 603
277 604
277 606
277 610
277 615
277 616
277 628
277 630
277 633
277 635
277 653
277 681
278 292
278 469
278 470
278 472
278 477
278 564
278 595
278 598
278 603
278 604
278 606
278 610
278 614
278 617
278 628
278 642
278 643
278 664
278 678
278 679
278 681
278 683
279 292
279 297
279 358
279 469
279 470
279 471
279 472
279 477
279 479
279 598
279 603
279 615
279 616
279 629
279 631
279 636
279 637
279 656
279 657
279 663
280 292
280 297
280 469
280 470
280 471
280 477
280 603
280 615
280 616
280 618
280 621
280 632
280 633
280 636
280 637
280 654
280 656
280 657
281 292
281 297
281 389
281 470
281 477
281 598
281 602
281 603
281 610
281 611
281 616
281 633
281 636
281 637
282 292
282 297
282 469
282 470
282 477
282 598
282 602
282 603
282 610
282 619
282 624
282 627
282 628
282 641
282 649
282 655
282 678
282 680
283 292
283 297
283 370
283 469
283 470
283 566
283 603
283 616
283 618
283 619
283 621
283 636
283 637
283 641
284 292
284 297
284 469
284 470
284 559
284 598
284 603
284 616
284 637
285 292
285 297
285 469
285 470
285 479
285 542
285 602
285 603
285 616
285 621
285 629
285 633
285 635
285 637
285 639
285 640
285 654
285 681
285 683
286 292
286 297
286 387
286 469
286 470
286 603
286 609
286 636
286 637
286 645
286 663
287 292
287 297
287 469
287 470
287 598
287 603
287 618
287 639
287 641
287 643
288 292
288 297
288 469
288 470
288 598
288 603
288 621
288 636
288 639
288 640
289 292
289 297
289 469
289 470
289 558
289 598
289 603
289 636
289 640
289 654
290 292
290 297
290 469
290 470
290 479
290 598
290 603
290 611
290 637
291 292
291 297
291 299
291 469
291 470
291 566
291 598
291 603
291 604
291 616
291 628
291 655
291 680
292 297
292 305
292 306
292 307
292 329
292 330
292 331
292 332
292 333
292 334
292 335
292 336
292 337
292 374
292 375
292 376
292 377
292 378
292 379
292 380
292 381
292 382
292 387
292 397
292 398
292 400
292 401
292 405
292 406
292 407
292 408
292 409
292 410
292 411
292 412
292 422
292 423
292 425
292 445
292 447
292 448
292 449
292 450
292 451
292 455
292 456
292 461
292 462
292 463
292 464
292 469
292 470
292 477
292 478
292 479
292 480
292 481
292 482
292 483
292 484
292 485
292 495
292 501
292 506
292 515
292 518
292 523
292 528
292 534
292 552
292 598
292 602
292 603
292 606
292 616
292 618
292 621
292 629
292 641
293 295
293 302
293 303
293 422
293 423
293 424
293 425
293 426
293 470
293 485
293 486
293 543
293 546
293 548
293 549
293 552
293 553
293 554
293 561
293 576
293 592
293 594
293 616
293 664
294 295
294 423
294 424
294 425
294 426
294 475
294 548
294 562
294 576
294 577
294 616
294 664
295 302
295 303
295 422
295 423
295 424
295 425
295 426
295 485
295 487
295 543
295 546
295 548
295 549
295 553
295 554
295 561
295 576
295 592
295 596
295 616
296 369
296 468
296 603
297 301
297 308
297 309
297 310
297 311
297 312
297 313
297 314
297 315
297 316
297 317
297 318
297 319
297 320
297 321
297 322
297 323
297 324
297 325
297 326
297 327
297 328
297 389
297 390
297 396
297 397
297 398
297 399
297 400
297 401
297 406
297 407
297 408
297 409
297 410
297 411
297 429
297 444
297 445
297 446
297 447
297 448
297 449
297 450
297 451
297 455
297 456
297 462
297 463
297 464
297 467
297 468
297 469
297 470
297 471
297 472
297 473
297 477
297 478
297 482
297 483
297 484
297 485
297 505
297 523
297 526
297 527
297 541
297 558
297 598
297 603
297 610
297 614
297 619
297 630
297 637
297 641
297 679
298 299
298 359
298 368
298 469
298 470
298 598
298 615
298 616
298 631
298 632
298 655
298 683
299 300
299 347
299 349
299 350
299 351
299 352
299 353
299 354
299 355
299 356
299 357
299 358
299 359
299 360
299 361
299 362
299 363
299 364
299 365
299 366
299 367
299 368
299 369
299 370
299 371
299 372
299 373
299 374
299 375
299 376
299 377
299 378
299 379
299 380
299 381
299 382
299 383
299 384
299 385
299 386
299 387
299 388
299 389
299 390
299 391
299 392
299 393
299 394
299 395
299 396
299 397
299 398
299 413
299 422
299 469
299 470
299 472
299 541
299 542
299 552
299 566
299 597
299 598
299 603
299 615
299 616
299 627
299 641
299 643
299 645
299 653
299 655
299 683
300 360
300 361
300 362
300 363
300 364
300 365
300 366
300 367
300 368
300 369
300 370
300 371
300 372
300 373
300 376
300 396
300 407
300 422
300 423
300 446
300 447
300 448
300 449
300 467
300 468
300 469
300 470
300 471
300 472
300 473
300 552
300 562
300 563
300 566
300 598
300 603
300 615
300 616
300 619
300 627
300 628
300 629
300 640
300 641
300 642
300 683
300 684
301 400
301 469
301 470
301 566
301 598
301 603
301 615
301 616
301 618
301 621
301 629
301 683
302 303
302 424
302 425
302 426
302 447
302 485
302 543
302 546
302 551
302 553
302 555
302 577
302 592
302 594
302 598
302 619
303 304
303 422
303 423
303 424
303 449
303 485
303 486
303 546
303 548
303 549
303 551
303 553
303 554
303 555
303 576
303 577
303 598
304 368
304 392
304 415
304 449
304 450
304 470
304 503
304 558
304 562
304 598
304 603
304 633
304 635
304 640
304 654
304 665
304 683
305 469
305 470
305 562
305 598
305 603
305 636
305 653
306 469
306 598
306 603
306 632
306 641
306 653
306 680
307 564
307 598
307 603
307 610
307 619
307 624
307 631
307 632
307 651
307 683
308 598
308 603
308 619
308 624
308 631
308 651
308 655
308 679
309 603
309 616
309 632
309 651
310 400
310 448
310 603
310 614
310 619
310 631
310 632
310 651
310 655
311 400
311 603
311 619
311 631
311 651
312 400
312 603
312 632
312 640
312 651
312 683
313 400
313 603
313 610
313 619
313 631
313 632
313 645
313 649
313 651
313 678
313 683
314 400
314 603
314 619
314 631
314 651
315 400
315 603
315 619
315 631
315 641
315 651
316 400
316 448
316 601
316 603
316 619
316 632
316 643
316 651
317 400
317 597
317 603
317 615
317 616
317 632
317 651
317 653
317 680
318 400
318 603
318 616
318 631
318 632
318 651
318 683
319 400
319 603
319 616
319 631
319 651
320 400
320 603
320 616
320 632
320 651
320 684
321 400
321 603
321 616
321 632
321 651
322 400
322 603
322 616
322 631
322 651
323 400
323 603
323 615
323 616
323 618
323 621
323 631
323 651
324 400
324 469
324 470
324 603
324 616
324 631
324 632
324 651
324 655
325 400
325 469
325 603
325 610
325 613
325 614
325 617
325 642
325 648
325 655
325 679
325 683
326 400
326 469
326 603
326 651
327 400
327 469
327 603
327 611
327 615
327 641
327 654
328 469
328 470
328 603
329 598
329 603
329 606
329 616
329 641
330 355
330 598
330 603
330 606
330 616
331 598
331 603
331 606
331 618
331 621
332 400
332 542
332 598
332 603
332 606
332 616
332 640
333 400
333 598
333 603
333 606
333 616
334 400
334 598
334 603
334 606
334 611
335 400
335 598
335 603
335 606
336 353
336 400
336 598
336 603
336 606
336 616
337 400
337 598
337 603
337 606
337 618
337 621
338 400
338 448
338 603
339 400
339 603
339 615
339 635
340 356
340 400
340 464
340 595
340 603
340 616
341 353
341 603
341 604
341 616
342 388
342 448
342 603
342 604
342 616
342 643
343 368
343 603
343 643
344 355
344 479
344 603
344 615
344 618
344 621
344 654
345 601
345 603
345 616
345 633
346 603
346 611
346 662
347 469
347 603
347 615
347 635
348 448
348 469
348 470
348 603
348 615
348 618
348 621
349 448
349 470
349 603
350 448
350 470
350 603
350 616
351 448
351 470
351 553
351 557
351 603
351 616
351 643
351 655
352 388
352 448
352 470
352 603
352 616
352 643
353 448
353 470
353 603
354 439
354 448
354 469
354 598
354 603
354 615
354 620
355 397
355 448
355 465
355 469
355 598
355 603
356 448
356 469
356 598
356 603
356 615
356 621
356 627
356 640
357 448
357 469
357 597
357 598
357 603
358 448
358 469
358 598
358 603
358 611
358 627
359 414
359 448
359 469
359 603
359 604
359 616
359 651
360 448
360 469
360 470
360 603
360 616
360 629
360 651
360 653
360 655
360 683
361 448
361 469
361 470
361 558
361 603
361 616
361 651
362 448
362 470
362 603
362 616
362 651
363 448
363 470
363 603
363 616
363 645
363 651
364 448
364 470
364 603
364 616
364 684
365 448
365 470
365 603
365 616
365 640
366 448
366 470
366 553
366 603
366 616
367 469
367 603
367 616
368 448
368 469
368 598
368 603
368 614
368 619
368 624
368 642
368 649
368 679
368 680
369 448
369 469
369 598
369 603
369 649
370 448
370 469
370 598
370 603
370 615
370 616
371 448
371 469
371 513
371 563
371 598
371 603
371 616
371 641
371 654
372 448
372 469
372 598
372 603
372 616
372 636
373 448
373 469
373 598
373 603
373 611
373 615
373 616
373 618
374 448
374 470
374 561
374 603
374 619
374 629
374 653
374 683
375 448
375 470
375 603
375 606
375 616
376 448
376 470
376 603
376 606
376 616
377 448
377 470
377 603
377 606
377 614
377 616
377 628
377 629
377 634
377 663
378 448
378 470
378 471
378 603
378 606
378 613
378 614
378 619
378 628
378 629
378 680
378 683
379 448
379 470
379 603
379 606
379 614
379 616
379 663
380 448
380 470
380 559
380 603
380 606
380 616
381 448
381 470
381 603
381 606
381 614
381 616
381 629
381 636
382 448
382 470
382 542
382 603
382 606
382 617
383 448
383 470
383 598
383 603
383 619
384 448
384 470
384 598
384 603
384 616
385 448
385 470
385 598
385 603
385 613
385 623
385 629
385 683
385 685
386 448
386 470
386 598
386 603
386 624
386 629
386 642
386 651
386 653
386 655
387 422
387 470
387 488
387 598
387 603
387 615
387 616
387 618
387 621
387 636
387 656
388 448
388 469
388 470
388 552
388 603
388 604
388 616
388 629
388 654
388 683
389 419
389 469
389 470
389 564
389 597
389 603
389 616
389 629
389 641
389 643
389 651
389 683
390 469
390 470
390 603
390 619
390 629
390 643
390 651
390 653
390 660
390 683
391 469
391 470
391 472
391 559
391 563
391 564
391 565
391 566
391 598
391 603
391 613
391 614
391 619
391 628
391 640
391 641
391 651
391 683
391 684
392 448
392 469
392 476
392 563
392 598
392 603
392 606
392 628
392 629
392 651
392 683
393 448
393 469
393 475
393 558
393 564
393 565
393 566
393 598
393 603
393 606
393 616
393 628
393 629
393 641
393 649
393 651
393 683
394 448
394 469
394 566
394 598
394 603
394 614
394 619
394 628
394 629
394 645
394 649
394 653
394 655
394 663
394 683
395 448
395 469
395 598
395 603
395 616
395 628
395 640
395 648
395 651
395 683
395 684
396 448
396 469
396 598
396 603
396 606
396 611
396 616
396 628
396 650
396 651
396 683
397 448
397 469
397 470
397 548
397 549
397 598
397 603
397 604
397 611
397 615
397 651
397 654
397 660
397 683
398 469
398 470
398 598
398 603
398 615
398 621
398 635
399 469
399 470
399 598
399 603
399 615
399 618
399 620
400 405
400 406
400 413
400 415
400 469
400 470
400 492
400 598
400 603
401 469
401 470
401 598
401 603
401 636
401 639
401 656
402 478
402 598
402 603
402 606
402 615
402 621
402 628
402 660
403 598
403 603
403 606
403 610
403 613
403 620
403 623
403 627
403 631
403 632
403 650
403 655
403 662
403 678
403 679
403 680
403 684
404 598
404 603
404 606
404 610
404 613
404 617
404 623
404 629
404 631
404 643
404 649
404 654
404 655
404 678
404 679
405 469
405 470
405 478
405 479
405 562
405 566
405 598
405 603
405 616
405 629
405 651
405 660
406 468
406 470
406 478
406 479
406 598
406 602
406 603
406 604
406 615
406 651
407 470
407 478
407 479
407 598
407 602
407 603
407 654
407 662
408 470
408 478
408 598
408 603
408 617
408 636
408 642
409 470
409 478
409 598
409 603
409 615
409 618
409 621
409 642
410 470
410 478
410 479
410 598
410 603
411 470
411 478
411 479
411 598
411 603
411 620
411 628
412 470
412 478
412 566
412 598
412 603
412 606
412 631
412 681
413 470
413 478
413 598
413 603
413 639
414 470
414 478
414 598
414 603
414 616
414 641
414 684
415 470
415 478
415 598
415 603
415 611
415 616
415 643
416 469
416 470
416 478
416 558
416 598
416 603
416 611
416 640
417 469
417 470
417 478
417 598
417 603
417 640
417 680
418 470
418 558
418 598
418 603
419 470
419 598
419 603
419 615
419 631
419 632
420 448
420 470
420 471
420 598
420 615
420 618
420 621
420 636
420 650
421 448
421 470
421 598
421 654
422 448
422 470
422 542
422 548
422 549
422 553
422 555
422 602
422 609
422 614
422 618
422 619
422 630
422 636
422 637
422 639
422 642
422 643
422 645
422 653
422 657
422 659
423 548
423 549
423 551
423 553
423 555
423 616
423 630
423 631
423 637
423 639
424 546
424 548
424 549
424 551
424 552
424 553
424 554
424 555
424 613
424 617
424 620
424 636
424 654
425 447
425 485
425 546
425 548
425 549
425 551
425 555
425 562
425 613
425 615
425 622
425 635
425 663
425 670
425 671
425 672
425 673
425 674
425 675
425 676
425 677
426 548
426 549
426 551
426 553
426 618
426 635
426 636
426 637
426 639
426 678
426 679
426 680
426 681
426 682
426 683
426 684
427 616
427 619
427 627
427 632
427 654
428 474
428 628
429 470
430 460
430 462
430 470
430 598
430 615
430 618
430 621
431 448
431 598
431 615
431 635
432 559
432 598
432 615
432 618
432 654
433 458
433 528
433 603
433 611
433 615
433 654
434 448
434 527
434 603
434 615
434 618
434 656
435 615
435 639
436 470
436 611
436 637
436 639
436 654
437 470
437 656
438 448
438 478
439 656
440 632
441 470
441 636
442 448
442 470
442 636
443 470
443 639
444 448
444 542
444 598
444 629
444 630
444 637
444 639
444 643
445 448
445 479
445 598
445 602
445 604
445 610
445 630
445 631
445 633
445 637
445 643
445 656
445 670
445 671
445 672
445 673
445 674
445 675
445 676
445 677
446 447
446 448
446 598
446 602
446 610
446 611
446 616
446 630
446 631
446 637
446 639
446 643
446 655
446 656
446 657
447 448
447 481
447 486
447 598
447 602
447 603
447 606
447 630
447 631
447 633
447 637
447 643
447 656
447 657
448 449
448 450
448 451
448 452
448 463
448 464
448 466
448 469
448 474
448 475
448 476
448 477
448 478
448 479
448 480
448 481
448 482
448 483
448 484
448 485
448 489
448 491
448 505
448 506
448 509
448 511
448 514
448 515
448 520
448 521
448 529
448 530
448 598
448 602
448 604
448 606
448 616
448 630
448 636
448 637
448 643
448 653
448 655
449 461
449 479
449 548
449 549
449 598
449 606
449 614
449 616
449 621
449 630
449 635
449 636
449 637
449 655
449 656
450 598
450 621
450 630
450 632
450 635
450 636
450 637
450 643
450 656
450 657
450 679
450 683
451 479
451 603
451 615
451 621
451 629
451 635
451 637
451 654
452 470
452 603
452 616
453 639
453 656
454 479
454 611
454 615
455 478
455 598
455 603
455 606
455 630
455 637
455 654
455 684
456 478
456 598
456 603
456 616
456 629
456 630
456 633
456 655
457 537
457 602
457 636
457 655
458 602
458 636
458 637
459 538
459 616
459 637
459 656
460 618
460 637
460 656
461 598
461 628
461 630
461 637
463 470
463 523
463 618
463 622
463 627
463 630
463 631
463 659
463 663
464 470
464 598
464 603
464 611
464 617
464 618
464 619
464 639
464 654
465 598
465 611
465 618
465 639
466 470
466 616
466 618
466 637
467 469
467 470
467 472
467 598
467 603
467 616
467 618
467 620
467 652
467 655
467 666
468 469
468 470
468 472
468 479
468 523
468 540
468 598
468 603
468 616
468 618
468 620
468 628
468 629
468 652
468 655
468 666
468 683
469 470
469 471
469 472
469 477
469 478
469 479
469 480
469 481
469 482
469 483
469 484
469 541
469 542
469 551
469 552
469 554
469 589
469 593
469 595
469 597
469 599
469 610
469 613
469 623
469 628
469 652
469 666
469 683
470 471
470 472
470 473
470 475
470 476
470 477
470 478
470 479
470 480
470 481
470 482
470 483
470 484
470 485
470 489
470 490
470 497
470 498
470 505
470 506
470 508
470 509
470 520
470 521
470 526
470 527
470 532
470 533
470 541
470 542
470 589
470 603
470 610
470 613
470 614
470 620
470 623
470 624
470 628
470 640
470 642
470 652
470 655
470 666
470 683
471 472
471 480
471 481
471 482
471 483
471 484
471 534
471 535
471 537
471 539
471 603
471 611
471 615
471 618
471 621
471 641
471 643
471 652
471 653
471 666
471 683
472 473
472 493
472 501
472 505
472 506
472 509
472 511
472 515
472 522
472 523
472 534
472 540
472 603
472 616
472 618
472 643
472 652
472 666
473 509
473 603
473 624
473 627
473 652
473 654
473 666
473 679
474 542
474 603
474 610
474 613
474 614
474 617
474 630
474 632
474 640
474 642
474 652
474 659
475 598
475 613
475 619
475 624
475 630
475 636
475 637
475 645
475 659
476 611
476 616
476 618
476 621
476 637
476 645
476 659
477 479
477 532
477 598
477 613
477 627
477 631
477 636
477 642
477 649
477 655
477 659
477 664
477 680
477 683
478 501
478 502
478 503
478 504
478 505
478 506
478 507
478 509
478 510
478 511
478 512
478 514
478 609
478 616
478 635
478 636
478 637
478 655
478 659
479 505
479 506
479 519
479 523
479 541
479 542
479 598
479 603
479 613
479 614
479 619
479 630
479 632
479 652
479 656
479 659
480 598
480 603
480 606
480 614
480 616
480 621
480 630
480 633
480 637
480 656
480 683
481 604
481 606
481 610
481 611
481 616
481 629
481 630
481 633
481 656
482 609
482 616
482 630
482 635
482 637
482 645
482 656
483 603
483 604
483 609
483 610
483 616
483 643
483 645
483 656
484 603
484 616
484 643
484 653
484 656
484 685
485 548
485 549
485 551
485 552
485 598
485 599
485 602
485 603
485 606
485 616
485 630
485 636
485 640
485 643
485 649
485 653
485 656
485 658
485 662
485 685
486 548
486 549
486 551
486 598
486 599
486 616
486 635
486 637
486 649
486 653
486 656
486 658
486 661
487 598
487 611
487 615
487 618
487 622
487 631
487 656
487 657
487 658
487 660
487 663
488 602
488 611
488 614
488 615
488 618
488 622
488 635
488 656
488 657
488 658
488 663
489 602
489 611
489 618
489 656
489 662
489 663
490 530
490 602
490 611
490 618
490 639
490 656
490 658
490 663
491 611
491 618
491 639
491 656
491 658
491 663
492 611
492 618
492 639
492 656
492 658
492 661
492 663
493 611
493 615
493 616
493 618
493 627
493 635
493 639
493 656
493 657
493 658
493 663
494 542
494 618
494 639
494 656
494 658
494 663
496 598
496 657
497 559
497 598
497 657
498 598
498 639
498 657
499 598
499 621
499 657
500 598
500 636
500 639
500 657
501 611
502 611
503 603
503 611
503 615
503 621
503 637
504 611
504 615
504 637
505 611
505 615
505 621
505 635
505 636
505 649
505 656
505 659
506 603
506 606
506 610
506 613
506 614
506 619
506 629
506 648
506 649
506 656
506 657
506 658
506 662
507 639
507 660
507 662
508 639
508 656
508 660
508 661
508 662
509 603
509 656
509 660
509 662
510 656
510 660
510 662
511 635
511 643
511 656
511 662
512 602
512 643
512 656
512 660
512 662
512 663
513 602
513 603
513 656
513 660
513 662
514 602
514 603
514 651
514 656
514 658
514 662
515 613
515 614
515 627
515 637
515 655
515 656
515 660
515 662
516 617
516 637
516 654
516 656
516 660
516 661
516 662
517 590
517 598
517 645
517 654
517 656
517 661
517 662
517 683
517 685
518 598
518 603
518 635
518 636
518 654
518 655
518 660
518 661
518 663
519 598
519 603
519 630
519 657
519 660
519 661
519 668
519 683
520 613
520 624
520 629
520 630
520 635
520 636
520 648
520 661
521 611
521 636
521 658
521 661
521 678
522 629
522 649
522 657
522 661
523 593
523 601
523 604
523 606
523 610
523 613
523 617
523 623
523 631
523 633
523 637
523 642
523 645
523 649
523 653
523 661
524 553
524 654
525 603
525 619
526 533
526 635
526 640
527 533
527 619
528 604
528 633
528 640
528 685
529 653
530 603
530 610
530 651
531 553
531 598
531 603
531 639
531 649
531 653
531 654
531 685
532 598
532 630
532 636
532 637
532 653
533 603
533 653
534 611
539 611
541 552
541 563
541 564
541 565
541 603
541 623
541 629
541 636
541 645
542 552
542 603
542 623
542 655
542 683
543 544
543 546
543 548
543 550
543 575
543 578
543 579
543 580
543 584
543 586
543 592
544 546
544 550
544 551
544 554
544 584
544 586
544 592
545 546
545 548
545 549
545 550
545 554
545 555
545 574
545 578
545 579
545 580
545 584
545 586
545 592
545 642
546 547
546 550
546 554
546 573
546 574
546 575
546 576
546 578
546 580
546 581
546 584
546 591
546 626
546 644
546 645
546 653
547 548
547 549
547 550
547 552
547 574
547 576
547 580
547 584
547 592
547 644
547 645
548 550
548 574
548 575
548 577
548 580
548 581
548 584
548 586
548 591
548 592
548 626
548 644
548 645
549 575
549 576
549 579
549 580
549 584
549 592
549 644
549 645
549 653
550 555
550 573
550 574
550 579
550 584
550 586
550 591
550 592
550 626
550 644
550 645
551 566
551 569
551 571
551 575
551 576
551 581
551 583
551 595
551 624
551 625
551 665
551 679
552 554
552 572
552 575
552 576
552 581
552 583
552 595
552 597
552 599
552 606
552 624
552 625
552 627
552 642
552 648
552 664
552 669
553 571
553 572
553 581
553 583
553 592
553 624
553 625
553 685
554 591
554 644
555 563
555 564
555 565
555 569
555 571
555 577
555 578
555 579
555 580
555 591
555 650
555 653
555 669
556 572
556 583
556 630
556 648
556 664
556 678
556 680
557 572
557 583
557 648
557 650
557 668
558 583
558 595
558 642
558 650
558 664
558 678
559 572
559 583
559 597
559 599
559 600
559 604
559 606
559 623
559 624
559 627
559 628
559 645
559 648
559 678
560 563
560 564
560 565
560 571
560 624
560 625
560 642
560 648
560 650
560 665
560 669
560 678
560 679
560 680
560 685
561 571
561 664
561 668
562 628
562 680
563 564
563 566
563 668
563 669
564 566
564 604
564 624
565 566
565 569
565 572
565 643
566 571
566 624
566 625
566 648
566 650
566 665
566 668
567 569
567 570
567 640
567 641
567 643
567 645
567 652
567 669
567 674
567 682
568 641
568 642
568 645
568 646
568 648
568 650
568 664
568 668
568 669
568 680
568 685
569 664
569 668
569 681
569 682
569 683
569 684
570 640
570 653
570 667
570 678
570 679
570 681
570 684
570 685
571 593
571 599
571 643
574 578
574 579
574 582
574 585
574 626
574 664
575 578
575 582
575 595
575 626
576 578
577 586
577 626
578 586
578 595
578 626
582 583
582 640
582 646
582 652
582 665
582 671
582 672
582 673
582 676
582 678
583 589
583 596
583 597
584 591
584 646
584 664
584 672
585 587
585 588
585 593
585 594
585 595
585 596
585 597
585 645
585 649
585 685
587 668
587 669
588 669
589 629
589 641
589 643
589 650
589 653
589 664
589 666
589 668
589 672
589 673
589 674
589 675
589 683
589 684
589 685
593 640
593 641
593 642
593 649
593 651
593 654
593 664
593 666
593 667
593 668
593 674
593 685
595 659
595 660
595 661
598 659
599 602
599 611
599 617
599 651
599 669
600 609
600 615
600 616
600 619
600 627
600 634
600 635
600 656
600 657
600 658
600 681
600 682
601 639
601 682
603 604
604 663
604 678
605 679
613 665
615 665
624 643
624 669
624 683
625 656
625 662
625 679
625 680
625 681
625 683
625 684
635 678
643 668
644 668
644 669
644 678
646 668
646 669
648 680
648 683
649 668
650 668
651 668
652 668
653 668
654 668
663 678
664 669
665 670
665 671
665 676
665 678
665 681
665 682
668 671
668 672
668 673
668 676
668 680
668 681
668 682
668 683
668 684
668 685
669 679
669 680
669 681
669 683
669 684
669 685
678 681
678 682
678 685
679 682
679 683
679 685
