0 40
1 371
1 507
2 185
2 524
3 194
3 198
4 196
4 471
5 196
6 196
7 109
7 208
7 404
7 426
7 479
7 515
7 539
7 578
7 619
7 719
7 751
8 213
8 239
8 248
8 266
8 267
8 335
8 372
8 385
8 389
8 562
8 766
9 194
9 411
10 110
10 117
10 179
10 180
10 194
10 201
10 203
10 210
10 227
10 248
10 257
10 278
10 331
10 344
10 346
10 388
10 400
10 417
10 426
10 427
10 446
10 450
10 452
10 457
10 476
10 523
10 524
10 568
10 577
10 607
10 609
10 624
10 627
10 636
10 681
10 690
10 699
10 710
10 744
10 751
11 524
12 95
12 99
12 119
12 121
12 122
12 125
12 132
12 136
12 141
12 142
12 143
12 144
12 146
12 147
12 148
12 150
12 151
12 154
12 158
12 159
12 160
12 165
12 166
12 167
12 168
12 169
12 170
12 172
12 173
12 174
12 182
12 189
12 190
12 209
12 217
12 221
12 223
12 225
12 228
12 236
12 237
12 251
12 258
12 263
12 265
12 279
12 280
12 281
12 282
12 283
12 298
12 300
12 301
12 302
12 319
12 324
12 326
12 327
12 329
12 332
12 335
12 336
12 347
12 351
12 353
12 354
12 355
12 356
12 357
12 358
12 360
12 361
12 362
12 364
12 365
12 366
12 367
12 368
12 369
12 370
12 371
12 372
12 375
12 376
12 379
12 380
12 381
12 382
12 383
12 384
12 386
12 390
12 391
12 395
12 398
12 402
12 410
12 415
12 417
12 420
12 429
12 431
12 432
12 435
12 448
12 449
12 456
12 459
12 461
12 471
12 480
12 481
12 486
12 489
12 490
12 491
12 492
12 493
12 494
12 499
12 503
12 509
12 510
12 511
12 514
12 516
12 518
12 519
12 524
12 531
12 536
12 541
12 542
12 543
12 549
12 551
12 552
12 553
12 555
12 556
12 557
12 559
12 560
12 561
12 575
12 576
12 585
12 606
12 611
12 613
12 617
12 631
12 632
12 637
12 640
12 642
12 649
12 650
12 651
12 653
12 655
12 661
12 662
12 665
12 671
12 678
12 683
12 685
12 694
12 698
12 700
12 701
12 703
12 705
12 706
12 707
12 708
12 723
12 728
12 729
12 730
12 731
12 732
12 733
12 734
12 735
12 737
12 769
12 770
13 247
13 426
13 464
13 537
13 588
14 232
14 248
14 398
14 399
14 423
14 523
14 528
14 771
15 98
15 102
15 103
15 178
15 193
15 198
15 227
15 252
15 264
15 271
15 291
15 341
15 342
15 343
15 344
15 398
15 411
15 414
15 421
15 426
15 436
15 438
15 455
15 470
15 481
15 484
15 485
15 577
15 588
15 589
15 591
15 609
15 614
15 618
15 628
15 629
15 636
15 662
15 664
15 765
16 412
18 122
18 248
19 194
19 198
19 202
19 304
19 398
19 444
19 445
20 98
20 197
20 198
20 311
20 395
20 437
20 465
20 480
20 487
20 502
20 636
20 741
21 476
22 138
22 139
22 162
22 163
22 194
22 271
22 275
22 330
22 345
22 376
22 392
22 393
22 398
22 411
22 473
22 475
22 524
22 549
22 565
22 584
22 614
22 661
22 662
22 677
22 684
23 196
24 162
24 196
24 198
24 248
24 322
24 398
24 487
24 635
24 736
24 750
25 198
26 198
27 123
27 144
27 196
27 197
27 199
27 240
27 247
27 248
27 260
27 300
27 480
27 504
27 569
27 570
27 582
27 587
27 710
28 102
28 133
28 137
28 153
28 162
28 184
28 194
28 214
28 247
28 248
28 255
28 268
28 270
28 334
28 471
28 499
28 540
28 617
28 652
29 586
30 185
31 112
31 119
31 125
31 181
31 194
31 196
31 247
31 294
31 397
31 398
31 425
31 472
31 475
31 477
31 480
31 481
31 483
31 484
31 488
31 538
31 540
31 544
31 549
31 572
31 573
31 575
31 588
31 662
31 744
31 767
32 196
33 199
34 94
34 100
34 107
34 111
34 119
34 120
34 121
34 122
34 125
34 137
34 144
34 145
34 147
34 148
34 219
34 229
34 230
34 242
34 272
34 284
34 288
34 300
34 316
34 366
34 395
34 398
34 400
34 405
34 425
34 433
34 460
34 462
34 472
34 480
34 481
34 496
34 497
34 516
34 518
34 519
34 524
34 525
34 528
34 549
34 550
34 558
34 574
34 575
34 601
34 602
34 603
34 617
34 636
34 645
34 657
34 662
34 671
34 674
34 675
34 678
34 696
34 702
34 707
34 726
34 743
34 759
35 371
35 372
35 487
35 643
36 198
36 220
36 248
36 398
36 423
36 471
36 478
36 481
36 521
36 607
36 718
37 198
37 481
38 162
38 186
38 196
38 197
38 535
38 752
39 95
39 99
39 101
39 108
39 109
39 119
39 125
39 135
39 137
39 141
39 144
39 147
39 152
39 171
39 218
39 273
39 276
39 283
39 300
39 326
39 340
39 346
39 348
39 352
39 367
39 395
39 398
39 415
39 441
39 472
39 480
39 481
39 499
39 505
39 506
39 510
39 524
39 532
39 549
39 554
39 569
39 621
39 660
39 666
39 714
39 749
40 98
40 116
40 128
40 162
40 163
40 183
40 194
40 196
40 198
40 254
40 259
40 300
40 333
40 349
40 350
40 395
40 396
40 400
40 408
40 417
40 447
40 451
40 453
40 464
40 467
40 477
40 480
40 481
40 482
40 487
40 502
40 526
40 534
40 537
40 549
40 588
40 600
40 609
40 634
40 636
40 641
40 659
40 671
40 679
40 711
40 760
40 761
40 762
40 764
41 105
41 111
41 116
41 117
41 128
41 130
41 141
41 156
41 162
41 177
41 179
41 187
41 193
41 194
41 196
41 198
41 224
41 232
41 233
41 253
41 255
41 274
41 286
41 292
41 300
41 309
41 314
41 318
41 325
41 345
41 387
41 398
41 399
41 400
41 401
41 404
41 407
41 411
41 414
41 417
41 418
41 422
41 466
41 468
41 481
41 485
41 489
41 508
41 512
41 549
41 564
41 567
41 580
41 588
41 590
41 592
41 594
41 596
41 608
41 609
41 610
41 615
41 622
41 625
41 647
41 662
41 663
41 668
41 674
41 709
41 720
41 748
41 755
41 756
41 757
41 758
41 768
42 196
43 196
43 198
43 635
44 112
44 113
44 137
44 138
44 144
44 197
44 212
44 277
44 299
44 300
44 399
44 473
44 485
44 524
44 525
44 574
44 581
44 605
44 662
44 668
45 248
45 265
45 398
45 487
46 194
46 196
46 198
46 520
46 724
47 196
47 198
47 306
47 423
47 480
47 481
48 104
48 186
48 192
48 307
48 315
48 412
48 470
48 484
48 485
48 498
48 592
48 614
48 620
48 654
48 662
48 667
48 722
49 397
50 110
50 122
50 248
50 579
51 572
52 394
53 132
53 134
53 139
53 143
53 338
53 339
53 394
53 616
53 681
53 691
54 162
54 194
54 196
54 224
54 398
54 399
54 695
55 96
55 131
55 143
55 196
55 235
55 248
55 261
55 265
55 305
55 363
55 394
55 395
55 398
55 423
55 434
55 523
55 528
55 572
55 598
55 644
56 260
57 115
57 156
57 215
57 257
57 290
57 310
57 400
57 404
57 419
57 440
57 521
57 568
57 662
57 677
57 682
58 198
59 196
60 104
60 108
60 176
60 216
60 234
60 261
60 264
60 269
60 279
60 297
60 367
60 372
60 430
60 454
60 495
60 499
60 612
60 613
60 626
60 646
60 715
60 727
60 747
61 197
61 198
61 199
61 207
61 248
61 250
61 293
61 296
61 321
61 374
61 397
61 406
61 499
61 566
61 572
61 676
61 689
61 746
62 97
62 103
62 109
62 129
62 175
62 188
62 248
62 261
62 359
62 373
62 378
62 397
62 398
62 406
62 483
62 536
62 549
62 562
62 717
62 764
63 196
63 198
64 96
64 113
64 162
64 163
64 198
64 200
64 206
64 231
64 243
64 244
64 247
64 248
64 305
64 346
64 394
64 428
64 439
64 442
64 443
64 472
64 485
64 487
64 547
64 587
64 670
64 713
64 724
64 751
64 753
65 109
65 195
65 204
65 287
65 398
65 404
65 426
65 466
65 481
65 578
65 630
65 688
65 751
66 103
66 157
66 162
66 163
66 194
66 256
66 308
66 337
66 398
66 399
66 404
66 426
66 489
66 521
66 636
66 638
66 643
66 686
66 687
66 693
66 751
67 480
67 543
67 545
68 125
68 399
68 481
69 196
69 198
70 222
70 248
70 312
70 317
70 366
70 599
70 657
70 751
71 198
71 248
71 371
71 423
72 197
72 198
73 118
73 144
73 149
73 150
73 155
73 164
73 238
73 249
73 262
73 295
73 320
73 334
73 377
73 397
73 406
73 548
73 562
74 196
75 481
76 198
76 343
76 413
76 426
76 478
76 487
76 534
76 636
77 398
77 680
78 139
78 193
78 246
78 248
78 253
78 399
78 403
78 485
78 573
79 185
79 196
79 197
81 107
81 109
81 119
81 124
81 125
81 160
81 415
81 472
81 481
81 516
81 517
81 543
81 549
81 569
81 597
81 599
81 601
81 603
81 604
81 611
81 613
81 633
81 645
81 658
81 663
81 672
81 712
81 739
81 745
82 196
83 162
84 198
85 105
85 106
85 119
85 144
85 160
85 161
85 205
85 211
85 226
85 241
85 298
85 300
85 313
85 323
85 328
85 366
85 398
85 400
85 415
85 426
85 458
85 469
85 472
85 480
85 481
85 501
85 522
85 528
85 543
85 549
85 575
85 599
85 613
85 621
85 636
85 669
85 678
85 692
85 740
85 742
85 745
85 751
86 248
87 114
87 182
87 199
87 247
87 248
87 267
87 372
87 471
87 519
87 571
88 114
88 121
88 133
88 140
88 248
88 260
88 285
88 424
88 463
88 583
89 194
89 199
89 245
89 247
89 248
89 289
89 371
89 489
89 571
89 583
89 721
89 764
90 126
90 127
90 132
90 160
90 162
90 163
90 191
90 194
90 196
90 197
90 198
90 241
90 242
90 247
90 248
90 298
90 300
90 323
90 359
90 398
90 409
90 416
90 468
90 483
90 485
90 486
90 487
90 500
90 503
90 528
90 529
90 530
90 533
90 546
90 593
90 597
90 603
90 613
90 617
90 623
90 639
90 673
90 716
90 725
90 732
91 124
91 160
91 228
91 248
91 300
91 303
91 313
91 328
91 398
91 412
91 420
91 474
91 480
91 481
91 483
91 485
91 486
91 513
91 527
91 543
91 549
91 563
91 575
91 576
91 595
91 613
91 648
91 656
91 678
91 697
91 704
91 738
91 754
91 763
92 487
93 196
93 198
