0 1
0 2
0 3
0 4
0 5
0 6
0 7
0 8
0 9
0 10
0 11
0 12
0 13
0 14
0 15
0 16
0 17
0 22
0 36
0 44
0 45
0 49
0 58
0 61
0 73
0 76
0 79
0 85
0 87
0 92
0 119
0 121
0 137
0 153
0 237
0 283
1 2
1 3
1 6
1 8
1 9
1 12
1 14
1 15
1 16
1 21
1 22
1 24
1 34
1 45
1 49
1 58
1 59
1 61
1 76
1 85
1 87
1 92
1 119
1 153
2 3
2 5
2 6
2 7
2 8
2 9
2 12
2 13
2 14
2 15
2 16
2 17
2 20
2 22
2 23
2 28
2 30
2 35
2 36
2 37
2 44
2 45
2 48
2 51
2 58
2 59
2 61
2 63
2 70
2 71
2 80
2 87
2 92
2 94
2 114
2 116
2 467
3 4
3 5
3 6
3 7
3 8
3 9
3 10
3 11
3 12
3 13
3 14
3 15
3 16
3 17
3 18
3 19
3 20
3 21
3 22
3 23
3 24
3 27
3 29
3 45
3 49
3 56
3 58
3 60
3 62
3 71
3 85
3 87
3 102
3 153
3 299
3 468
3 470
3 481
3 485
3 487
4 5
4 6
4 8
4 9
4 10
4 11
4 12
4 13
4 14
4 16
4 18
4 19
4 20
4 21
4 23
4 24
4 45
4 54
4 58
4 59
4 64
4 73
4 80
4 87
4 121
4 124
4 125
4 127
4 243
5 6
5 7
5 8
5 9
5 10
5 11
5 12
5 13
5 14
5 16
5 17
5 18
5 19
5 20
5 21
5 22
5 23
5 24
5 26
5 27
5 28
5 29
5 45
5 51
5 52
5 54
5 56
5 58
5 64
5 76
5 84
5 87
5 115
5 204
6 7
6 8
6 9
6 11
6 12
6 13
6 14
6 15
6 16
6 17
6 20
6 22
6 23
6 24
6 28
6 30
6 35
6 36
6 37
6 45
6 48
6 49
6 51
6 52
6 58
6 70
6 71
6 80
6 84
6 87
6 92
6 94
6 104
6 114
6 116
6 467
7 9
7 11
7 12
7 13
7 14
7 15
7 16
7 17
7 18
7 20
7 21
7 22
7 23
7 24
7 28
7 29
7 30
7 45
7 51
7 54
7 56
7 58
7 59
7 60
7 71
7 73
7 82
7 87
7 102
7 114
7 121
7 127
8 9
8 12
8 13
8 14
8 15
8 16
8 17
8 21
8 22
8 23
8 28
8 36
8 43
8 44
8 58
8 59
8 61
8 71
8 73
8 80
8 87
8 116
9 11
9 12
9 13
9 14
9 15
9 16
9 17
9 18
9 20
9 21
9 22
9 23
9 24
9 27
9 36
9 37
9 45
9 49
9 58
9 59
9 61
9 63
9 71
9 76
9 77
9 87
9 116
9 121
9 348
9 380
9 467
10 14
10 16
10 18
10 19
10 21
10 24
10 45
10 58
10 71
10 73
10 87
10 121
10 124
10 127
10 153
11 12
11 14
11 16
11 18
11 20
11 21
11 23
11 24
11 28
11 29
11 30
11 45
11 51
11 56
11 58
11 60
11 92
11 99
11 102
11 115
11 153
12 13
12 14
12 16
12 17
12 20
12 21
12 22
12 23
12 27
12 28
12 29
12 30
12 35
12 36
12 37
12 44
12 45
12 46
12 48
12 51
12 58
12 61
12 63
12 70
12 71
12 80
12 87
12 92
12 104
12 114
12 116
12 126
12 138
12 153
12 170
12 411
12 467
13 14
13 15
13 16
13 17
13 20
13 21
13 22
13 36
13 45
13 49
13 58
13 87
13 119
13 153
13 468
14 15
14 16
14 17
14 20
14 22
14 23
14 28
14 36
14 43
14 44
14 45
14 58
14 71
14 77
14 87
14 153
15 16
15 17
15 22
15 45
15 47
15 49
15 58
15 61
15 62
15 63
15 85
15 87
15 92
15 114
15 119
15 153
16 18
16 19
16 20
16 21
16 23
16 24
16 27
16 28
16 29
16 45
16 51
16 52
16 54
16 56
16 58
16 60
16 64
16 76
16 84
16 85
16 87
16 95
16 99
16 100
16 102
16 115
16 153
17 22
17 28
17 36
17 43
17 44
17 45
17 58
17 61
17 71
17 80
17 87
17 119
17 153
18 19
18 20
18 21
18 24
18 29
18 45
18 52
18 54
18 56
18 58
18 59
18 63
18 64
18 76
18 85
18 87
18 115
18 117
18 121
19 21
19 24
19 26
19 34
19 45
19 58
19 59
19 69
19 73
19 85
19 87
19 121
19 153
19 261
20 21
20 22
20 23
20 24
20 25
20 26
20 27
20 28
20 29
20 30
20 45
20 51
20 52
20 54
20 56
20 58
20 60
20 71
20 82
20 87
20 114
20 115
20 121
21 22
21 23
21 24
21 26
21 27
21 29
21 45
21 54
21 56
21 58
21 64
21 73
21 76
21 85
21 87
21 100
21 115
21 121
21 153
21 467
22 23
22 28
22 30
22 36
22 37
22 44
22 45
22 49
22 58
22 59
22 61
22 62
22 63
22 71
22 77
22 84
22 85
22 87
22 92
22 114
22 116
22 467
23 24
23 27
23 29
23 30
23 45
23 49
23 51
23 56
23 58
23 60
23 82
23 87
23 99
23 102
23 114
23 115
23 127
23 153
23 299
23 468
23 470
23 481
23 487
24 27
24 28
24 29
24 30
24 45
24 51
24 56
24 58
24 60
24 82
24 87
24 99
24 102
24 127
24 153
25 26
25 27
25 28
25 29
25 30
25 31
25 32
25 33
25 34
25 35
25 39
25 41
25 42
25 44
25 45
25 47
25 49
25 52
25 53
25 56
25 60
25 71
25 79
25 82
25 84
25 99
25 101
25 102
25 126
26 27
26 28
26 29
26 30
26 31
26 32
26 33
26 34
26 35
26 37
26 39
26 41
26 42
26 45
26 49
26 52
26 71
26 79
26 84
26 101
26 102
26 122
26 204
27 28
27 29
27 30
27 31
27 32
27 33
27 34
27 35
27 36
27 39
27 41
27 42
27 44
27 45
27 48
27 49
27 52
27 56
27 60
27 62
27 63
27 71
27 79
27 82
27 99
27 102
27 114
27 115
27 116
28 29
28 30
28 31
28 32
28 33
28 34
28 35
28 36
28 37
28 39
28 40
28 41
28 42
28 43
28 44
28 45
28 46
28 48
28 49
28 52
28 53
28 54
28 56
28 61
28 63
28 65
28 67
28 68
28 71
28 75
28 76
28 77
28 78
28 79
28 80
28 81
28 82
28 83
28 84
28 85
28 86
28 87
28 88
28 89
28 90
28 91
28 92
28 93
28 94
28 102
28 104
28 126
28 237
29 30
29 31
29 32
29 33
29 34
29 35
29 36
29 37
29 39
29 41
29 42
29 43
29 44
29 45
29 46
29 48
29 49
29 50
29 51
29 52
29 53
29 54
29 55
29 56
29 57
29 60
29 63
29 64
29 65
29 69
29 71
29 72
29 75
29 79
29 81
29 82
29 85
29 86
29 87
29 88
29 94
29 95
29 98
29 99
29 100
29 101
29 102
29 114
30 31
30 32
30 33
30 34
30 35
30 36
30 41
30 42
30 44
30 45
30 49
30 52
30 53
30 56
30 58
30 60
30 71
30 72
30 79
30 81
30 82
30 86
30 88
30 99
30 102
30 114
30 115
30 126
31 32
31 33
31 34
31 35
31 36
31 37
31 38
31 39
31 40
31 41
31 42
31 43
31 44
31 45
31 46
31 47
31 48
31 49
31 56
31 62
31 63
31 83
31 93
31 114
31 119
31 237
31 283
32 33
32 34
32 35
32 36
32 37
32 38
32 39
32 40
32 41
32 42
32 43
32 44
32 45
32 46
32 47
32 48
32 49
32 52
32 54
32 56
32 60
32 62
32 79
32 99
32 109
32 115
32 119
33 34
33 35
33 37
33 38
33 39
33 41
33 42
33 43
33 45
33 48
33 49
33 52
33 55
33 58
33 60
33 62
33 64
33 69
33 70
33 73
33 79
33 87
33 92
33 96
33 98
33 99
33 100
33 101
33 107
33 108
33 109
33 113
33 115
33 118
33 121
33 122
33 123
33 243
34 35
34 38
34 40
34 41
34 42
34 45
34 49
34 52
34 54
34 55
34 56
34 57
34 58
34 59
34 60
34 61
34 62
34 79
34 99
34 102
34 109
35 36
35 37
35 38
35 39
35 40
35 41
35 42
35 43
35 44
35 45
35 46
35 48
35 49
35 50
35 52
35 61
35 67
35 68
35 69
35 70
35 71
35 72
35 79
35 80
35 88
35 92
35 93
35 104
35 114
35 116
35 118
35 119
35 120
36 37
36 38
36 39
36 40
36 42
36 43
36 44
36 45
36 46
36 48
36 49
36 50
36 51
36 52
36 71
36 119
36 429
37 38
37 39
37 40
37 41
37 42
37 43
37 44
37 45
37 46
37 48
37 49
37 52
37 61
37 65
37 67
37 71
37 74
37 79
37 83
37 84
37 85
37 91
37 92
37 93
37 94
37 103
37 114
37 115
37 116
37 117
38 39
38 42
38 44
38 45
38 46
38 47
38 49
38 52
38 61
38 62
38 71
38 73
38 79
38 92
38 93
38 116
38 119
39 40
39 42
39 43
39 44
39 45
39 46
39 47
39 48
39 49
39 52
39 63
39 71
39 92
39 130
40 41
40 42
40 43
40 44
40 45
40 46
40 49
40 52
40 63
40 71
40 76
40 79
40 83
40 92
40 119
41 42
41 43
41 44
41 45
41 46
41 47
41 48
41 49
41 52
41 63
41 69
41 79
41 95
41 96
41 97
41 109
41 114
41 119
42 43
42 45
42 46
42 49
42 52
42 54
42 56
42 60
42 62
42 63
42 71
42 76
42 82
42 84
42 99
42 102
42 115
42 126
43 44
43 45
43 46
43 49
43 52
43 56
43 71
43 73
43 79
43 83
43 92
43 107
44 45
44 46
44 48
44 49
44 63
44 65
44 68
44 71
44 75
44 76
44 77
44 78
44 79
45 46
45 48
45 49
45 51
45 52
45 53
45 54
45 55
45 56
45 60
45 71
45 75
45 79
45 81
45 82
45 84
45 86
45 87
45 88
45 99
45 102
45 124
45 467
46 48
46 49
46 61
46 63
46 66
46 67
46 71
46 76
46 77
46 78
46 79
46 83
46 84
46 85
46 90
46 91
46 92
46 93
46 94
46 97
46 103
46 104
46 105
46 106
47 49
47 62
47 63
47 66
47 71
47 74
47 96
47 100
47 102
47 105
47 113
47 115
47 116
47 119
47 127
48 49
48 52
48 61
48 63
48 67
48 71
48 72
48 79
48 83
48 92
48 114
48 116
48 119
48 359
49 51
49 52
49 54
49 56
49 57
49 58
49 59
49 61
49 62
49 63
49 64
49 65
49 66
49 67
49 68
49 69
49 70
49 71
49 72
49 73
49 74
49 119
50 59
50 61
50 67
50 68
50 69
50 70
50 71
50 72
50 73
50 74
50 79
50 80
50 91
50 92
50 93
50 95
50 98
50 102
50 103
50 107
50 108
50 109
50 111
50 114
50 116
50 118
50 121
51 53
51 58
51 60
51 62
51 63
51 64
51 66
51 71
51 75
51 81
51 82
51 84
51 86
51 88
51 92
51 97
51 99
51 101
51 102
51 104
51 105
51 106
51 110
51 112
51 113
51 114
51 115
51 116
51 117
51 119
51 122
51 123
51 126
51 127
51 289
51 357
51 359
52 54
52 55
52 56
52 57
52 58
52 60
52 64
52 69
52 92
52 95
52 96
52 98
52 102
52 103
52 108
52 109
52 110
52 111
52 112
52 113
52 114
52 115
52 116
52 122
53 54
53 55
53 56
53 57
53 58
53 60
53 64
53 65
53 71
53 73
53 75
53 76
53 77
53 78
53 79
53 81
53 82
53 83
53 84
53 85
53 86
53 87
53 88
53 89
53 90
53 94
53 100
53 102
53 114
53 115
53 124
53 125
53 126
53 470
53 474
54 55
54 56
54 57
54 58
54 64
54 65
54 70
54 71
54 75
54 76
54 78
54 81
54 82
54 83
54 84
54 86
54 87
54 88
54 89
54 90
54 94
54 95
54 96
54 100
54 102
54 103
54 110
54 124
55 56
55 63
55 64
55 75
55 76
55 77
55 78
55 79
55 81
55 82
55 83
55 84
55 86
55 87
55 88
55 89
55 95
55 100
55 102
55 124
55 125
56 57
56 58
56 63
56 64
56 65
56 75
56 76
56 77
56 78
56 81
56 82
56 83
56 84
56 85
56 86
56 87
56 88
56 89
56 90
56 94
56 95
56 100
56 102
56 124
56 125
57 71
57 75
57 78
57 79
57 81
57 82
57 83
57 84
57 86
57 87
57 88
57 89
57 90
57 95
57 100
57 102
57 115
57 124
57 125
58 60
58 65
58 71
58 73
58 75
58 76
58 77
58 78
58 82
58 84
58 86
58 87
58 88
58 89
58 91
58 102
58 109
58 124
58 125
59 61
59 67
59 68
59 69
59 70
59 71
59 72
59 73
59 74
59 79
59 80
59 91
59 92
59 93
59 95
59 98
59 102
59 103
59 107
59 108
59 109
59 111
59 115
59 118
59 121
60 62
60 63
60 75
60 81
60 82
60 86
60 92
60 97
60 101
60 102
60 104
60 105
60 110
60 114
60 115
60 116
60 117
60 119
60 122
60 123
60 127
60 136
61 63
61 65
61 67
61 68
61 70
61 71
61 72
61 73
61 74
61 79
61 80
61 85
61 91
61 92
61 93
61 94
61 95
61 98
61 103
61 107
61 108
61 111
61 118
61 121
62 63
62 64
62 66
62 68
62 71
62 96
62 97
62 101
62 102
62 104
62 105
62 106
62 110
62 112
62 113
62 114
62 115
62 116
62 117
62 119
62 122
62 123
62 126
62 127
62 200
63 66
63 68
63 71
63 72
63 74
63 77
63 78
63 81
63 83
63 84
63 90
63 92
63 96
63 97
63 98
63 101
63 102
63 104
63 105
63 106
63 110
63 112
63 113
63 114
63 115
63 116
63 117
63 119
63 122
63 123
63 126
63 127
63 129
63 130
63 131
64 65
64 69
64 73
64 75
64 76
64 77
64 78
64 81
64 82
64 83
64 84
64 86
64 87
64 88
64 89
64 90
64 94
64 95
64 96
64 100
64 103
64 110
64 113
64 124
64 125
64 127
65 67
65 71
65 75
65 76
65 77
65 78
65 79
65 81
65 82
65 83
65 84
65 85
65 86
65 87
65 88
65 89
65 90
65 91
65 94
65 100
66 71
66 97
66 102
66 104
66 105
66 114
66 115
66 116
66 119
66 123
66 126
66 127
67 68
67 69
67 70
67 71
67 72
67 73
67 74
67 79
67 80
67 83
67 85
67 88
67 91
67 92
67 93
67 94
67 95
67 98
67 100
67 103
67 107
67 108
67 109
67 111
67 118
67 119
68 69
68 70
68 71
68 72
68 73
68 74
68 79
68 80
68 83
68 91
68 92
68 93
68 95
68 97
68 98
68 103
68 107
68 108
68 109
68 111
68 118
68 126
69 70
69 72
69 73
69 74
69 79
69 80
69 84
69 91
69 92
69 93
69 95
69 98
69 99
69 103
69 108
69 109
69 111
69 116
69 118
69 121
69 243
70 71
70 72
70 73
70 74
70 79
70 80
70 91
70 92
70 93
70 95
70 98
70 103
70 107
70 108
70 111
70 114
70 116
70 118
70 121
70 126
70 280
71 72
71 73
71 74
71 75
71 76
71 77
71 78
71 79
71 80
71 81
71 83
71 84
71 85
71 88
71 90
71 91
71 92
71 93
71 94
71 97
71 98
71 103
71 104
71 105
71 106
71 107
71 108
71 111
71 114
71 116
71 118
71 121
71 126
72 73
72 74
72 79
72 80
72 83
72 84
72 91
72 92
72 93
72 95
72 97
72 98
72 103
72 104
72 107
72 108
72 109
72 111
72 116
72 118
72 121
72 125
72 126
73 74
73 80
73 89
73 91
73 92
73 93
73 95
73 98
73 103
73 107
73 108
73 109
73 111
73 118
73 121
73 124
73 125
74 79
74 80
74 91
74 92
74 93
74 95
74 98
74 103
74 107
74 108
75 76
75 77
75 78
75 79
75 81
75 82
75 83
75 84
75 85
75 86
75 87
75 88
75 89
75 90
75 91
75 93
75 94
75 99
75 100
75 102
75 104
75 115
75 124
75 125
76 77
76 78
76 81
76 82
76 83
76 84
76 85
76 86
76 87
76 88
76 89
76 90
76 94
76 100
76 119
76 124
77 78
77 79
77 81
77 82
77 83
77 84
77 85
77 86
77 87
77 88
77 89
77 90
77 91
77 94
77 100
77 105
78 79
78 81
78 82
78 83
78 84
78 85
78 86
78 87
78 88
78 89
78 90
78 91
78 93
78 94
78 100
78 104
78 124
78 125
78 126
79 80
79 81
79 82
79 83
79 84
79 85
79 88
79 91
79 92
79 93
79 95
79 98
79 100
79 103
79 107
79 108
79 109
79 111
79 118
79 119
80 83
80 91
80 92
80 93
80 95
80 103
80 107
80 108
80 111
80 114
80 116
80 118
81 82
81 83
81 84
81 86
81 87
81 88
81 89
81 90
81 94
81 99
81 102
81 114
81 124
81 125
81 126
82 83
82 84
82 85
82 86
82 87
82 88
82 89
82 90
82 94
82 99
82 100
82 102
82 124
82 125
83 84
83 85
83 86
83 87
83 88
83 89
83 90
83 91
83 92
83 93
83 94
83 95
83 96
83 100
83 103
83 104
83 106
83 107
83 124
83 125
83 126
84 85
84 86
84 87
84 88
84 89
84 90
84 94
84 97
84 100
84 102
84 103
84 104
84 105
84 106
84 112
84 116
84 119
84 124
84 125
84 126
84 237
85 86
85 87
85 88
85 89
85 90
85 94
85 100
86 87
86 88
86 89
86 90
86 91
86 94
86 100
86 102
86 124
86 125
87 88
87 89
87 90
87 93
87 94
87 100
87 102
87 124
87 125
87 128
88 89
88 90
88 91
88 94
88 95
88 100
88 102
88 124
88 125
88 126
89 90
89 94
89 100
89 124
89 125
90 94
90 100
90 124
90 125
91 92
91 93
91 94
91 103
91 107
91 108
91 109
91 111
91 116
91 476
92 93
92 95
92 98
92 103
92 107
92 108
92 109
92 110
92 111
92 114
92 115
92 116
92 117
92 118
92 119
92 121
92 127
93 95
93 103
93 107
93 108
93 109
93 111
93 118
93 119
94 100
94 102
94 114
94 126
95 96
95 98
95 100
95 102
95 103
95 108
95 109
95 110
95 111
95 118
95 121
95 299
95 430
95 458
95 472
95 475
96 101
96 102
96 104
96 105
96 110
96 115
96 116
96 117
96 119
96 127
96 243
97 102
97 104
97 105
97 106
97 110
97 114
97 115
97 116
97 119
97 123
97 126
97 127
97 479
98 103
98 107
98 108
98 109
98 111
98 118
98 121
99 145
99 149
99 151
99 156
99 157
99 159
99 163
99 182
99 183
99 184
99 198
99 200
99 202
99 203
99 220
99 225
99 233
99 234
99 235
99 238
99 242
99 243
99 245
99 248
99 249
99 255
99 264
99 265
99 267
99 285
100 108
100 109
100 110
100 112
100 115
100 124
100 125
101 102
101 105
101 110
101 112
101 113
101 115
101 116
101 117
101 122
101 123
101 127
102 104
102 105
102 106
102 110
102 112
102 113
102 114
102 115
102 116
102 117
102 119
102 122
102 123
102 126
102 127
103 107
103 108
103 109
103 111
103 118
103 121
103 293
104 105
104 106
104 113
104 114
104 115
104 116
104 117
104 119
104 122
104 123
104 126
104 127
104 132
104 135
104 138
105 106
105 110
105 112
105 113
105 114
105 115
105 116
105 117
105 119
105 122
105 123
105 126
105 127
106 114
106 115
106 116
106 119
106 126
106 127
107 108
107 109
107 111
107 118
108 109
108 111
108 115
108 118
108 121
109 111
109 115
110 112
110 113
110 114
110 115
110 116
110 117
110 119
110 122
110 123
110 127
110 456
110 464
111 115
111 118
111 121
112 115
112 116
112 117
112 119
112 123
112 127
113 115
113 116
113 117
113 119
113 123
113 126
113 127
114 115
114 116
114 117
114 119
114 123
114 126
114 127
114 133
115 116
115 117
115 118
115 119
115 121
115 122
115 123
115 124
115 125
115 126
115 127
115 139
115 140
115 141
116 117
116 119
116 122
116 123
116 126
116 127
116 200
117 119
117 123
117 127
117 137
118 121
119 122
119 123
119 126
119 127
120 141
120 185
120 271
120 297
120 305
120 307
120 309
120 310
120 312
120 314
120 315
120 317
120 319
120 321
120 322
120 324
120 325
120 327
120 328
120 329
120 330
120 331
120 350
120 353
120 357
120 359
120 374
122 123
122 127
123 126
123 127
124 125
124 458
126 127
126 132
126 133
126 134
126 135
128 137
128 288
128 293
128 294
128 407
128 422
128 424
128 446
128 486
128 489
128 491
128 493
128 494
128 495
128 496
128 498
128 499
128 500
128 501
128 502
128 530
129 142
129 143
129 144
129 145
129 146
129 148
129 149
129 150
129 151
129 154
129 158
129 160
129 163
129 165
129 166
129 167
129 168
129 170
129 171
129 173
129 174
129 175
129 177
129 191
129 195
129 198
129 199
129 200
129 202
129 204
129 205
129 221
129 222
129 227
129 228
129 229
129 237
129 250
129 252
129 506
130 131
130 280
130 288
130 299
130 423
130 456
130 467
130 468
130 470
130 471
130 473
130 474
130 476
130 477
130 480
130 485
130 487
130 507
130 512
130 521
130 528
130 530
131 189
131 280
131 288
131 294
131 299
131 314
131 375
131 410
131 423
131 432
131 456
131 465
131 467
131 468
131 470
131 471
131 473
131 474
131 475
131 476
131 479
131 480
131 485
131 487
131 499
131 507
131 512
131 521
131 530
132 133
132 134
132 135
132 138
132 189
132 190
132 272
132 273
132 275
132 288
132 306
132 312
132 323
132 324
132 333
132 340
132 342
132 343
132 344
132 345
132 346
132 347
132 349
132 350
132 358
132 371
132 375
132 377
132 382
132 388
132 389
132 390
132 391
132 392
132 396
132 399
132 400
132 402
132 413
132 415
132 417
132 418
132 419
132 420
132 454
133 134
133 135
133 268
133 273
133 274
133 275
133 288
133 289
133 296
133 307
133 309
133 310
133 312
133 314
133 316
133 319
133 321
133 322
133 324
133 326
133 329
133 332
133 334
133 336
133 337
133 338
133 340
133 341
133 342
133 343
133 344
133 345
133 346
133 347
133 349
133 350
133 353
133 356
133 357
133 360
133 361
133 363
133 364
133 366
133 367
133 370
133 372
133 374
133 375
133 376
133 377
133 378
133 379
133 381
133 383
133 390
133 391
133 395
133 396
133 399
133 400
133 401
133 402
133 413
133 415
134 135
134 185
134 189
134 288
134 305
134 309
134 312
134 324
134 333
134 342
134 343
134 344
134 345
134 347
134 349
134 350
134 365
134 366
134 368
134 377
134 388
134 389
134 396
134 400
134 408
134 412
134 413
134 418
134 421
134 422
134 423
134 424
135 189
135 190
135 288
135 315
135 340
135 342
135 343
135 344
135 345
135 346
135 347
135 348
135 349
135 350
135 353
135 378
135 380
135 381
135 388
135 396
135 399
135 400
135 401
135 402
135 413
135 415
136 280
136 288
136 299
136 393
136 394
136 406
136 408
136 409
136 411
136 422
136 423
136 424
136 425
136 426
136 427
136 463
136 468
136 471
136 473
136 474
136 477
136 480
136 484
136 485
136 487
136 499
136 500
136 511
136 517
136 518
136 519
136 524
136 530
137 154
137 163
137 273
137 274
137 276
137 281
137 282
137 283
137 284
137 288
137 293
137 294
137 299
137 398
137 407
137 448
137 456
137 457
137 466
137 467
137 472
137 490
137 491
137 495
137 496
137 497
137 498
137 503
137 506
137 509
138 174
138 284
138 288
138 292
138 294
138 408
138 409
138 410
138 411
138 419
138 420
138 422
138 423
138 424
138 426
138 444
138 445
138 446
138 454
138 465
138 469
138 493
138 499
138 505
138 506
138 507
138 508
138 509
138 511
138 513
138 514
138 515
138 517
138 518
138 519
138 520
138 522
138 523
138 524
139 141
139 268
139 289
139 317
139 342
139 354
139 355
139 356
139 357
139 358
139 359
139 360
139 361
139 362
139 363
139 374
139 382
140 141
140 268
140 275
140 289
140 322
140 331
140 350
140 354
140 355
140 356
140 357
140 358
140 359
140 360
140 361
140 362
140 363
140 367
140 374
140 382
140 389
140 402
140 412
141 268
141 274
141 278
141 289
141 310
141 314
141 315
141 317
141 319
141 321
141 322
141 331
141 342
141 350
141 354
141 355
141 356
141 357
141 358
141 359
141 360
141 361
141 362
141 363
141 366
141 367
141 374
141 382
141 384
141 389
141 392
141 402
142 143
142 144
142 145
142 146
142 147
142 148
142 149
142 150
142 151
142 152
142 153
142 154
142 155
142 156
142 157
142 158
142 159
142 160
142 161
142 162
142 163
142 164
142 165
142 172
142 181
142 192
142 197
142 198
142 206
142 213
142 217
142 220
142 223
142 225
142 226
142 227
142 229
142 230
142 231
142 240
142 241
142 242
142 255
142 257
142 260
142 357
142 418
142 468
143 144
143 145
143 147
143 148
143 149
143 150
143 151
143 152
143 153
143 154
143 156
143 158
143 159
143 160
143 161
143 162
143 163
143 164
143 165
143 172
143 181
143 192
143 197
143 198
143 212
143 213
143 216
143 220
143 223
143 225
143 226
143 227
143 229
143 230
143 231
143 237
143 241
143 260
144 145
144 148
144 149
144 150
144 153
144 156
144 157
144 158
144 159
144 160
144 162
144 163
144 197
144 198
144 209
144 210
144 213
144 219
144 220
144 221
144 225
144 226
144 227
144 232
144 234
144 249
144 251
144 264
144 268
145 146
145 147
145 148
145 149
145 150
145 151
145 152
145 153
145 154
145 155
145 156
145 157
145 158
145 159
145 160
145 161
145 162
145 163
145 164
145 165
145 166
145 167
145 168
145 170
145 171
145 172
145 173
145 174
145 175
145 176
145 177
145 178
145 179
145 180
145 181
145 182
145 183
145 184
145 191
145 192
145 193
145 194
145 195
145 196
145 197
145 198
145 199
145 200
145 201
145 202
145 203
145 204
145 205
145 206
145 207
145 208
145 209
145 210
145 211
145 212
145 213
145 214
145 215
145 216
145 217
145 218
145 219
145 220
145 221
145 222
145 223
145 224
145 225
145 226
145 227
145 228
145 229
145 230
145 231
145 232
145 233
145 234
145 235
145 236
145 237
145 238
145 239
145 240
145 241
145 242
145 243
145 244
145 245
145 246
145 247
145 248
145 249
145 250
145 251
145 252
145 253
145 254
145 255
145 256
145 257
145 258
145 259
145 260
145 261
145 262
145 263
145 264
145 265
145 266
145 267
146 147
146 151
146 152
146 153
146 155
146 156
146 157
146 159
146 161
146 162
146 163
146 164
146 165
146 168
146 169
146 171
146 172
146 177
146 194
146 197
146 198
146 200
146 216
146 229
147 148
147 149
147 150
147 151
147 152
147 153
147 154
147 155
147 156
147 157
147 159
147 160
147 161
147 162
147 163
147 164
147 165
147 166
147 167
147 168
147 169
147 170
147 171
147 172
147 173
147 174
147 175
147 176
147 177
147 178
147 179
147 180
147 181
147 182
147 183
147 184
147 185
147 186
147 187
147 188
147 189
147 190
147 192
147 197
147 198
147 217
147 227
147 237
147 241
148 149
148 150
148 151
148 152
148 153
148 154
148 155
148 156
148 157
148 159
148 161
148 162
148 163
148 164
148 165
148 168
148 169
148 198
148 212
148 213
148 220
148 226
148 227
148 242
148 243
148 246
148 252
148 255
148 257
149 150
149 151
149 152
149 153
149 154
149 156
149 157
149 158
149 159
149 160
149 161
149 162
149 163
149 164
149 165
149 172
149 176
149 177
149 179
149 180
149 181
149 192
149 198
149 207
149 208
149 209
149 210
149 211
149 212
149 214
149 220
149 223
149 225
149 226
149 227
149 229
149 231
149 233
149 237
149 240
149 241
149 242
149 243
149 249
149 250
149 252
149 254
149 256
149 257
149 260
149 267
149 269
150 151
150 152
150 153
150 154
150 156
150 157
150 158
150 159
150 160
150 161
150 162
150 163
150 164
150 165
150 168
150 169
150 172
150 178
150 181
150 183
150 192
150 197
150 212
150 213
150 220
150 223
150 225
150 226
150 227
150 229
150 230
150 231
150 238
150 242
150 251
150 255
150 257
150 267
151 152
151 153
151 154
151 155
151 156
151 159
151 160
151 161
151 162
151 163
151 164
151 165
151 168
151 169
151 171
151 172
151 178
151 181
151 182
151 184
151 197
151 198
151 200
151 212
151 213
151 217
151 220
151 221
151 225
151 226
151 227
151 233
151 237
151 242
151 245
151 285
152 153
152 155
152 156
152 157
152 159
152 160
152 161
152 162
152 163
152 164
152 165
152 168
152 169
152 171
152 172
152 173
152 181
152 182
152 187
152 190
152 197
152 198
152 200
152 217
152 220
152 225
152 226
152 229
152 233
152 237
152 238
152 242
152 245
153 154
153 155
153 156
153 157
153 158
153 159
153 160
153 161
153 162
153 163
153 164
153 165
153 168
153 169
153 171
153 172
153 173
153 176
153 179
153 181
153 183
153 192
153 197
153 198
153 205
153 206
153 208
153 209
153 210
153 212
153 213
153 214
153 215
153 220
153 222
153 223
153 225
153 226
153 227
153 229
153 231
153 232
153 234
153 237
153 243
153 249
153 250
153 251
153 252
153 254
153 255
153 256
153 264
153 269
154 156
154 157
154 159
154 160
154 161
154 162
154 163
154 164
154 165
154 169
154 172
154 178
154 182
154 198
154 200
154 212
154 213
154 220
154 226
154 242
154 252
154 260
154 270
154 271
154 272
154 273
154 274
154 275
154 276
154 277
154 278
154 279
154 281
154 282
154 283
155 156
155 157
155 159
155 163
155 164
155 165
155 171
155 172
155 182
155 197
155 285
156 157
156 158
156 159
156 160
156 161
156 162
156 163
156 164
156 165
156 168
156 169
156 171
156 172
156 182
156 183
156 192
156 198
156 212
156 213
156 220
156 226
156 227
156 238
156 242
156 243
156 248
156 252
156 255
156 257
156 264
156 265
157 158
157 159
157 160
157 161
157 162
157 163
157 164
157 165
157 168
157 171
157 172
157 182
157 183
157 192
157 198
157 212
157 213
157 219
157 220
157 226
157 227
157 231
157 241
157 243
157 247
157 248
157 255
157 257
157 265
157 280
158 159
158 160
158 161
158 162
158 163
158 164
158 165
158 173
158 192
158 193
158 197
158 203
158 204
158 206
158 209
158 211
158 212
158 219
158 220
158 221
158 222
158 224
158 226
158 227
158 231
158 240
158 241
158 242
158 250
158 260
158 267
159 160
159 161
159 162
159 163
159 164
159 165
159 168
159 169
159 171
159 172
159 178
159 181
159 183
159 184
159 192
159 196
159 197
159 200
159 204
159 206
159 209
159 212
159 213
159 215
159 217
159 219
159 220
159 222
159 223
159 225
159 226
159 227
159 229
159 230
159 231
159 237
159 238
159 240
159 241
159 242
159 249
159 250
159 253
159 255
159 259
159 260
160 161
160 162
160 163
160 164
160 165
160 172
160 192
160 193
160 197
160 198
160 206
160 211
160 212
160 213
160 219
160 220
160 226
160 227
160 231
160 237
160 240
160 241
160 249
160 250
160 258
160 260
160 264
161 162
161 163
161 164
161 165
161 166
161 167
161 168
161 171
161 172
161 173
161 174
161 175
161 178
161 179
161 180
161 181
161 183
161 184
161 191
161 192
161 193
161 194
161 197
161 198
161 200
161 201
161 207
161 208
161 209
161 218
161 219
161 220
161 221
161 225
161 227
161 233
161 236
161 237
161 239
161 241
161 242
161 246
161 247
161 250
161 251
161 258
161 260
162 163
162 164
162 165
162 168
162 192
162 206
162 211
162 219
162 220
162 225
162 226
162 227
162 229
162 231
162 237
162 238
162 240
162 241
162 249
162 250
162 258
163 165
163 168
163 169
163 171
163 172
163 182
163 197
163 198
163 200
163 213
163 220
163 226
163 227
163 229
163 238
163 242
163 243
163 253
163 267
163 270
163 272
163 273
163 274
163 276
163 277
163 278
163 279
163 281
163 282
163 283
163 284
163 285
164 165
164 168
164 169
164 171
164 172
164 178
164 181
164 182
164 183
164 198
164 220
164 223
164 225
164 226
164 227
164 229
164 237
164 242
165 167
165 168
165 171
165 172
165 174
165 175
165 178
165 179
165 180
165 183
165 184
165 191
165 193
165 194
165 197
165 198
165 209
165 212
165 217
165 218
165 219
165 220
165 225
165 227
165 231
165 236
165 237
165 239
165 241
165 247
165 250
165 258
166 167
166 170
166 173
166 174
166 175
166 177
166 184
166 191
166 192
166 193
166 194
166 196
166 197
166 198
166 199
166 200
166 201
166 202
166 204
166 205
166 206
166 221
166 222
166 223
166 224
166 227
166 228
166 229
166 230
166 239
166 242
166 247
166 249
166 250
166 252
166 253
166 258
167 170
167 173
167 174
167 175
167 178
167 191
167 192
167 193
167 194
167 195
167 196
167 197
167 198
167 199
167 200
167 201
167 202
167 203
167 204
167 205
167 206
167 221
167 222
167 224
167 227
167 228
167 229
167 231
167 237
167 239
167 247
167 348
167 377
167 380
168 171
168 172
168 182
168 197
168 198
168 200
168 212
168 217
168 221
168 227
168 237
169 172
169 182
169 184
169 197
169 198
169 200
169 213
169 220
169 221
169 226
169 227
169 237
169 238
169 242
169 246
169 267
169 272
169 273
169 274
169 276
169 277
169 278
169 279
170 173
170 174
170 175
170 177
170 179
170 180
170 191
170 192
170 193
170 194
170 196
170 197
170 198
170 199
170 200
170 201
170 202
170 204
170 205
170 206
170 208
170 209
170 221
170 222
170 227
170 228
170 233
170 239
170 247
170 258
170 263
171 172
171 182
171 197
171 198
171 211
171 227
171 285
172 178
172 182
172 184
172 197
172 198
172 200
172 212
172 217
172 220
172 221
172 227
172 242
172 285
173 174
173 175
173 178
173 179
173 180
173 191
173 192
173 193
173 194
173 197
173 198
173 199
173 200
173 201
173 202
173 203
173 204
173 205
173 209
173 210
173 217
173 221
173 222
173 223
173 224
173 228
173 232
173 233
173 239
173 247
173 249
173 250
173 251
173 254
173 258
173 263
174 175
174 179
174 180
174 190
174 191
174 192
174 193
174 194
174 196
174 197
174 198
174 199
174 200
174 201
174 202
174 203
174 204
174 206
174 211
174 221
174 222
174 224
174 228
174 236
174 239
174 241
174 247
174 249
174 250
174 253
174 258
174 260
175 178
175 183
175 191
175 192
175 194
175 195
175 196
175 197
175 198
175 199
175 200
175 201
175 202
175 204
175 205
175 206
175 221
175 222
175 224
175 227
175 228
175 229
175 230
175 231
175 236
175 239
175 241
175 242
175 243
175 247
175 249
175 253
175 258
175 263
175 267
176 177
176 178
176 179
176 180
176 181
176 198
176 207
176 208
176 209
176 210
176 212
176 213
176 214
176 216
176 217
176 223
176 227
176 229
176 230
176 232
176 237
176 242
176 250
176 256
176 269
176 418
177 178
177 179
177 180
177 181
177 191
177 194
177 198
177 207
177 208
177 209
177 210
177 212
177 213
177 214
177 216
177 217
177 223
177 227
177 229
177 230
177 232
177 237
177 250
177 256
177 259
177 269
178 179
178 180
178 181
178 182
178 198
178 200
178 207
178 209
178 210
178 212
178 213
178 216
178 217
178 218
178 220
178 223
178 225
178 227
178 237
178 242
178 246
178 252
178 256
178 266
178 269
179 180
179 181
179 190
179 198
179 208
179 209
179 210
179 211
179 212
179 214
179 215
179 217
179 218
179 219
179 221
179 225
179 232
179 236
179 237
179 239
179 242
179 247
179 250
179 251
179 252
179 254
179 258
179 259
179 262
179 269
179 418
179 454
180 200
180 207
180 208
180 209
180 210
180 211
180 212
180 214
180 215
180 216
180 218
180 219
180 221
180 225
180 227
180 229
180 231
180 232
180 236
180 237
180 239
180 243
180 247
180 250
180 251
180 254
180 257
180 258
180 259
180 261
181 182
181 183
181 192
181 197
181 198
181 203
181 204
181 207
181 208
181 209
181 210
181 212
181 213
181 215
181 216
181 217
181 218
181 220
181 223
181 225
181 227
181 228
181 230
181 231
181 232
181 233
181 234
181 237
181 240
181 241
181 242
181 243
181 249
181 252
181 255
181 256
181 257
181 259
181 260
181 261
181 264
181 265
181 267
182 183
182 184
182 198
182 199
182 200
182 201
182 207
182 209
182 217
182 219
182 221
182 223
182 231
182 233
182 235
182 236
182 237
182 238
182 239
182 240
182 241
182 242
182 243
182 244
182 245
182 246
182 247
182 248
182 249
182 255
182 256
182 258
182 260
182 262
182 263
182 264
182 265
182 266
182 267
182 285
183 184
183 198
183 212
183 213
183 219
183 223
183 225
183 227
183 231
183 232
183 233
183 234
183 235
183 237
183 238
183 241
183 242
183 243
183 248
183 249
183 251
183 255
183 260
183 264
183 265
183 267
183 285
184 197
184 198
184 200
184 203
184 207
184 209
184 219
184 231
184 233
184 236
184 238
184 239
184 241
184 242
184 244
184 245
184 246
184 249
184 255
184 256
184 260
184 262
184 263
184 266
184 285
185 187
185 189
185 270
185 271
185 297
185 306
185 307
185 309
185 310
185 311
185 312
185 313
185 316
185 319
185 320
185 323
185 324
185 325
185 327
185 328
185 331
185 347
185 348
185 349
185 377
185 416
186 187
186 188
186 189
186 190
186 270
186 274
186 276
186 277
186 295
186 296
186 319
186 325
186 333
186 334
186 335
186 336
186 338
186 339
186 340
186 341
186 346
186 349
186 351
186 352
186 369
186 370
186 374
186 375
186 378
186 380
186 385
186 386
186 387
186 395
186 402
186 412
186 414
186 416
187 189
187 190
187 270
187 276
187 295
187 305
187 309
187 311
187 336
187 339
187 340
187 341
187 346
187 349
187 350
187 357
187 363
187 375
187 376
187 377
187 381
187 385
187 414
187 416
188 189
188 190
188 270
188 296
188 334
188 338
188 340
188 341
188 346
188 370
188 373
188 374
188 375
188 385
188 386
188 387
188 395
188 416
189 190
189 275
189 288
189 296
189 306
189 307
189 317
189 323
189 324
189 332
189 333
189 335
189 336
189 338
189 341
189 342
189 346
189 347
189 348
189 349
189 350
189 351
189 375
189 376
189 377
189 378
189 379
189 380
189 381
189 385
189 386
189 390
189 395
189 400
189 402
189 414
190 258
190 272
190 288
190 306
190 307
190 309
190 332
190 336
190 341
190 342
190 344
190 345
190 346
190 347
190 348
190 349
190 350
190 375
190 377
190 378
190 379
190 380
190 381
190 385
190 392
190 395
190 400
190 402
190 412
190 418
191 192
191 193
191 194
191 195
191 196
191 198
191 199
191 200
191 201
191 202
191 204
191 205
191 206
191 213
191 216
191 221
191 222
191 227
191 228
191 229
191 230
191 237
191 242
191 252
191 253
191 348
191 377
191 380
192 193
192 196
192 197
192 198
192 201
192 202
192 203
192 204
192 205
192 206
192 211
192 212
192 213
192 219
192 221
192 222
192 224
192 225
192 227
192 228
192 229
192 230
192 231
192 242
192 249
192 250
192 253
192 402
193 196
193 197
193 198
193 199
193 201
193 202
193 203
193 204
193 205
193 206
193 211
193 212
193 219
193 221
193 222
193 224
193 225
193 227
193 228
193 230
193 231
193 240
193 242
193 249
193 250
193 252
193 253
193 299
193 402
194 198
194 199
194 200
194 201
194 202
194 204
194 205
194 216
194 221
194 222
194 225
195 196
195 198
195 204
195 205
195 206
195 211
195 212
195 213
195 218
195 221
195 222
195 223
195 225
195 227
195 228
195 229
195 230
195 250
195 251
195 253
195 257
196 198
196 199
196 201
196 202
196 204
196 205
196 206
196 212
196 213
196 221
196 222
196 225
196 227
196 229
196 230
196 250
196 253
196 289
196 359
196 494
197 198
197 201
197 202
197 204
197 205
197 206
197 211
197 212
197 219
197 220
197 221
197 227
197 228
197 231
197 242
197 249
197 250
198 199
198 200
198 201
198 202
198 203
198 204
198 205
198 206
198 207
198 208
198 209
198 210
198 211
198 213
198 214
198 215
198 216
198 217
198 218
198 219
198 221
198 222
198 223
198 224
198 225
198 226
198 227
198 228
198 230
198 231
198 233
198 234
198 235
198 236
198 237
198 238
198 239
198 240
198 241
198 242
198 243
198 244
198 245
198 246
198 248
198 249
198 250
198 251
198 252
198 253
198 254
198 255
198 256
198 257
198 258
198 259
198 260
198 261
198 262
198 264
198 265
198 266
198 267
198 269
198 285
199 200
199 201
199 202
199 204
199 205
199 206
199 221
199 222
200 201
200 204
200 205
200 207
200 217
200 220
200 221
200 232
200 233
200 234
200 235
200 237
200 238
200 242
200 243
200 244
200 245
200 246
200 256
200 261
200 262
200 264
200 266
200 267
200 285
201 202
201 203
201 204
201 205
201 206
201 221
201 222
201 227
201 228
201 230
201 242
201 253
201 258
202 203
202 204
202 205
202 206
202 221
202 222
202 224
202 227
202 228
202 229
202 230
202 231
202 242
202 243
202 248
202 252
202 253
202 267
202 289
202 359
203 204
203 205
203 211
203 212
203 221
203 222
203 223
203 224
203 227
203 228
203 231
203 237
203 242
203 247
203 249
203 250
203 252
203 253
203 267
203 365
203 418
203 454
204 205
204 206
204 211
204 212
204 221
204 222
204 223
204 224
204 225
204 227
204 228
204 229
204 230
204 231
204 242
204 250
204 253
204 258
204 357
204 467
205 206
205 212
205 221
205 222
205 227
205 228
205 229
205 230
205 250
205 253
205 264
206 220
206 222
206 224
206 227
206 228
206 229
206 230
206 231
206 249
206 250
206 253
207 208
207 209
207 210
207 212
207 213
207 214
207 216
207 217
207 221
207 223
207 225
207 227
207 232
207 237
207 244
207 246
207 250
207 256
207 257
207 266
207 269
208 209
208 210
208 211
208 212
208 213
208 214
208 215
208 216
208 217
208 218
208 219
208 223
208 225
208 227
208 231
208 232
208 234
208 237
208 242
208 250
208 251
208 252
208 254
208 256
208 257
208 259
208 261
208 264
208 269
208 357
209 210
209 211
209 212
209 213
209 214
209 215
209 216
209 217
209 218
209 221
209 223
209 225
209 227
209 229
209 231
209 232
209 234
209 237
209 240
209 241
209 250
209 251
209 256
209 257
209 259
209 261
209 289
209 359
210 211
210 212
210 213
210 214
210 215
210 216
210 217
210 218
210 223
210 225
210 227
210 231
210 232
210 234
210 237
210 242
210 243
210 250
210 251
210 252
210 254
210 256
210 257
210 259
210 264
210 265
210 267
210 269
211 212
211 213
211 214
211 218
211 219
211 222
211 223
211 224
211 228
211 231
211 232
211 234
211 237
211 240
211 241
211 249
211 250
211 251
211 254
211 257
211 259
211 260
211 269
212 213
212 214
212 215
212 216
212 217
212 218
212 219
212 222
212 223
212 224
212 225
212 227
212 231
212 232
212 234
212 237
212 240
212 241
212 243
212 247
212 250
212 251
212 252
212 254
212 257
212 259
212 269
213 214
213 216
213 217
213 219
213 220
213 223
213 225
213 226
213 227
213 229
213 230
213 231
213 232
213 234
213 237
213 238
213 241
213 242
213 248
213 250
213 251
213 252
213 253
213 254
213 257
213 261
213 267
213 294
214 216
214 218
214 223
214 227
214 232
214 236
214 237
214 250
214 257
214 259
214 269
215 218
215 219
215 225
215 227
215 231
215 232
215 242
215 250
215 251
215 252
215 257
215 259
215 264
215 269
216 217
216 218
216 223
216 225
216 227
216 229
216 230
216 232
216 237
216 242
216 252
216 256
216 269
216 294
216 295
216 296
217 218
217 220
217 223
217 225
217 227
217 229
217 230
217 237
217 252
217 256
217 295
217 296
217 297
217 298
218 223
218 225
218 227
218 231
218 232
218 234
218 237
218 241
218 250
218 251
218 252
218 254
218 256
218 257
218 259
218 269
219 220
219 221
219 223
219 226
219 227
219 231
219 236
219 238
219 239
219 240
219 241
219 242
219 247
219 248
219 249
219 250
219 252
219 255
219 257
219 258
219 260
219 263
219 264
219 285
220 225
220 226
220 227
220 229
220 230
220 231
220 237
220 238
220 240
220 242
220 248
220 249
220 252
220 255
221 222
221 224
221 227
221 228
221 229
221 230
221 232
221 236
221 239
221 241
221 242
221 244
221 247
221 249
221 250
221 251
221 252
221 253
221 256
221 258
221 260
221 263
221 266
222 224
222 227
222 228
222 229
222 230
222 231
222 242
222 250
222 253
222 359
223 225
223 227
223 229
223 230
223 231
223 232
223 234
223 237
223 238
223 242
223 250
223 251
223 254
223 255
223 257
223 259
223 260
223 261
223 264
223 265
223 267
223 269
223 289
223 290
223 291
223 292
223 293
223 294
223 295
223 299
223 475
224 227
224 228
224 231
224 250
225 227
225 230
225 231
225 232
225 233
225 234
225 237
225 238
225 240
225 241
225 242
225 243
225 248
225 249
225 250
225 251
225 252
225 253
225 254
225 255
225 256
225 257
225 261
225 265
225 267
225 269
225 286
225 287
225 288
226 227
226 238
226 242
226 243
226 248
226 255
226 257
226 260
226 264
227 228
227 229
227 230
227 231
227 232
227 234
227 235
227 237
227 238
227 240
227 241
227 242
227 243
227 244
227 249
227 250
227 251
227 252
227 254
227 255
227 256
227 257
227 260
227 261
227 262
227 264
227 265
227 266
227 267
227 269
228 229
228 231
228 247
228 249
228 250
228 252
228 253
228 357
228 363
229 230
229 242
229 253
230 231
230 240
230 253
230 260
231 232
231 233
231 234
231 236
231 238
231 239
231 240
231 241
231 242
231 243
231 247
231 249
231 250
231 251
231 254
231 255
231 257
231 258
231 259
231 260
231 263
231 264
231 265
231 267
231 285
232 234
232 238
232 241
232 242
232 250
232 251
232 252
232 254
232 257
232 259
232 261
232 264
232 265
232 269
233 235
233 236
233 238
233 239
233 242
233 243
233 244
233 245
233 246
233 247
233 248
233 255
233 262
233 263
233 266
233 285
234 238
234 242
234 243
234 250
234 251
234 254
234 257
234 259
234 261
234 264
234 265
234 267
234 269
235 238
235 242
235 243
235 248
235 255
235 264
235 265
235 267
235 285
236 239
236 240
236 241
236 244
236 245
236 247
236 249
236 258
236 260
236 263
236 285
237 242
237 250
237 254
237 256
237 257
237 283
238 240
238 241
238 242
238 243
238 247
238 248
238 249
238 255
238 258
238 260
238 263
238 264
238 265
238 267
238 285
239 241
239 242
239 244
239 245
239 247
239 249
239 258
239 260
239 263
239 266
239 285
240 241
240 248
240 249
240 250
240 255
240 260
240 264
240 285
241 243
241 247
241 248
241 249
241 250
241 251
241 254
241 255
241 258
241 260
241 285
241 286
241 299
241 300
241 301
242 243
242 245
242 247
242 248
242 252
242 254
242 255
242 257
242 258
242 260
242 261
242 264
242 265
242 267
242 285
243 248
243 255
243 261
243 264
243 265
243 267
243 285
244 245
244 246
244 247
244 255
244 256
244 258
244 260
244 262
244 263
244 266
244 285
245 255
245 260
245 263
245 266
245 285
246 256
246 262
246 263
246 264
246 266
246 285
247 249
247 258
247 260
247 263
247 285
248 249
248 255
248 260
248 261
248 264
248 265
248 267
248 285
249 250
249 252
249 255
249 258
249 260
249 263
249 264
249 265
249 267
249 285
250 251
250 252
250 254
250 257
250 258
250 259
250 260
250 269
251 252
251 254
251 257
251 259
251 265
251 269
252 254
252 255
252 257
252 259
252 260
252 265
252 269
252 287
254 257
254 259
254 265
255 260
255 261
255 263
255 264
255 265
255 267
255 285
255 302
255 303
255 304
256 261
256 262
256 266
257 261
257 264
257 269
258 260
258 263
258 264
258 285
258 349
258 454
259 269
260 262
260 263
260 264
260 266
260 285
262 266
262 285
263 285
263 454
264 265
264 267
264 285
265 267
265 277
265 285
266 285
267 285
267 299
267 468
267 470
267 485
268 295
268 332
268 333
268 338
268 341
268 342
268 343
268 350
268 355
268 356
268 357
268 358
268 359
268 360
268 361
268 362
268 363
268 364
268 370
268 373
268 374
268 375
268 377
268 378
268 399
268 400
268 401
270 271
270 272
270 273
270 274
270 276
270 277
270 278
270 279
270 296
270 297
270 305
270 308
270 309
270 311
270 312
270 314
270 315
270 316
270 317
270 318
270 319
270 320
270 324
270 325
270 328
270 329
270 330
270 331
270 332
270 338
270 341
270 350
270 352
270 382
270 383
270 384
270 385
270 386
270 387
270 388
271 305
271 306
271 307
271 308
271 309
271 310
271 314
271 315
271 317
271 318
271 319
271 320
271 321
271 322
271 323
271 324
271 325
271 327
271 328
271 329
271 330
271 331
271 338
271 351
271 387
271 388
271 402
271 412
272 273
272 274
272 275
272 276
272 277
272 278
272 279
272 296
272 340
272 346
272 349
272 354
272 362
272 363
272 365
272 374
272 377
272 378
272 382
272 383
272 384
272 387
272 416
273 274
273 275
273 276
273 277
273 278
273 279
273 283
273 296
273 334
273 350
273 351
273 352
273 356
273 360
273 361
273 365
273 367
273 369
273 374
273 377
273 382
273 383
273 384
273 389
273 390
274 275
274 276
274 277
274 278
274 279
274 281
274 282
274 283
274 296
274 338
274 352
274 354
274 360
274 365
274 366
274 367
274 368
274 374
274 383
274 387
274 388
274 412
275 276
275 277
275 278
275 279
275 340
275 346
275 347
275 348
275 349
275 350
275 355
275 356
275 359
275 360
275 362
275 365
275 367
275 368
275 377
275 382
275 383
275 384
275 389
275 390
275 391
275 392
275 447
275 454
276 277
276 278
276 279
276 281
276 282
276 283
276 284
276 289
276 305
276 352
276 360
276 361
276 363
276 374
276 377
276 382
276 383
276 384
276 397
276 398
277 278
277 279
277 289
277 352
277 360
277 361
277 362
277 365
277 368
277 374
277 382
277 383
277 384
277 389
278 279
278 295
278 310
278 339
278 346
278 352
278 356
278 360
278 361
278 363
278 365
278 367
278 368
278 374
278 382
278 383
278 384
278 389
278 392
278 416
279 315
279 340
279 346
279 349
279 352
279 360
279 362
279 363
279 374
279 382
279 383
279 384
279 389
279 416
280 288
280 299
280 302
280 303
280 304
280 393
280 432
280 465
280 467
280 468
280 469
280 470
280 471
280 473
280 474
280 475
280 476
280 479
280 480
280 482
280 485
280 527
280 530
280 533
281 282
281 283
281 288
281 298
281 299
281 301
281 404
281 431
281 432
281 434
281 435
281 438
281 441
281 442
281 443
281 444
281 445
281 453
281 456
281 461
281 468
281 482
281 493
281 503
281 509
281 530
282 283
282 284
282 288
282 397
282 398
282 427
282 447
282 451
282 460
282 461
282 466
282 469
282 482
282 503
282 506
282 509
282 530
282 533
283 284
283 288
283 292
283 293
283 294
283 393
283 398
283 407
283 408
283 424
283 429
283 438
283 448
283 460
283 468
283 470
283 497
283 498
283 499
283 502
283 503
283 504
283 506
283 509
283 517
283 519
283 523
283 525
283 527
283 530
284 288
284 394
284 419
284 426
284 461
284 498
284 503
284 506
284 507
284 509
284 514
284 515
284 516
284 517
284 521
284 523
284 524
284 530
286 288
286 291
286 299
286 300
286 301
286 302
286 303
286 304
286 403
286 411
286 421
286 433
286 434
286 435
286 437
286 438
286 439
286 440
286 441
286 442
286 443
286 444
286 445
286 446
286 450
286 452
286 453
286 456
286 468
286 474
286 478
286 483
286 484
286 493
286 526
286 528
286 530
287 288
287 299
287 302
287 406
287 429
287 449
287 456
287 458
287 459
287 462
287 463
287 464
287 468
287 472
287 496
287 511
287 529
287 530
287 531
288 289
288 290
288 291
288 292
288 293
288 298
288 299
288 300
288 302
288 303
288 304
288 342
288 343
288 344
288 345
288 346
288 347
288 348
288 349
288 350
288 353
288 357
288 372
288 380
288 381
288 388
288 393
288 394
288 396
288 397
288 398
288 399
288 400
288 401
288 402
288 404
288 405
288 407
288 408
288 409
288 411
288 412
288 413
288 415
288 417
288 418
288 419
288 420
288 422
288 423
288 424
288 425
288 426
288 427
288 428
288 429
288 430
288 431
288 432
288 433
288 434
288 435
288 436
288 437
288 438
288 439
288 440
288 441
288 442
288 443
288 444
288 445
288 446
288 447
288 448
288 449
288 450
288 451
288 452
288 453
288 454
288 455
288 456
288 457
288 458
288 459
288 460
288 461
288 462
288 463
288 464
288 465
288 466
288 467
288 468
288 469
288 470
288 471
288 472
288 473
288 474
288 475
288 476
288 477
288 478
288 479
288 480
288 481
288 482
288 483
288 484
288 485
288 486
288 487
288 488
288 489
288 490
288 491
288 492
288 493
288 494
288 495
288 496
288 497
288 498
288 499
288 500
288 501
288 502
288 503
288 504
288 505
288 506
288 507
288 508
288 509
288 510
288 511
288 512
288 513
288 514
288 515
288 516
288 517
288 518
288 519
288 520
288 521
288 522
288 523
288 524
288 525
289 295
289 297
289 308
289 314
289 317
289 319
289 321
289 322
289 325
289 329
289 331
289 335
289 337
289 342
289 345
289 350
289 354
289 355
289 356
289 357
289 358
289 359
289 360
289 361
289 362
289 363
289 366
289 367
289 374
289 382
289 384
289 413
290 291
290 292
290 293
290 294
290 302
290 407
290 424
290 425
290 437
290 438
290 440
290 443
290 445
290 449
290 452
290 463
290 464
290 472
290 483
290 488
290 489
290 492
290 493
290 494
290 495
290 496
290 497
290 498
290 499
290 500
290 511
290 527
290 528
290 530
291 292
291 293
291 294
291 299
291 393
291 406
291 407
291 408
291 411
291 418
291 424
291 425
291 426
291 456
291 463
291 483
291 486
291 488
291 489
291 490
291 491
291 492
291 493
291 494
291 495
291 496
291 497
291 498
291 499
291 500
291 502
291 503
291 504
291 511
291 517
291 518
291 519
291 530
292 293
292 294
292 299
292 302
292 398
292 403
292 407
292 419
292 424
292 425
292 437
292 440
292 441
292 443
292 445
292 446
292 452
292 463
292 464
292 472
292 475
292 483
292 489
292 491
292 492
292 493
292 494
292 495
292 496
292 497
292 498
292 499
292 500
292 511
292 525
292 528
292 530
293 294
293 299
293 302
293 398
293 407
293 424
293 437
293 440
293 446
293 452
293 456
293 464
293 472
293 475
293 483
293 486
293 489
293 491
293 492
293 493
293 495
293 496
293 497
293 498
293 500
293 501
293 502
293 503
293 504
293 527
293 528
294 295
294 299
294 302
294 398
294 407
294 419
294 424
294 437
294 440
294 444
294 446
294 465
294 472
294 475
294 483
294 486
294 489
294 492
294 493
294 494
294 495
294 496
294 497
294 498
294 499
294 500
294 501
294 502
294 503
294 504
294 527
294 528
294 530
295 296
295 297
295 308
295 315
295 329
295 334
295 336
295 339
295 340
295 341
295 342
295 346
295 350
295 373
295 374
295 375
295 376
295 377
295 383
295 385
295 386
295 392
295 395
295 414
295 416
296 305
296 309
296 311
296 313
296 317
296 320
296 325
296 329
296 331
296 333
296 334
296 335
296 339
296 340
296 341
296 351
296 352
296 363
296 368
296 369
296 370
296 371
296 373
296 375
296 385
296 386
296 387
296 389
296 395
296 414
296 416
297 298
297 305
297 306
297 307
297 309
297 310
297 311
297 312
297 313
297 314
297 316
297 317
297 319
297 321
297 322
297 323
297 324
297 325
297 326
297 327
297 329
297 330
297 331
297 342
297 346
297 348
297 349
297 363
297 367
297 392
297 399
297 416
298 303
298 312
298 397
298 403
298 408
298 409
298 410
298 421
298 429
298 436
298 438
298 447
298 448
298 449
298 451
298 454
298 456
298 459
298 460
298 461
298 466
298 486
298 489
298 494
298 501
298 507
298 508
298 512
298 520
298 522
298 526
298 530
298 531
299 300
299 301
299 302
299 314
299 393
299 394
299 397
299 398
299 406
299 407
299 408
299 409
299 411
299 420
299 422
299 423
299 425
299 426
299 427
299 430
299 433
299 437
299 439
299 440
299 441
299 446
299 452
299 454
299 455
299 456
299 463
299 464
299 465
299 467
299 468
299 469
299 470
299 471
299 472
299 473
299 474
299 475
299 476
299 477
299 478
299 480
299 483
299 484
299 485
299 487
299 488
299 491
299 492
299 493
299 495
299 496
299 498
299 500
299 501
299 504
299 507
299 510
299 511
299 512
299 515
299 516
299 517
299 518
299 523
299 524
299 525
299 528
299 530
300 301
300 302
300 303
300 403
300 417
300 421
300 433
300 434
300 437
300 439
300 440
300 441
300 442
300 443
300 446
300 452
300 456
300 468
300 470
300 474
300 478
300 484
300 485
300 528
300 530
301 302
301 303
301 304
301 403
301 404
301 407
301 409
301 417
301 421
301 433
301 434
301 435
301 437
301 438
301 439
301 440
301 441
301 442
301 443
301 444
301 445
301 446
301 450
301 452
301 453
301 454
301 456
301 468
301 478
301 484
301 488
301 493
301 498
301 523
301 526
301 528
301 530
302 303
302 304
302 403
302 404
302 421
302 432
302 433
302 434
302 435
302 437
302 438
302 439
302 440
302 441
302 442
302 443
302 444
302 445
302 446
302 450
302 452
302 453
302 456
302 464
302 468
302 472
302 485
302 492
302 493
302 496
302 498
302 526
302 528
303 304
303 403
303 404
303 417
303 421
303 427
303 431
303 432
303 433
303 434
303 435
303 437
303 438
303 441
303 442
303 443
303 444
303 445
303 446
303 448
303 450
303 453
303 465
303 467
303 469
303 474
303 482
303 493
303 526
303 530
304 403
304 404
304 421
304 431
304 432
304 434
304 435
304 437
304 438
304 441
304 442
304 443
304 444
304 445
304 446
304 450
304 453
304 454
304 456
304 465
304 467
304 469
304 474
304 482
304 493
304 526
304 528
304 530
305 306
305 307
305 308
305 309
305 310
305 311
305 312
305 313
305 314
305 315
305 316
305 317
305 318
305 319
305 320
305 321
305 322
305 323
305 324
305 325
305 326
305 327
305 328
305 330
305 331
305 336
305 338
305 339
305 340
305 342
305 346
305 347
305 348
305 349
305 351
305 363
305 376
306 307
306 309
306 310
306 311
306 312
306 313
306 314
306 316
306 319
306 321
306 323
306 324
306 325
306 330
306 331
306 346
306 348
306 349
306 375
306 377
306 380
307 309
307 310
307 311
307 312
307 313
307 314
307 316
307 319
307 321
307 323
307 324
307 325
307 330
307 331
307 332
307 344
307 347
307 348
307 349
307 375
307 377
307 380
307 387
307 428
307 468
308 310
308 314
308 315
308 317
308 319
308 320
308 321
308 322
308 323
308 325
308 329
308 330
308 338
308 342
308 351
308 352
308 377
308 387
308 388
308 412
308 430
308 452
308 468
308 529
309 310
309 311
309 312
309 313
309 314
309 316
309 317
309 319
309 321
309 322
309 324
309 326
309 327
309 329
309 330
309 331
309 333
309 334
309 335
309 336
309 337
309 338
309 339
309 340
309 341
309 342
309 343
309 344
309 345
309 346
309 347
309 348
309 349
309 377
310 311
310 312
310 314
310 315
310 316
310 317
310 319
310 320
310 321
310 323
310 325
310 326
310 329
310 330
310 331
310 339
310 348
310 350
310 384
311 312
311 313
311 314
311 316
311 319
311 321
311 322
311 323
311 324
311 326
311 338
311 339
311 340
311 341
311 342
311 346
311 347
311 348
311 349
312 313
312 316
312 319
312 320
312 322
312 323
312 324
312 325
312 326
312 327
312 329
312 330
312 331
312 342
312 346
312 349
312 363
312 392
312 399
312 416
313 316
313 323
313 324
313 325
313 331
313 338
313 344
313 346
313 348
313 349
313 350
313 377
313 380
313 414
313 416
314 315
314 316
314 317
314 319
314 321
314 322
314 323
314 324
314 325
314 326
314 327
314 328
314 329
314 330
314 331
314 332
314 342
314 347
314 350
314 353
314 359
314 363
314 366
314 367
314 374
314 399
314 402
314 452
314 456
314 468
314 484
315 316
315 317
315 319
315 320
315 321
315 322
315 325
315 329
315 330
315 338
315 351
315 352
315 353
315 357
315 374
316 317
316 319
316 321
316 322
316 323
316 324
316 326
316 327
316 328
316 329
316 330
316 331
316 345
316 350
316 366
316 371
316 384
316 412
317 319
317 320
317 321
317 322
317 323
317 324
317 325
317 326
317 327
317 328
317 329
317 330
317 331
317 338
317 342
317 346
317 347
317 348
317 350
317 351
317 352
317 353
317 354
317 355
317 356
317 357
317 358
317 359
317 360
317 361
317 362
317 363
317 364
317 374
317 388
318 319
318 320
318 324
318 329
318 332
318 339
318 340
318 376
318 378
318 381
318 383
318 384
319 320
319 321
319 322
319 323
319 324
319 325
319 326
319 327
319 328
319 329
319 330
319 331
319 342
319 347
319 350
319 357
319 359
319 363
319 366
319 367
319 388
319 402
320 324
320 325
320 326
320 328
320 329
320 332
320 338
320 339
320 351
320 352
320 387
321 322
321 324
321 329
321 330
321 331
321 350
321 357
321 359
321 366
322 323
322 324
322 326
322 327
322 328
322 329
322 330
322 331
322 333
322 335
322 337
322 342
322 344
322 350
322 354
322 357
322 359
322 361
322 363
322 366
322 367
322 373
322 374
323 324
323 325
323 326
323 327
323 328
323 330
323 331
323 332
323 346
323 348
323 349
323 375
323 377
323 380
323 391
323 447
324 325
324 327
324 331
324 332
324 344
324 348
324 349
324 375
324 377
324 380
325 326
325 327
325 329
325 330
325 338
325 348
325 350
325 351
325 352
325 357
325 359
325 387
325 388
325 402
326 330
326 331
326 338
326 346
326 349
326 388
326 416
327 330
327 331
327 333
327 347
327 350
327 366
327 371
327 372
328 329
328 330
328 331
328 338
329 330
329 331
329 338
329 343
329 350
329 351
329 352
329 357
329 367
329 387
329 388
329 412
329 468
330 331
330 342
330 350
330 371
331 332
331 333
331 335
331 342
331 343
331 347
331 350
331 354
331 357
331 358
331 359
331 363
331 365
331 366
331 367
331 368
331 369
331 370
331 371
331 372
331 412
331 468
332 336
332 346
332 347
332 348
332 349
332 373
332 374
332 375
332 376
332 377
332 378
332 379
332 380
332 381
333 335
333 336
333 337
333 338
333 341
333 343
333 348
333 349
333 350
333 351
333 353
333 354
333 366
333 368
333 369
333 370
333 371
333 372
333 373
333 374
333 375
333 376
333 386
333 388
333 399
333 414
333 415
334 336
334 338
334 340
334 341
334 346
334 349
334 350
334 351
334 370
334 375
334 376
334 377
334 380
334 386
334 387
334 395
334 402
334 414
334 416
335 337
335 338
335 341
335 350
335 351
335 354
335 359
335 364
335 369
335 370
335 371
335 372
335 373
335 375
335 376
335 386
335 388
335 395
335 402
335 412
335 414
336 339
336 340
336 341
336 347
336 373
336 374
336 375
336 376
336 377
336 378
336 379
336 380
336 381
336 383
336 384
336 385
336 386
336 387
336 395
336 414
336 416
337 341
337 342
337 343
337 345
337 350
337 351
337 353
337 354
337 369
337 370
337 371
337 373
337 388
337 399
337 413
337 414
338 339
338 340
338 341
338 344
338 347
338 351
338 352
338 368
338 369
338 370
338 371
338 373
338 374
338 376
338 377
338 385
338 386
338 387
338 388
338 390
338 395
338 402
338 414
339 340
339 341
339 351
339 370
339 373
339 374
339 375
339 376
339 383
339 384
339 385
339 386
339 387
339 391
339 392
339 414
339 416
340 341
340 347
340 348
340 350
340 365
340 370
340 374
340 375
340 376
340 377
340 378
340 380
340 384
340 385
340 386
340 387
340 389
340 392
340 395
340 396
340 416
341 347
341 348
341 351
341 352
341 375
341 376
341 377
341 378
341 383
341 385
341 386
341 387
341 414
341 416
341 418
342 343
342 344
342 345
342 346
342 347
342 348
342 349
342 350
342 353
342 355
342 356
342 357
342 358
342 359
342 360
342 361
342 362
342 363
342 364
342 367
342 370
342 372
342 373
342 374
342 378
342 379
342 380
342 388
342 392
342 396
342 399
342 400
342 412
342 413
342 415
342 416
342 475
342 500
343 344
343 345
343 346
343 347
343 348
343 349
343 350
343 353
343 357
343 359
343 362
343 363
343 364
343 367
343 372
343 374
343 388
343 396
343 399
343 400
343 401
343 402
343 412
343 413
343 415
344 345
344 346
344 347
344 348
344 349
344 350
344 351
344 352
344 353
344 364
344 369
344 370
344 375
344 380
344 388
344 396
344 399
344 400
344 401
344 412
344 413
344 414
344 415
345 346
345 348
345 349
345 350
345 353
345 357
345 359
345 363
345 364
345 366
345 367
345 372
345 383
345 384
345 388
345 396
345 399
345 400
345 402
345 412
345 413
345 415
346 347
346 348
346 349
346 350
346 377
346 378
346 379
346 380
346 381
346 385
346 386
346 388
346 392
346 395
346 396
346 399
346 400
346 401
346 402
346 412
346 416
347 348
347 349
347 350
347 351
347 376
347 377
347 378
347 379
347 380
347 381
347 383
347 392
347 395
347 396
347 399
347 400
347 402
347 412
348 349
348 350
348 351
348 352
348 355
348 364
348 365
348 371
348 375
348 377
348 378
348 379
348 380
348 392
348 395
348 399
348 400
348 402
348 413
348 414
349 350
349 372
349 375
349 377
349 378
349 379
349 380
349 381
349 387
349 389
349 392
349 395
349 396
349 399
349 400
349 402
349 412
349 413
349 416
349 418
349 454
350 352
350 353
350 355
350 356
350 357
350 358
350 359
350 360
350 361
350 362
350 363
350 364
350 366
350 367
350 368
350 369
350 370
350 371
350 372
350 373
350 374
350 378
350 380
350 384
350 388
350 395
350 396
350 399
350 400
350 401
350 402
350 412
350 413
350 414
350 415
351 352
351 369
351 370
351 371
351 373
351 376
351 377
351 385
351 386
351 387
351 390
351 395
351 402
351 414
352 374
352 385
352 386
352 387
352 388
352 402
352 412
352 414
353 363
353 364
353 372
353 374
353 396
353 399
353 400
353 412
353 413
354 356
354 357
354 358
354 359
354 360
354 361
354 362
354 363
354 365
354 366
354 367
354 368
354 369
354 370
354 371
354 382
354 384
354 402
355 356
355 357
355 358
355 359
355 360
355 361
355 362
355 363
355 367
355 374
355 382
355 383
355 384
355 389
355 399
356 357
356 358
356 359
356 360
356 361
356 362
356 363
356 366
356 367
356 373
356 374
356 382
356 383
356 384
356 389
356 392
356 399
356 412
357 358
357 359
357 361
357 362
357 363
357 364
357 366
357 367
357 370
357 374
357 382
357 384
357 389
357 391
357 392
357 399
357 400
357 401
357 402
358 359
358 360
358 361
358 362
358 363
358 366
358 367
358 374
358 382
358 384
358 389
358 392
358 399
359 360
359 361
359 362
359 363
359 366
359 367
359 368
359 370
359 373
359 374
359 382
359 384
359 389
359 392
359 393
359 399
360 361
360 362
360 363
360 367
360 373
360 374
360 382
360 383
360 384
360 389
360 392
360 530
361 362
361 363
361 365
361 366
361 367
361 368
361 374
361 382
361 384
361 388
361 389
361 391
361 402
361 440
362 363
362 366
362 367
362 374
362 382
362 384
362 388
362 389
362 391
362 392
362 400
362 402
362 412
363 365
363 366
363 367
363 374
363 382
363 384
363 389
363 392
363 399
363 400
363 401
364 366
364 367
364 370
364 372
364 374
364 377
364 386
364 399
364 400
364 413
364 414
364 415
365 366
365 368
365 382
365 383
365 384
365 389
365 391
365 392
365 396
365 403
365 404
365 405
365 406
365 407
365 408
365 409
365 410
365 411
365 447
366 367
366 368
366 369
366 370
366 371
366 372
366 388
366 414
366 415
367 373
367 374
367 382
367 383
367 384
367 389
367 390
367 391
367 392
368 372
368 384
368 388
368 418
368 454
369 370
369 371
369 372
369 373
369 375
369 386
369 387
369 412
369 414
370 371
370 372
370 373
370 374
370 375
370 377
370 386
370 395
370 412
370 414
371 373
371 386
371 414
371 415
372 388
372 399
372 400
372 413
372 415
373 374
373 375
373 376
373 384
373 385
373 386
373 414
373 416
374 375
374 381
374 382
374 384
374 385
374 386
374 389
374 390
374 392
374 399
374 400
374 401
374 402
374 413
374 416
375 376
375 377
375 378
375 379
375 380
375 381
375 385
375 386
375 395
375 412
375 416
376 377
376 378
376 379
376 380
376 381
376 383
376 384
376 387
376 395
376 414
376 416
377 378
377 379
377 380
377 381
377 383
377 386
377 387
377 395
377 396
377 402
377 414
377 416
378 379
378 380
378 381
378 383
378 384
378 391
378 400
379 380
379 381
379 400
379 412
379 416
380 381
380 395
380 400
380 402
380 414
381 384
381 400
382 383
382 384
382 389
382 390
382 391
382 392
383 384
383 389
383 391
384 389
384 391
385 386
385 387
385 414
385 416
386 387
386 395
386 412
386 414
386 416
387 388
387 395
387 402
387 412
387 416
388 396
388 399
388 400
388 401
388 402
388 412
388 415
389 391
389 392
391 392
391 393
391 394
391 395
391 396
392 396
392 416
393 394
393 397
393 406
393 418
393 422
393 423
393 424
393 430
393 454
393 456
393 463
393 465
393 468
393 469
393 470
393 471
393 472
393 473
393 474
393 477
393 478
393 480
393 481
393 484
393 485
393 487
393 499
393 500
393 511
394 403
394 406
394 408
394 409
394 410
394 411
394 420
394 422
394 423
394 424
394 425
394 426
394 430
394 446
394 463
394 465
394 467
394 468
394 471
394 472
394 473
394 474
394 477
394 478
394 480
394 481
394 484
394 485
394 487
394 493
394 499
394 506
394 507
394 511
394 512
394 513
394 514
394 517
394 518
394 519
394 524
394 525
394 530
395 402
395 414
395 416
396 399
396 400
396 412
396 413
396 415
396 418
396 454
397 398
397 418
397 427
397 429
397 430
397 447
397 448
397 449
397 451
397 455
397 456
397 458
397 459
397 460
397 461
397 462
397 463
397 464
397 466
397 468
397 472
397 480
397 501
397 507
397 510
397 528
397 529
397 530
397 531
398 407
398 424
398 427
398 430
398 446
398 448
398 454
398 459
398 472
398 490
398 491
398 493
398 494
398 496
398 497
398 498
398 499
398 503
398 516
398 527
398 530
399 400
399 401
399 402
399 412
399 413
399 415
400 401
400 402
400 412
400 413
400 415
401 402
401 412
402 412
402 413
402 415
403 404
403 406
403 408
403 418
403 423
403 431
403 432
403 433
403 436
403 437
403 438
403 439
403 440
403 441
403 442
403 444
403 445
403 446
403 450
403 452
403 453
403 454
403 456
403 462
403 463
403 467
403 468
403 482
403 493
403 495
403 498
403 526
403 528
403 530
404 417
404 421
404 427
404 431
404 432
404 434
404 435
404 436
404 437
404 438
404 442
404 443
404 444
404 445
404 450
404 452
404 453
404 454
404 456
404 459
404 466
404 468
404 526
404 528
404 530
405 418
405 428
405 450
405 454
405 456
405 459
405 466
405 498
405 502
406 408
406 411
406 418
406 420
406 422
406 423
406 424
406 425
406 429
406 454
406 456
406 462
406 463
406 468
406 498
406 500
406 517
406 518
406 519
406 530
407 422
407 423
407 424
407 454
407 456
407 463
407 483
407 484
407 486
407 488
407 489
407 491
407 492
407 493
407 494
407 495
407 496
407 497
407 498
407 499
407 500
407 501
407 502
407 503
407 504
407 511
407 530
408 409
408 410
408 411
408 420
408 423
408 424
408 425
408 426
408 427
408 446
408 460
408 463
408 485
408 499
408 500
408 505
408 507
408 508
408 509
408 511
408 512
408 513
408 515
408 516
408 517
408 518
408 519
408 520
408 523
408 524
408 530
409 411
409 418
409 419
409 420
409 422
409 423
409 424
409 425
409 426
409 428
409 434
409 435
409 443
409 445
409 446
409 454
409 493
409 494
409 498
409 499
409 500
409 502
409 508
409 513
409 515
409 516
409 519
409 520
409 521
409 522
409 523
409 524
409 530
410 411
410 420
410 426
410 428
410 445
410 454
410 494
410 498
410 502
410 507
410 508
410 513
410 516
410 517
410 520
410 521
410 522
410 523
410 524
410 530
411 420
411 425
411 426
411 454
411 463
411 498
411 500
411 505
411 508
411 511
411 515
411 516
411 517
411 518
411 519
411 520
411 521
411 522
411 523
411 524
411 525
412 413
413 415
414 416
417 418
417 427
417 431
417 434
417 435
417 438
417 441
417 442
417 443
417 453
417 454
417 459
417 468
417 530
418 421
418 423
418 428
418 429
418 431
418 446
418 454
418 456
418 457
418 459
418 463
418 466
418 468
418 469
418 486
418 493
418 507
418 519
418 530
418 532
419 420
419 423
419 426
419 444
419 445
419 465
419 467
419 469
419 493
419 499
419 506
419 507
419 508
419 509
419 513
419 514
419 515
419 518
419 523
419 524
419 530
420 425
420 426
420 430
420 498
420 500
420 505
420 507
420 508
420 509
420 510
420 511
420 512
420 513
420 514
420 515
420 516
420 517
420 518
420 519
420 520
420 521
420 522
420 523
420 524
420 525
421 427
421 431
421 432
421 435
421 436
421 438
421 442
421 445
421 446
421 450
421 453
421 454
421 456
421 459
421 466
421 468
421 480
421 497
421 501
421 526
421 528
421 530
422 423
422 424
422 425
422 445
422 446
422 454
422 456
422 463
422 465
422 468
422 469
422 473
422 474
422 477
422 480
422 484
422 485
422 493
422 499
422 501
422 504
422 507
422 512
423 424
423 425
423 445
423 446
423 454
423 463
423 465
423 468
423 469
423 474
423 480
423 484
423 485
423 493
423 499
423 504
423 513
423 519
423 533
424 425
424 437
424 445
424 446
424 449
424 456
424 463
424 472
424 483
424 488
424 489
424 490
424 491
424 492
424 493
424 495
424 496
424 498
424 499
424 500
424 501
424 504
424 507
424 508
424 512
424 513
424 517
424 519
424 527
424 530
425 426
425 440
425 445
425 446
425 493
425 498
425 499
425 505
425 508
425 510
425 511
425 515
425 516
425 517
425 518
425 519
425 523
425 524
425 530
426 446
426 454
426 463
426 498
426 500
426 505
426 506
426 507
426 508
426 509
426 510
426 511
426 512
426 513
426 514
426 515
426 516
426 517
426 518
426 519
426 520
426 521
426 522
426 523
426 524
426 525
426 528
427 436
427 446
427 448
427 451
427 453
427 456
427 457
427 459
427 460
427 466
427 467
427 468
427 503
427 516
427 517
427 530
427 532
428 429
428 442
428 450
428 451
428 454
428 456
428 459
428 463
428 498
428 502
428 520
428 530
429 448
429 454
429 456
429 459
429 463
429 464
429 466
429 470
429 475
429 485
429 492
429 498
429 530
430 467
430 468
430 472
430 473
430 474
430 475
430 477
430 480
430 485
430 498
430 510
430 515
430 516
430 523
430 525
430 530
431 434
431 438
431 442
431 443
431 444
431 445
431 453
431 526
431 528
432 434
432 436
432 437
432 438
432 442
432 443
432 444
432 450
432 453
432 454
432 499
432 526
432 527
433 434
433 437
433 439
433 440
433 441
433 442
433 443
433 446
433 452
433 453
433 456
433 458
433 464
433 468
433 528
433 529
434 435
434 436
434 437
434 438
434 439
434 440
434 442
434 443
434 445
434 446
434 450
434 461
434 465
434 469
434 526
434 528
434 530
435 437
435 443
435 445
435 454
435 465
435 468
435 469
435 526
435 530
436 437
436 442
436 443
436 444
436 450
436 453
436 456
436 468
436 480
436 482
436 501
436 526
436 528
436 530
437 438
437 439
437 440
437 441
437 442
437 443
437 444
437 445
437 446
437 450
437 452
437 453
437 456
437 464
437 472
437 475
437 492
437 493
437 495
437 496
437 498
437 499
437 526
437 527
437 528
438 442
438 443
438 444
438 446
438 448
438 450
438 453
438 454
438 499
438 526
438 528
438 530
439 440
439 441
439 442
439 443
439 446
439 452
439 456
439 464
439 468
439 472
439 528
439 530
440 441
440 442
440 443
440 445
440 446
440 449
440 452
440 456
440 464
440 468
440 472
440 475
440 492
440 493
440 496
440 498
440 528
440 530
441 442
441 443
441 444
441 445
441 446
441 450
441 452
441 453
441 456
441 463
441 468
441 470
441 474
441 485
441 492
441 526
441 528
441 530
442 443
442 444
442 445
442 446
442 450
442 452
442 453
442 456
442 466
442 486
442 520
442 528
442 530
443 444
443 445
443 446
443 450
443 453
443 465
443 467
443 468
443 469
443 526
443 528
443 530
444 445
444 446
444 450
444 453
444 465
444 493
444 499
444 502
444 526
445 446
445 450
445 452
445 453
445 454
445 456
445 465
445 468
445 469
445 493
445 495
445 526
445 527
445 528
445 530
446 450
446 452
446 453
446 492
446 493
446 495
446 496
446 498
446 499
446 500
446 501
446 504
446 507
446 512
446 521
446 526
446 528
446 530
446 531
447 451
447 454
447 457
447 459
447 460
447 461
447 469
447 502
447 509
447 530
447 532
448 453
448 459
448 460
448 466
448 468
448 472
448 530
449 452
449 456
449 458
449 462
449 463
449 464
449 468
449 472
449 484
449 485
449 498
449 528
449 529
449 530
450 453
450 456
450 499
450 502
450 526
450 528
450 530
451 454
451 459
451 460
451 461
451 466
451 503
451 530
452 453
452 456
452 458
452 464
452 468
452 472
452 492
452 496
452 498
452 528
452 529
452 530
453 454
453 467
453 526
453 528
453 530
454 455
454 456
454 457
454 459
454 460
454 461
454 463
454 466
454 488
454 497
454 498
454 499
454 501
454 502
454 508
454 515
454 516
454 518
454 519
454 520
454 528
454 530
454 532
455 456
455 459
455 463
455 466
455 468
455 485
455 528
455 530
456 457
456 458
456 459
456 461
456 462
456 463
456 464
456 468
456 471
456 472
456 473
456 475
456 480
456 497
456 528
456 529
456 530
456 531
456 532
457 461
457 466
457 469
458 462
458 464
458 468
458 475
458 528
458 529
458 530
458 531
459 460
459 463
459 466
459 468
459 526
459 530
459 532
460 461
460 466
460 486
460 489
460 494
460 504
460 507
460 508
460 517
460 519
460 520
460 522
460 530
461 466
461 469
461 497
461 503
461 530
461 532
462 463
462 464
462 468
462 484
462 500
462 528
462 529
462 530
462 531
463 464
463 468
463 470
463 471
463 473
463 474
463 483
463 485
463 487
463 488
463 491
463 492
463 496
463 499
463 500
463 504
463 506
463 507
463 510
463 511
463 512
463 517
463 518
463 519
463 521
463 523
463 529
463 530
463 531
464 468
464 472
464 475
464 492
464 498
464 528
464 529
464 530
464 531
465 467
465 468
465 469
465 474
465 476
465 477
465 480
465 482
465 493
465 495
465 498
465 527
465 530
465 533
466 468
466 469
466 526
466 530
466 532
467 468
467 469
467 470
467 471
467 472
467 473
467 474
467 475
467 476
467 477
467 479
467 480
467 482
467 485
467 498
467 500
467 506
467 509
467 530
467 533
468 469
468 470
468 471
468 472
468 473
468 474
468 475
468 477
468 479
468 480
468 481
468 484
468 485
468 487
468 498
468 500
468 526
468 528
468 529
468 530
468 531
469 474
469 476
469 477
469 480
469 482
469 484
469 493
469 495
469 498
469 532
469 533
470 471
470 473
470 474
470 475
470 477
470 480
470 481
470 484
470 485
470 487
470 488
470 504
470 530
471 473
471 474
471 477
471 480
471 481
471 485
471 487
471 528
472 473
472 474
472 475
472 477
472 480
472 484
472 485
472 487
472 492
472 496
472 498
472 499
472 516
472 523
472 528
472 530
472 531
473 474
473 475
473 477
473 478
473 480
473 481
473 485
473 487
473 528
473 530
474 475
474 476
474 477
474 478
474 479
474 480
474 481
474 482
474 484
474 485
474 487
474 488
474 492
474 496
474 504
474 524
474 530
474 533
475 477
475 480
475 484
475 485
475 487
475 492
475 493
475 498
475 528
475 530
476 479
476 480
476 482
476 509
476 530
476 533
477 478
477 480
477 481
477 484
477 485
477 487
478 480
478 484
478 485
478 487
479 480
479 482
479 509
479 530
479 533
480 481
480 482
480 484
480 485
480 487
480 494
480 497
480 498
480 515
480 523
480 533
481 484
481 485
481 487
481 530
482 503
482 509
482 533
483 486
483 488
483 489
483 490
483 491
483 492
483 493
483 494
483 495
483 496
483 498
483 499
483 500
483 502
483 503
483 504
483 530
484 485
484 487
484 488
484 493
484 495
484 508
484 520
484 522
484 524
484 530
485 487
485 488
485 492
485 496
485 504
485 511
485 517
485 523
485 530
486 489
486 490
486 491
486 494
486 495
486 497
486 498
486 500
486 501
486 502
486 503
486 507
486 508
486 512
486 520
486 521
486 522
486 527
486 530
487 530
488 489
488 491
488 493
488 494
488 495
488 496
488 498
488 499
488 500
488 502
488 504
488 511
488 530
489 492
489 493
489 494
489 495
489 497
489 498
489 499
489 500
489 501
489 502
489 503
489 520
489 527
489 530
490 491
490 492
490 493
490 494
490 495
490 497
490 498
490 499
490 500
490 502
490 503
490 527
490 530
491 492
491 493
491 494
491 495
491 496
491 498
491 499
491 500
491 501
491 502
491 504
491 511
492 493
492 494
492 495
492 496
492 498
492 499
492 500
492 501
492 502
492 527
492 530
493 495
493 496
493 498
493 499
493 500
493 501
493 504
493 512
493 519
493 521
493 527
493 530
494 497
494 498
494 500
494 501
494 502
494 503
494 504
494 507
494 508
494 512
494 520
494 521
494 522
494 527
494 530
495 496
495 497
495 498
495 499
495 500
495 501
495 502
495 503
495 527
496 497
496 498
496 499
496 500
496 502
496 503
496 504
496 528
496 530
497 498
497 500
497 501
497 502
497 503
497 527
497 528
497 530
498 499
498 500
498 501
498 502
498 503
498 504
498 510
498 511
498 515
498 516
498 518
498 523
498 525
498 527
498 528
498 530
499 500
499 501
499 504
499 507
499 512
499 517
499 519
499 527
499 530
500 501
500 502
500 503
500 504
500 513
500 517
500 518
500 519
500 527
500 530
501 502
501 520
501 530
501 533
502 503
502 520
502 527
503 527
504 527
504 530
505 508
505 517
505 519
505 523
505 524
505 530
506 507
506 509
506 514
506 517
506 521
506 530
507 508
507 512
507 513
507 514
507 515
507 517
507 518
507 519
507 520
507 521
507 522
507 524
507 528
507 530
508 511
508 512
508 513
508 514
508 515
508 516
508 517
508 518
508 519
508 520
508 521
508 522
508 523
508 524
508 530
509 514
509 515
509 517
509 530
510 511
510 515
510 516
510 523
510 525
510 528
511 515
511 516
511 517
511 518
511 519
511 522
511 523
511 524
511 525
511 528
512 513
512 515
512 517
512 519
512 520
512 521
512 522
512 524
512 528
512 530
513 519
513 520
513 521
513 522
514 515
514 517
514 523
514 524
515 516
515 517
515 518
515 519
515 521
515 523
515 524
515 525
515 528
515 530
516 517
516 518
516 519
516 521
516 523
516 524
516 525
516 530
517 518
517 519
517 521
517 523
517 524
517 525
518 519
518 522
518 523
518 524
518 525
519 520
519 523
519 524
519 525
519 530
520 521
520 522
520 524
521 522
521 524
521 528
521 530
522 524
523 524
523 525
523 528
523 530
524 525
525 530
526 528
526 530
527 530
528 529
528 530
529 530
530 531
530 532
530 533
