0 7
0 20
0 28
0 99
0 104
0 200
1 98
2 54
2 98
3 52
3 66
3 204
4 98
4 195
5 32
5 45
5 81
5 101
5 141
5 168
5 204
5 211
5 236
5 246
6 98
6 170
6 242
7 242
8 98
8 199
8 201
9 44
10 98
10 107
11 47
11 87
11 98
11 127
12 58
12 64
12 98
12 110
12 144
12 152
13 98
13 197
14 98
15 98
15 186
16 98
17 98
18 98
18 130
19 98
20 35
20 83
20 116
20 149
20 170
20 222
20 243
21 22
21 242
22 98
23 98
24 62
24 242
25 82
25 98
25 113
25 228
26 173
26 201
27 63
27 98
27 111
28 98
28 104
28 242
29 41
29 69
29 79
29 98
29 103
29 126
29 241
30 52
30 204
31 44
31 50
31 102
31 192
32 97
32 98
32 115
32 196
32 199
32 245
33 53
33 98
33 206
34 104
34 132
34 192
35 98
35 170
35 250
36 175
37 98
37 118
37 151
37 164
37 191
37 197
37 214
38 145
38 242
39 51
40 98
41 44
41 69
41 98
41 103
41 122
41 178
41 192
41 226
41 241
42 121
43 217
44 50
44 98
44 122
44 140
44 173
44 178
44 182
44 241
45 97
45 98
45 115
46 54
46 119
46 129
47 98
48 211
48 221
49 52
49 204
50 72
50 85
50 135
50 230
51 103
51 162
51 241
52 57
52 70
52 71
52 86
52 98
52 114
52 155
52 190
53 176
53 195
53 216
54 87
54 98
54 119
54 127
54 129
54 159
54 165
54 170
55 98
56 98
57 64
57 98
57 152
57 204
58 98
59 98
60 98
61 160
62 149
63 78
63 92
63 98
63 219
64 234
65 173
66 204
67 98
67 147
67 160
67 186
68 79
68 98
68 126
69 79
69 98
69 126
70 204
71 204
73 192
74 203
74 242
75 77
75 98
75 153
75 156
75 172
75 183
75 184
75 199
75 212
75 231
76 98
77 98
78 87
78 98
79 126
79 132
79 193
79 213
80 98
81 97
81 115
82 98
83 90
84 197
84 199
85 102
86 98
86 204
87 229
88 98
89 195
89 202
89 211
89 216
89 223
91 123
91 145
91 171
92 93
92 98
92 161
92 163
92 170
93 98
93 106
93 163
93 189
94 98
95 98
96 98
96 112
96 217
97 101
97 141
97 168
97 204
97 211
97 236
97 246
98 99
98 102
98 104
98 105
98 109
98 111
98 113
98 114
98 123
98 124
98 125
98 126
98 129
98 130
98 131
98 132
98 133
98 134
98 135
98 137
98 138
98 139
98 144
98 145
98 146
98 147
98 153
98 154
98 155
98 157
98 163
98 167
98 168
98 169
98 170
98 171
98 172
98 173
98 174
98 175
98 177
98 182
98 183
98 184
98 187
98 189
98 190
98 192
98 193
98 202
98 203
98 204
98 205
98 209
98 211
98 213
98 216
98 218
98 220
98 227
98 229
98 230
98 235
98 237
98 238
98 243
98 244
100 138
101 115
104 240
104 245
105 152
107 124
107 183
107 217
108 144
109 242
112 192
114 204
115 141
115 168
115 204
115 211
115 236
115 246
117 249
118 198
119 129
120 121
120 157
120 161
121 161
122 173
122 178
122 192
125 192
128 173
128 178
128 188
128 207
129 159
129 165
130 139
131 186
132 248
136 146
137 224
138 244
140 192
142 233
143 156
143 231
145 199
147 151
147 160
147 184
147 186
147 198
147 238
148 229
148 242
149 242
150 194
150 242
152 156
152 211
152 216
154 209
155 181
155 204
156 172
156 183
156 184
156 225
158 179
158 229
159 165
160 186
160 232
166 191
167 202
167 239
167 242
168 245
169 205
170 242
170 243
171 189
171 206
171 215
171 242
173 178
173 182
173 188
173 192
173 207
173 208
173 226
178 180
178 188
178 207
178 208
183 210
185 231
186 238
187 244
190 204
194 242
197 209
197 232
198 231
200 247
201 206
201 207
202 223
202 242
205 242
207 208
209 232
210 225
215 242
233 242
242 249
