0 747
1 126
1 580
1 1222
1 2194
1 2204
1 2639
1 4257
1 5735
1 6478
1 7146
2 6
2 562
2 1492
2 4154
2 5179
2 5303
2 7128
3 272
3 1351
3 1728
3 2013
3 2107
3 2900
3 3381
3 4319
3 4433
3 4560
3 5060
3 5823
3 5943
3 6046
3 6095
3 6503
3 6940
3 7089
4 5770
5 5454
6 167
6 342
6 598
6 667
6 870
6 1284
6 1462
6 1492
6 1551
6 1834
6 3079
6 3291
6 4405
6 5856
6 6180
6 6283
6 7128
6 7279
6 7340
7 177
7 428
7 2142
7 2854
7 6243
7 6250
7 6931
7 7589
8 1686
9 246
9 366
9 1795
9 2660
9 3843
9 4481
9 6053
9 6441
10 5489
11 618
11 1325
11 2412
11 4919
11 5240
12 3807
12 5274
13 110
13 524
13 620
13 866
13 1223
13 1509
13 1794
13 1817
13 1850
13 1937
13 2266
13 2789
13 2835
13 3316
13 3557
13 3559
13 3971
13 4606
13 4770
13 4860
13 4904
13 5355
13 5385
13 5857
13 6152
13 6298
13 6565
13 6712
13 7315
14 2155
14 3086
14 5862
14 6438
15 3029
15 3530
15 4375
15 5274
16 38
16 131
16 550
16 766
16 773
16 1005
16 1016
16 1349
16 1799
16 1905
16 1956
16 2530
16 2626
16 2751
16 3103
16 3324
16 3410
16 3699
16 4008
16 4184
16 4968
16 5072
16 5088
16 5725
16 6101
16 6126
16 6446
16 6544
16 6567
16 7296
16 7435
17 951
17 1334
17 1337
17 3165
17 4242
17 6105
17 7237
18 478
18 2788
18 3581
18 3755
18 3820
18 4042
18 4085
18 4212
18 4319
18 4775
18 6136
18 6372
18 6436
18 6816
18 7185
18 7614
19 1501
19 2625
19 2692
19 6703
20 1316
20 2689
20 4151
20 4462
20 5941
20 6463
21 3026
21 5764
22 5127
23 646
23 1854
23 3493
23 7317
24 3643
25 3544
26 5345
27 1558
27 1896
27 3565
27 4066
27 6339
27 6396
28 1658
28 4900
28 7224
29 543
29 907
29 2711
29 2838
29 4626
29 6652
29 7287
29 7579
30 683
30 924
30 2644
30 3525
30 5564
30 5854
30 7075
31 1457
31 5274
32 607
32 1020
32 1166
32 1312
32 2195
32 3136
32 3155
32 4187
32 4845
32 5206
32 5676
32 6196
32 6709
33 213
33 407
33 1150
33 1875
33 1973
33 2170
33 2420
33 2566
33 2626
33 3103
33 3221
33 3452
33 3740
33 4040
33 4308
33 4814
33 5617
33 6859
34 2944
34 3927
34 4408
34 4717
34 5875
35 2040
35 2045
35 2301
35 4235
35 4246
35 5283
35 6475
35 6747
35 6887
35 7035
36 719
37 3991
38 2637
38 3023
38 3794
38 6288
38 7565
39 1349
40 4908
40 5564
41 524
41 3562
41 5414
41 6287
42 2647
42 3592
42 4335
43 2893
43 4681
44 3597
44 3701
44 6234
44 6507
44 6870
44 7042
45 865
45 3340
45 3527
45 3912
45 3986
45 4527
45 4852
45 5099
45 5896
45 7537
46 2414
46 2442
47 397
47 538
47 1789
47 1792
47 2985
47 3128
47 3833
47 3845
47 4657
47 5314
47 5378
47 6207
47 6408
47 6427
47 6458
47 6637
47 6876
47 6991
47 7489
48 1761
48 3250
48 7213
49 2072
49 5510
49 6096
49 6605
49 7224
50 4415
51 7135
52 2510
52 6840
53 1230
53 1390
53 6572
54 1005
54 1469
54 1677
54 2303
54 2420
54 2615
54 2626
54 2843
54 3300
54 4572
54 5095
54 5195
54 5578
54 5600
54 7435
55 494
55 1932
55 5474
56 1457
56 2902
56 4128
56 5226
56 7214
57 7349
58 1150
58 2551
58 3080
58 3726
58 5578
59 1564
59 2414
59 6004
59 6300
60 4344
60 6504
61 1680
61 2940
62 4792
63 4166
63 4284
63 4616
63 6221
64 4355
65 2916
65 6407
66 5605
67 2416
67 2604
67 2670
67 4638
67 4777
67 7555
68 1219
68 2882
68 6101
68 6323
68 6718
69 6101
70 900
70 1135
70 3949
70 4702
70 5048
70 7097
71 3994
71 6147
72 5966
73 1005
73 2676
73 4091
73 5308
73 6424
73 6968
74 3035
75 520
75 2447
75 4042
75 4217
75 5632
75 7079
75 7165
76 1830
77 6752
77 7536
78 1216
78 1328
78 2060
78 2194
78 2332
78 3520
78 3862
78 4587
78 6621
79 550
79 718
80 666
80 1230
80 5441
80 5646
81 378
81 1393
81 1555
81 2014
81 3498
81 4242
81 4353
82 2086
82 3745
83 5857
84 1932
85 3444
85 4658
85 4899
85 5753
85 5998
85 6126
85 7001
86 149
87 6115
88 955
89 6757
90 2498
91 313
91 1345
91 6932
92 974
92 2475
92 4479
93 662
94 5042
94 6564
95 1020
95 2347
95 3602
95 3855
95 4126
95 5277
95 5610
95 5832
95 5876
95 7552
96 4811
97 3126
97 3833
97 4676
97 5876
97 7350
98 299
98 2077
98 2854
98 3900
98 4225
98 5625
98 6441
99 1795
100 5361
101 2744
101 2967
101 3698
101 3873
101 4211
101 5862
101 7010
102 290
102 1495
102 2452
102 2648
102 3334
102 3544
102 5433
102 6639
102 7226
103 1671
103 1793
103 6302
103 7224
104 522
104 771
104 899
104 1046
104 1296
104 1533
104 1989
104 2105
104 2145
104 2768
104 2943
104 3096
104 3486
104 3956
104 4235
104 4236
104 4338
104 4671
104 5281
104 5587
104 6228
104 6884
105 5581
106 212
106 296
106 326
106 1137
106 1327
106 1691
106 1786
106 2217
106 3096
106 4039
106 4338
106 4906
106 5715
106 5791
106 7045
106 7542
107 3450
107 4227
108 647
108 2616
108 3192
108 3826
108 6445
108 7574
109 1233
109 6241
110 151
110 152
110 252
110 485
110 524
110 813
110 1149
110 1268
110 1447
110 1509
110 1560
110 1639
110 1817
110 1850
110 1875
110 1876
110 1937
110 2037
110 2199
110 2265
110 2266
110 2267
110 2308
110 2492
110 2577
110 2615
110 2628
110 2790
110 2826
110 2835
110 2933
110 2976
110 2982
110 3024
110 3056
110 3377
110 3399
110 3502
110 3559
110 3763
110 3766
110 3950
110 4180
110 4396
110 4606
110 4624
110 4640
110 4666
110 4716
110 4850
110 4860
110 4875
110 4931
110 5174
110 5242
110 5489
110 5612
110 5725
110 5761
110 5893
110 5988
110 6001
110 6217
110 6380
110 6410
110 6442
110 6455
110 6546
110 6752
110 6810
110 6812
110 6818
110 6958
110 6973
110 7001
110 7059
110 7141
110 7315
110 7533
110 7536
110 7560
111 1222
111 5961
112 504
112 706
112 982
112 1497
112 2526
112 2699
112 2744
112 2755
112 2897
112 2995
112 3058
112 3095
112 3184
112 3342
112 3381
112 3530
112 3667
112 3873
112 3900
112 5127
112 5969
112 6648
112 7457
112 7488
113 378
113 380
113 427
113 1325
113 1334
113 1555
113 1838
113 2151
113 2262
113 2488
113 2571
113 2707
113 3334
113 3614
113 3701
113 4754
113 4809
113 5090
113 5402
113 5644
113 5854
113 5866
113 6391
113 6621
113 6639
113 6695
113 7226
113 7237
114 2848
114 5817
114 7061
115 5653
116 1624
116 4511
116 4701
116 5430
116 6207
117 1412
117 1750
117 3800
118 1464
119 446
119 3341
119 3997
119 4000
119 7260
120 2276
120 2641
120 3086
120 5570
120 6888
121 518
121 2337
121 2948
121 4941
121 5270
122 1853
122 2358
122 2386
122 3748
122 4145
122 4426
122 4684
122 4847
122 4945
122 5126
122 5580
122 5773
122 5835
122 6428
122 6486
122 7280
123 1741
123 5864
123 5890
123 7580
124 2988
124 4362
124 5194
125 2991
126 700
126 3119
126 5718
126 6562
126 6577
127 5454
128 290
129 1126
130 3165
130 3251
130 5033
130 7199
131 166
131 662
131 1349
131 1677
131 1833
131 2451
131 2626
131 2676
131 3852
131 4371
131 4710
131 4994
131 5308
131 5455
131 5457
131 5867
131 5929
131 6126
131 6716
132 6339
133 585
133 684
133 724
133 1734
133 1918
133 4149
133 4505
133 4705
133 5265
133 5787
133 6395
134 652
135 887
135 894
135 1304
135 1658
135 1988
135 2510
135 3042
135 3269
135 3679
135 5977
136 271
136 468
136 499
136 657
136 1381
136 2186
136 2238
136 2290
136 2361
136 2466
136 2848
136 3251
136 3504
136 4563
136 4883
136 4919
136 5944
136 6037
136 6639
136 6857
136 6870
136 6931
136 7284
137 4785
138 473
138 2133
138 2603
138 3597
138 6870
139 213
139 2617
139 2645
139 2675
139 3315
139 5095
139 5449
139 5463
139 6664
139 6800
139 7274
140 435
140 2840
140 3530
140 4839
140 5543
140 5632
140 7190
141 212
141 2369
141 7542
142 2541
142 4100
142 6809
143 3520
143 4785
144 2555
144 3098
144 3103
144 6511
145 5854
146 2759
146 3555
146 6873
147 6767
147 7336
148 1879
148 4778
148 5578
149 1043
149 1254
149 1799
149 1875
149 1879
149 2377
149 2451
149 2669
149 3223
149 3590
149 4329
149 5443
149 5578
149 5640
149 6101
149 6200
149 6339
149 7565
150 4847
151 524
151 1850
151 1934
151 5712
151 5893
152 5988
152 6712
153 4392
153 4543
153 6041
154 4042
155 2974
155 5624
155 5792
155 6192
156 2548
157 5062
158 2232
158 6564
159 1043
159 1902
159 5578
159 6200
159 7367
159 7403
160 958
161 289
161 2150
161 2629
161 2792
161 4085
161 4254
161 5128
161 6919
162 1300
163 4708
164 972
164 2624
164 4880
164 7587
165 5168
166 645
166 1005
166 1143
166 2516
166 2811
166 3588
166 3842
166 4901
166 5308
166 5455
166 5457
166 6424
166 7024
167 667
167 1462
167 1834
167 2126
167 2470
167 2691
167 3079
167 3346
167 3906
167 4356
167 4933
167 5668
167 5889
167 6256
167 7128
167 7534
168 3661
168 3714
168 6446
169 2735
169 3772
169 4031
169 6178
169 7583
170 4785
171 374
171 1545
171 2854
171 6232
171 7035
172 4617
173 4882
174 933
174 1954
174 7162
175 491
175 1773
175 3666
175 4835
175 5153
175 6061
175 6408
175 6590
175 7118
176 4248
177 436
177 1145
177 2366
177 6385
177 6769
177 7329
178 854
178 2694
178 2787
178 3042
178 3400
178 4122
178 6003
178 6096
178 7123
178 7224
178 7498
178 7608
179 1309
179 1462
179 1834
179 2880
179 6965
179 7340
180 4257
181 1557
181 3009
181 7531
182 6524
183 285
183 667
183 1180
183 2747
183 4428
183 4937
183 5968
183 6941
184 213
184 914
184 1005
184 1150
184 3142
184 3223
184 3932
184 4329
184 4998
184 5725
184 6323
184 6446
185 1295
185 3732
185 6108
186 997
186 1221
186 6704
187 723
187 1005
187 1468
187 1677
187 1848
187 2519
187 2626
187 2891
187 3259
187 3389
187 3565
187 4116
187 4480
187 4572
187 4968
187 4973
187 5095
187 5359
187 5455
187 5463
187 5640
187 5745
187 5758
187 6069
187 7122
187 7565
188 3450
188 4206
189 4811
190 860
190 5058
190 6085
190 6123
191 2083
192 612
192 1549
192 2229
192 2745
192 6101
193 2475
194 6372
195 2854
196 1544
197 2532
197 5043
197 5744
197 6985
197 7373
198 272
198 5823
199 2854
199 4929
200 7482
201 1010
201 3656
201 7248
202 2070
202 5568
203 229
203 2186
203 4538
204 2650
204 3439
204 4359
204 5078
204 5454
204 6232
205 6800
206 5057
206 6390
207 5884
208 313
208 1851
208 1959
208 6145
209 319
209 1814
209 3251
209 3504
209 3597
209 4056
209 4135
209 5703
209 5854
209 6639
209 7237
210 1577
211 1658
211 1665
211 2318
211 3869
211 7301
212 296
212 448
212 879
212 927
212 936
212 956
212 1014
212 1107
212 1137
212 1691
212 2145
212 2217
212 2234
212 2458
212 2511
212 2854
212 4338
212 4474
212 4671
212 4871
212 4906
212 5031
212 5715
212 5722
212 5791
212 6417
212 6512
212 6696
212 6729
212 7054
212 7417
212 7542
213 259
213 550
213 612
213 719
213 834
213 1005
213 1150
213 1973
213 2229
213 2518
213 2745
213 3080
213 3103
213 3815
213 4280
213 4349
213 4517
213 4630
213 5108
213 5192
213 5463
213 5600
213 5725
213 6101
213 6339
213 6800
214 5762
214 7021
215 4611
216 422
216 840
216 918
216 2051
216 3026
216 3127
216 3810
216 3893
216 4318
216 4447
216 5764
216 6416
216 6811
216 6911
216 7084
217 1000
217 4257
217 5547
217 6549
218 4250
218 4696
218 5922
218 6772
219 1665
219 2892
219 4561
219 6519
219 7352
220 3807
221 379
221 787
221 982
221 1409
221 1790
221 2426
221 2744
221 2854
221 2967
221 3184
221 3216
221 3381
221 3450
221 3530
221 3573
221 4163
221 4422
221 5425
221 5663
221 6506
221 6717
221 6888
221 6998
221 7488
222 950
222 3039
222 4387
223 827
223 1628
223 3189
223 4895
223 5534
223 6080
223 6856
224 3597
225 988
225 1055
225 4170
225 6260
226 904
226 1859
226 2236
226 2289
226 3446
226 4324
226 4338
226 5203
226 5285
226 6515
226 7232
226 7342
227 2094
228 296
228 804
228 1179
228 1327
228 1407
228 2217
228 2458
228 3781
228 4189
228 4214
228 6022
228 7338
228 7551
229 2186
230 277
230 1460
230 5301
230 6224
231 5807
231 6970
232 237
232 1497
232 2107
232 3342
232 3442
232 3530
232 3876
232 3900
232 4163
232 5127
232 5823
232 6955
233 4528
233 5866
233 6036
234 2647
234 3592
234 4231
234 4335
235 2896
235 6816
236 5793
238 1057
238 1853
238 2358
239 3376
239 3663
239 5524
240 3530
240 3538
240 5487
241 667
241 2747
241 3344
241 5888
241 7534
242 6044
243 821
243 1396
243 2337
243 3227
243 5254
243 6190
243 6235
243 7009
244 345
244 552
244 743
244 1280
244 1381
244 1998
244 2042
244 2685
244 2798
244 3405
244 4754
244 4759
244 5019
244 5151
244 5568
244 5596
244 6280
244 6437
244 6953
244 7460
245 7135
246 632
246 6441
247 7483
248 4944
249 1495
250 806
251 562
251 601
251 3538
252 524
252 1560
252 1937
252 2615
252 2835
252 3377
252 3557
252 4904
252 5355
252 5857
252 6217
252 6958
252 7001
253 550
253 2117
253 2303
253 4263
253 6164
253 7440
254 1439
255 2798
255 4003
255 5866
255 6409
255 7237
256 3325
257 1610
257 2036
257 2158
257 2938
257 3462
257 3822
257 3855
257 5610
257 7162
258 1964
259 672
259 4470
260 1310
260 1849
260 2515
260 3450
260 3530
260 3650
260 4095
260 4452
260 5663
260 6112
260 6436
261 5370
262 7357
263 3481
264 6323
264 7100
265 3259
266 506
266 648
266 1292
266 1506
266 1804
266 1956
266 4521
266 5095
266 6176
267 2903
267 5206
268 376
268 3750
268 4041
269 438
270 5169
271 286
271 378
271 2238
271 3871
271 4079
271 4900
271 5854
271 5937
271 6514
271 6706
272 463
272 2680
273 3073
274 7191
275 2470
275 3298
275 4992
276 4811
277 660
278 1211
278 4275
279 659
279 3597
280 347
280 980
280 1008
280 3602
280 5577
280 6027
281 1555
281 3597
282 599
282 5329
282 5643
282 6483
282 6730
283 1848
283 1956
283 2781
283 2804
283 3259
283 4680
283 5455
283 6446
283 6571
284 1387
284 5788
285 433
285 601
285 667
285 1907
285 3311
285 3531
285 3615
285 4154
285 4848
285 5251
285 5814
285 5968
285 6194
285 6341
285 7133
286 1334
286 2980
286 6797
286 7237
287 458
287 523
287 659
287 2006
287 2815
287 3889
288 1875
289 3530
289 7497
290 367
290 378
290 380
290 763
290 924
290 951
290 1009
290 1129
290 1174
290 1244
290 1260
290 1393
290 1524
290 1555
290 1678
290 1838
290 1866
290 1891
290 2014
290 2089
290 2445
290 2452
290 2666
290 2714
290 2724
290 2734
290 2798
290 2848
290 2980
290 3047
290 3085
290 3108
290 3165
290 3251
290 3333
290 3499
290 3504
290 3614
290 4069
290 4086
290 4103
290 4797
290 4900
290 5090
290 5548
290 5651
290 5703
290 5750
290 5759
290 5769
290 5853
290 5978
290 6369
290 6391
290 6521
290 6633
290 6649
290 6666
290 6797
290 6857
290 7075
290 7284
290 7349
290 7484
290 7517
291 370
291 823
291 1005
291 1940
291 2162
291 2772
291 2813
291 3139
291 4008
291 6952
291 7568
292 5274
293 6817
294 2074
294 5488
295 4257
296 778
296 804
296 1107
296 1137
296 1278
296 1297
296 1786
296 1844
296 1859
296 2217
296 2289
296 2458
296 2854
296 3781
296 4474
296 4902
296 4906
296 5060
296 5285
296 5791
296 6022
296 6285
296 7551
297 2132
297 3039
298 3435
299 643
299 666
299 1346
299 1849
299 1897
299 2004
299 2024
299 2065
299 2494
299 2840
299 4007
299 4216
299 4387
299 4932
299 6063
299 7030
300 1795
300 2232
301 3701
301 4712
302 365
302 1057
302 4364
302 4470
302 5287
303 4279
303 5516
304 6017
305 6034
305 6829
306 682
306 738
306 1209
306 2832
306 3368
306 3437
306 3855
306 3992
306 4755
306 4934
306 5610
306 5790
306 6845
307 1792
307 3786
307 4146
307 6408
307 6480
307 6991
307 7489
308 1944
308 4719
308 6115
309 1952
309 4276
310 1529
311 799
311 7171
312 2056
312 3822
312 3845
312 3855
312 5330
312 5610
313 586
313 1851
313 2096
313 2351
313 2495
313 2500
313 3293
313 4328
313 4609
313 4750
313 5594
313 6145
313 7069
313 7555
313 7620
314 1464
314 1799
314 2790
314 2885
314 4023
314 7098
315 4647
315 4705
315 7439
316 5640
316 7303
317 6884
318 1348
318 4943
319 847
319 2239
319 3297
319 6387
320 7284
321 1325
321 3529
321 5703
321 7281
322 3715
322 4532
322 5011
323 1384
323 3666
323 5646
324 1752
324 2517
324 4585
324 7437
325 2674
325 2711
325 3707
326 1327
326 2854
326 3474
326 3928
326 4983
326 6902
326 7542
327 3571
328 2332
328 6097
329 2391
329 2995
329 4211
329 4880
329 5859
330 1404
331 5159
332 725
333 1784
333 6129
334 3544
335 1316
335 1665
335 1945
335 3400
335 3715
335 4561
335 5218
335 5334
335 5905
335 6519
336 5501
336 7224
337 690
337 1935
337 2540
337 2854
338 1618
338 7048
339 3073
340 958
341 711
341 3530
341 3585
341 3755
341 5632
341 6102
341 7030
342 667
342 1492
342 2800
342 4627
343 907
343 2711
343 3598
343 4104
343 7287
343 7579
344 1474
344 1947
344 2229
344 3350
345 1280
346 3549
346 4260
346 4368
346 5887
346 5981
346 6564
346 7041
347 980
347 1721
348 3728
348 4436
349 1005
349 2164
349 2676
349 3842
349 5308
349 5455
349 6424
349 6544
350 1932
350 6498
351 2241
351 4485
352 6410
353 1551
354 2011
355 710
355 6918
356 3039
357 4555
358 756
358 1263
358 1373
358 1556
358 2142
358 2616
358 2635
358 3468
358 4034
358 4567
358 5416
358 5635
358 7465
359 1849
360 406
360 1555
360 2029
360 2083
360 2412
360 2798
360 3047
360 3240
360 3251
360 3597
360 6234
361 861
361 1464
361 3584
361 6206
362 6419
363 4453
363 4785
363 5041
364 2734
364 2980
364 3251
364 3659
364 4573
364 6649
364 7237
366 1795
366 6970
367 951
367 2014
367 2186
367 2476
367 2767
367 3709
367 4900
367 6666
368 539
368 1973
368 2170
368 3080
368 3689
368 6101
368 6192
369 1939
369 2091
369 4149
369 5486
369 6362
370 1940
370 2162
370 2404
370 2772
370 7100
370 7143
370 7568
371 5414
372 2510
373 5665
374 833
374 1287
374 1778
374 2775
374 2805
374 2820
374 2913
374 3279
374 4326
374 5056
374 5911
374 7160
375 573
375 3855
375 4193
375 4738
375 5012
375 5065
375 5610
376 634
376 2629
376 3879
376 4484
377 899
378 406
378 473
378 763
378 951
378 1334
378 1543
378 1555
378 1779
378 2724
378 2734
378 2737
378 2876
378 3165
378 3240
378 3397
378 3597
378 3644
378 4754
378 4843
378 5079
378 5090
378 5269
378 5402
378 5510
378 5530
378 6105
378 6296
378 6391
378 6789
378 6792
378 6891
378 7226
378 7284
379 3530
379 7501
380 1831
380 2055
380 2094
380 2848
380 3081
380 3251
380 3264
380 5454
380 5694
380 6036
380 6105
380 6223
380 6326
380 6369
380 6841
380 6870
380 7226
380 7237
380 7252
381 998
381 1228
381 1881
381 1910
381 2944
381 2998
381 3005
381 3120
381 3282
381 3469
381 3920
381 4544
381 6587
381 6757
381 6916
381 7227
382 7098
383 1132
383 3530
383 3751
384 4456
385 433
385 860
385 2621
385 4437
385 4877
385 4879
385 5623
385 6085
386 1674
387 5643
388 7301
389 998
389 2998
389 5875
389 5962
390 7224
391 4785
392 1376
392 3807
392 4419
393 1462
393 1834
393 5063
393 6502
394 1414
394 6162
395 1495
395 1966
396 1600
396 2066
396 4431
397 4359
397 4657
397 5956
397 6207
398 1316
398 1861
398 2031
398 2725
398 4317
399 1547
399 3240
399 5827
400 581
400 3597
400 4520
400 5370
401 6199
402 3463
402 6477
403 4006
404 2670
405 3249
405 6252
406 912
406 951
406 1334
406 1348
406 1555
406 1831
406 2029
406 2083
406 2724
406 3047
406 3240
406 3251
406 3397
406 3464
406 3504
406 3544
406 3961
406 4353
406 4360
406 4843
406 5090
406 5703
406 5717
406 6105
406 6108
406 6789
406 6870
406 7237
407 505
407 1749
407 2162
407 3710
407 3774
407 4012
407 5895
407 5916
407 7450
408 2474
408 4785
409 615
409 2810
409 3020
409 3453
409 3581
409 3830
409 4257
409 5194
409 5595
410 739
410 743
410 2485
410 5944
410 6105
410 6639
410 6846
411 686
411 5711
412 2765
412 7008
413 1486
413 6004
414 424
414 1704
414 5319
414 6059
415 2023
415 2854
415 6022
415 6186
415 6390
416 3509
416 3948
417 5944
417 6105
418 524
418 1447
418 1509
418 1937
418 1956
418 2615
418 2677
418 2835
418 3557
418 4850
418 5047
418 5174
418 5642
418 5653
418 5988
418 6818
418 7141
419 3571
420 1334
420 2207
420 6595
420 6891
421 916
421 958
421 1132
421 1221
421 1887
421 3039
421 3651
421 3807
421 3921
421 5230
421 5706
421 5876
421 5894
421 6262
421 6617
421 7028
421 7607
422 1657
422 4019
422 4318
422 4447
422 5851
422 6911
422 7076
423 4155
424 2439
425 2340
426 1312
426 2129
426 3530
426 3751
426 3807
426 5274
426 6170
427 473
427 851
427 1334
427 1348
427 1555
427 1831
427 2029
427 2083
427 2571
427 2876
427 3108
427 4353
427 4900
427 5079
427 5402
427 5831
427 6146
427 6695
427 6792
427 7237
427 7284
427 7547
429 607
429 876
429 1020
429 1166
429 1305
429 1569
429 1610
429 3757
429 5277
429 5289
429 6065
429 6661
429 6820
429 6964
430 5962
431 3350
432 3701
433 2415
433 3325
433 4002
433 4877
433 5164
433 5434
433 5623
433 6085
433 6149
433 6349
433 6624
434 2896
434 6363
435 5543
436 1993
436 7129
437 1445
437 6965
438 543
438 907
438 1633
438 2711
438 2730
438 3988
438 7468
438 7579
439 1677
439 4046
440 519
440 2510
440 3725
440 3767
440 4098
440 4549
440 4941
440 5639
440 5657
440 6898
440 7601
441 961
441 4298
441 7238
442 2967
442 5315
443 1859
443 4331
443 6186
444 612
444 3932
444 4588
445 1303
445 4257
446 854
446 2892
446 4523
447 1812
447 2126
448 778
448 2217
448 4902
448 7045
449 524
449 4284
450 7021
451 1381
451 1891
451 6354
452 1164
452 1521
452 2992
452 3321
452 3330
452 5516
452 7248
453 1057
453 6241
454 1425
454 2337
454 2902
454 6259
455 2913
456 7078
457 4069
458 3889
459 7328
460 7066
460 7335
461 1520
461 1792
461 3845
461 3855
461 5610
462 1032
462 2523
462 2874
462 5534
462 5539
462 5655
462 6018
462 6358
462 6617
462 7028
464 1371
464 1376
464 1953
464 3319
464 3840
464 4212
464 4799
464 5454
465 5416
465 5854
465 6613
465 7272
465 7414
466 2488
467 5600
467 6304
468 1381
468 2412
468 4459
468 4574
468 4919
468 5944
468 6857
469 1170
469 1389
469 2361
469 2480
469 3198
469 3504
469 3580
469 4064
469 4335
469 4910
469 5111
469 5519
469 6037
470 3341
471 538
471 661
471 828
471 1536
471 1792
471 2017
471 2385
471 2985
471 3093
471 3833
471 3845
471 4359
471 4511
471 4653
471 4657
471 4676
471 4720
471 5118
471 5378
471 6202
471 6207
471 6408
471 6427
471 7402
472 2994
472 6888
472 7304
473 763
473 805
473 1264
473 1334
473 2031
473 2083
473 2476
473 2725
473 2798
473 3108
473 3161
473 3240
473 3594
473 3669
473 3701
473 4754
473 5312
473 5479
473 5530
473 5556
473 5694
473 5769
473 5788
473 5831
473 6140
473 6168
473 6369
473 6695
473 6891
473 7548
474 891
474 1228
474 2586
474 2944
474 2998
474 4175
474 5132
474 5872
474 5962
474 6757
474 7477
475 1464
475 3110
476 5274
477 745
477 1767
478 611
478 2088
478 3755
478 6431
479 2341
479 5159
479 5673
480 522
480 4671
480 6822
481 5718
482 566
482 1691
482 2854
482 4647
482 4916
482 6441
483 4811
483 6848
484 574
484 1497
484 2155
484 3095
484 3342
484 3450
484 3530
484 4125
484 4211
484 5127
484 5216
484 5862
484 6438
484 7368
484 7401
485 3766
485 4931
486 926
486 2515
486 4912
486 5410
486 6809
487 1923
487 2146
487 2298
487 3479
487 4766
487 5000
487 5138
487 5298
487 5529
487 6694
488 852
488 1632
488 2858
488 3264
488 3409
488 3756
488 3968
488 5769
488 6193
488 7237
488 7344
488 7379
488 7511
489 6316
490 1127
490 3701
490 3878
492 1147
492 2616
492 2690
492 3467
492 3653
493 4732
494 1932
494 4232
494 6459
495 2422
496 3110
496 4817
496 5930
496 6016
496 7080
497 2820
498 2225
498 3145
498 3334
498 3975
498 5854
498 5866
499 3198
500 1226
500 1891
500 2029
500 5866
500 6803
501 3521
501 4146
501 4717
501 6233
502 1559
502 1941
502 2418
502 2912
502 4238
502 4527
502 4986
502 5335
502 6330
503 1891
503 2083
503 2798
503 5079
503 5688
503 6695
504 2967
504 3342
504 3530
504 3698
504 4163
504 4211
505 765
505 1749
505 2979
505 3103
505 5895
506 3181
507 4795
508 2462
508 2854
508 2897
508 4059
508 4560
508 7156
509 2692
510 4257
511 2413
512 3182
512 5700
513 1287
513 3107
513 4183
513 5331
514 1689
514 3463
514 3705
514 4788
514 5700
514 6103
514 6463
515 2004
515 2579
515 4346
515 5261
515 5897
516 4593
517 1372
517 1400
517 2603
517 5040
517 6728
517 7237
518 2684
518 2902
518 3610
518 3665
518 6120
519 4844
519 5639
519 5657
519 6460
519 6477
519 7601
520 903
520 958
520 1384
520 2428
520 4217
520 5128
520 5632
520 5638
520 5646
520 7110
520 7600
521 1020
521 1166
521 1305
521 1960
521 2896
521 3075
521 3940
521 4320
521 4711
521 5065
521 6065
521 6378
521 7159
521 7162
522 771
522 1533
522 4338
522 4374
522 4823
524 614
524 640
524 705
524 813
524 830
524 839
524 866
524 1149
524 1186
524 1223
524 1268
524 1320
524 1360
524 1386
524 1417
524 1448
524 1560
524 1672
524 1776
524 1850
524 1933
524 1934
524 1937
524 1958
524 1981
524 2015
524 2037
524 2085
524 2130
524 2267
524 2499
524 2538
524 2566
524 2614
524 2642
524 2696
524 2732
524 2790
524 2835
524 2884
524 2885
524 2953
524 2970
524 2976
524 3053
524 3056
524 3061
524 3069
524 3118
524 3213
524 3279
524 3308
524 3377
524 3390
524 3448
524 3470
524 3508
524 3557
524 3559
524 3647
524 3694
524 3864
524 3950
524 3971
524 4031
524 4146
524 4180
524 4195
524 4197
524 4305
524 4315
524 4389
524 4391
524 4396
524 4434
524 4537
524 4666
524 4716
524 4728
524 4749
524 4770
524 4784
524 4860
524 4893
524 4899
524 4904
524 4931
524 4964
524 5047
524 5355
524 5575
524 5612
524 5731
524 5756
524 5761
524 5795
524 5857
524 5893
524 5988
524 6001
524 6073
524 6092
524 6152
524 6217
524 6287
524 6290
524 6298
524 6321
524 6423
524 6442
524 6455
524 6616
524 6712
524 6752
524 6810
524 6812
524 6862
524 6866
524 6959
524 6993
524 7059
524 7064
524 7082
524 7141
524 7144
524 7257
524 7354
524 7360
524 7452
524 7533
524 7536
524 7540
525 4373
525 5817
525 5842
526 3211
527 5192
527 5725
528 7100
529 1312
530 4595
530 6908
531 2176
531 2439
532 1281
532 3042
533 7375
534 7224
535 540
535 4212
535 5631
536 3262
536 6234
537 1282
537 3042
537 5839
537 6746
538 1471
538 2017
538 2120
538 2193
538 3128
538 3210
538 4146
538 4676
538 5892
538 5993
538 6408
538 6419
538 6427
538 6770
538 6991
538 7256
538 7294
538 7489
539 1685
539 3689
539 3726
539 5383
539 5540
539 5711
539 6101
540 1608
540 2579
540 3407
540 3751
540 5454
540 5560
540 5626
540 6577
541 958
541 2425
541 2788
541 6415
542 1140
542 1531
542 3645
543 593
543 810
543 846
543 1594
543 1633
543 2041
543 2637
543 2711
543 2730
543 2737
543 2838
543 3072
543 3584
543 3988
543 4164
543 4338
543 4888
543 5115
543 5130
543 5318
543 5335
543 5346
543 5758
543 5873
543 5905
543 6000
543 6204
543 6332
543 6440
543 6640
543 6720
543 7468
543 7579
544 2510
545 1423
546 3095
546 5734
547 5466
547 6377
548 1001
549 1054
549 7100
550 645
550 718
550 766
550 1349
550 1799
550 1905
550 2122
550 2208
550 2229
550 2396
550 2519
550 2626
550 2751
550 2797
550 2843
550 2899
550 3571
550 3898
550 3911
550 4008
550 4280
550 5455
550 5533
550 5544
550 5640
550 5906
550 6317
550 6339
550 6367
550 6462
550 6479
550 7074
550 7184
550 7186
550 7416
551 1942
552 4754
553 947
553 1039
553 1381
553 6142
553 6354
553 6633
554 4785
555 1674
555 2890
555 7585
556 5020
557 1402
557 2515
557 4452
558 1221
558 1456
558 3991
559 2011
559 3597
559 4900
559 6322
560 627
560 6397
561 4875
562 601
562 1391
562 5058
563 793
563 1658
563 2510
563 4549
564 6632
565 5988
566 1077
566 1213
566 2345
566 2975
566 3542
566 3851
566 4165
566 4482
566 4916
566 5454
566 6449
566 7317
566 7488
567 1565
567 2390
567 3701
567 3708
567 3878
568 2980
569 1618
570 6408
571 4033
571 4089
571 4600
571 5173
571 5671
571 6259
571 7009
571 7132
572 3223
572 5600
573 651
573 3507
573 4576
573 5660
575 5303
576 3450
576 6436
576 7453
577 3903
578 6644
579 7228
582 1792
582 3632
582 5921
582 6408
582 6876
582 7294
583 989
583 3181
583 7199
584 2753
584 3374
584 6341
585 1734
585 3793
585 4505
585 6451
587 5580
588 3530
589 5564
590 2816
590 3866
591 1721
591 2414
591 3998
591 5939
591 7031
591 7552
592 4616
593 3584
594 1746
594 2414
594 3075
594 3136
594 3385
594 5741
594 5832
594 6575
594 6755
595 709
595 5514
596 618
596 3211
596 6523
597 5223
598 667
598 1284
598 2091
598 2387
598 2930
598 3382
598 5968
598 6180
598 7534
599 957
599 2524
599 3103
599 3238
599 4954
599 5643
599 6101
600 1344
600 2160
600 3045
600 3282
600 3564
600 3584
600 5132
600 5188
600 5962
600 6379
600 7227
600 7334
600 7623
601 1462
602 1585
602 1795
602 2880
602 3844
602 4205
602 4581
602 4647
602 5129
602 5219
602 6600
602 7105
602 7439
603 3423
603 3643
603 5253
604 6004
605 2988
605 3039
606 5561
606 5972
606 7586
607 1020
607 2549
607 2896
607 3136
607 5829
607 6378
607 6969
607 7162
607 7352
608 7482
609 932
609 1409
609 4452
609 5127
609 5274
609 7500
610 758
611 1312
611 1890
611 1961
611 2589
611 3839
611 5190
611 6431
611 6899
612 985
612 1005
612 1292
612 1493
612 1804
612 2192
612 2229
612 2864
612 3410
612 3470
612 3620
612 3817
612 6101
612 6129
612 7225
613 1698
613 2566
613 3400
613 5609
614 2615
614 3694
614 4666
615 1384
615 2914
615 3418
615 3530
615 3960
615 5646
615 5965
615 6885
615 7462
616 3888
617 1355
617 3176
617 5386
617 7004
618 991
618 1946
618 2361
618 6523
619 2155
619 2897
619 3530
619 5127
619 5216
619 6063
621 647
621 1665
622 3703
622 4719
623 1658
623 3038
623 6794
623 7123
624 3410
625 1346
625 3638
625 4780
626 1941
627 4146
628 1376
628 1849
628 2609
628 6581
628 7190
629 1838
630 643
630 1045
630 2830
630 3418
630 3807
630 3854
630 3887
630 5894
630 7019
630 7119
630 7228
630 7618
631 2072
632 3615
632 4688
632 6194
633 851
633 1941
633 3544
633 4388
633 4785
633 5811
634 2447
634 2624
634 2910
634 3921
634 5785
634 7502
635 2456
635 2784
635 3478
635 6330
635 7588
636 5610
637 1325
637 7442
638 706
638 3873
639 743
639 1367
639 1618
640 1699
640 1776
640 1902
640 1933
640 1937
640 2835
640 2933
640 4131
640 4931
640 6047
640 6074
640 6959
641 2182
641 4829
641 5755
641 5764
641 5851
641 6038
642 827
642 2515
642 3895
642 5735
643 3418
643 3650
643 4895
644 2687
644 7320
645 718
645 1300
645 1349
645 1542
645 1799
645 1905
645 2127
645 2205
645 2359
645 2396
645 2524
645 3410
645 3544
645 3842
645 3852
645 4141
645 4698
645 4981
645 5455
645 5485
645 5578
645 5615
645 5725
645 5906
645 6101
645 6424
645 6446
645 6544
645 6839
645 7244
645 7275
645 7435
646 845
646 1244
646 2412
646 7234
647 1147
647 1281
647 1316
647 1606
647 1665
647 1945
647 2259
647 2818
647 3400
647 4337
647 4550
647 4561
647 5121
647 6514
647 6568
647 7083
647 7117
648 1875
649 1766
649 3181
650 4407
650 5674
650 5866
651 1680
651 2796
651 4738
651 6293
651 7212
652 1954
652 2896
652 4126
652 7352
653 4429
654 3850
654 5292
654 5314
655 848
655 933
656 5372
658 2782
659 1595
659 1618
659 6361
659 6960
660 3271
660 3530
660 4707
660 6466
661 1262
661 1792
661 4146
661 4657
661 4676
661 6991
661 7489
662 3103
662 5025
663 5751
664 2798
664 2825
665 1025
666 1668
666 4650
667 777
667 1834
667 1907
667 2387
667 2747
667 2800
667 2939
667 3079
667 3082
667 3382
667 3582
667 3969
667 4220
667 4428
667 4512
667 4558
667 5814
667 5968
667 6137
667 6180
667 6256
667 6341
667 6636
667 6941
667 7133
667 7534
668 2257
668 3529
668 6409
669 3073
670 1391
670 4368
670 6564
670 6761
671 1378
671 2514
671 2886
671 3585
671 4145
671 4711
671 4847
671 5123
671 5754
671 6471
672 6167
673 835
673 2069
673 2267
673 4213
674 1171
674 1321
674 1381
674 1678
674 1706
674 1779
674 3544
674 5669
674 6351
674 7237
675 1641
675 7089
676 4785
677 1229
678 7480
679 4153
679 4428
679 5180
680 6316
681 3240
681 7414
682 1610
682 1919
682 3368
682 4054
682 5790
682 6755
683 800
683 1641
683 1846
683 2029
683 2942
683 3948
683 6894
683 7237
683 7414
684 3891
684 6395
685 1127
685 1270
685 3701
685 3878
685 5564
686 2241
686 5725
686 7233
687 1265
687 1715
687 5260
688 4711
688 4785
688 5446
688 5876
689 3084
689 4957
690 2854
691 1941
691 3355
691 3959
691 4789
691 5728
691 6208
692 3642
692 4121
693 5162
694 3279
694 3636
694 3823
694 4994
694 6323
695 7213
696 5885
697 1563
698 5274
699 7353
700 3572
700 3827
701 6912
702 1625
702 3020
702 4771
703 5352
703 7580
704 1820
704 2969
704 4609
704 4900
704 6394
704 6424
705 1699
705 1933
705 1937
705 3308
705 3336
705 4931
705 6073
705 6298
705 6616
706 2013
706 3755
706 3939
706 4880
706 5315
706 6505
706 6888
706 7089
706 7178
707 4919
708 1253
708 1341
708 1935
708 2854
708 2873
708 5040
708 5850
708 6293
708 6914
708 7300
709 1852
709 3226
709 4700
709 6567
709 6835
710 1316
710 2570
710 3935
710 4763
710 6619
710 7295
711 1261
711 1376
711 3450
711 3755
711 4864
711 4880
711 5034
711 5611
711 6245
711 6272
711 7538
712 1535
712 7365
713 2854
713 5854
714 954
715 2083
715 2326
715 2476
715 3597
715 4277
715 4584
715 5111
716 3993
717 5110
718 1349
718 1489
718 1646
718 1797
718 2751
718 3792
718 4014
718 4497
718 5396
718 5640
718 6317
718 7435
719 4687
719 4800
719 5267
720 2174
720 5110
721 3103
721 4243
721 4786
721 5571
722 5127
723 999
723 5578
724 3891
725 3965
725 4726
725 6888
726 2203
726 3431
726 6746
727 4330
727 5909
728 5859
728 5943
728 6635
728 7254
729 1848
729 2891
729 2921
729 3680
729 4756
729 4993
729 5449
729 6273
729 7383
730 2094
731 6547
732 3206
732 4312
733 1808
733 2854
733 5426
733 5984
733 6872
733 6954
734 3855
735 3073
735 7419
736 1236
736 1650
736 2541
736 2744
736 3086
736 3285
737 1329
738 5081
738 6342
738 7489
739 1348
739 3544
739 7075
739 7237
740 2285
740 5539
741 3165
741 3597
741 4809
742 2201
742 5079
742 5370
742 7380
743 951
743 1381
743 1555
743 2326
743 2349
743 2434
743 2725
743 2734
743 2878
743 2980
743 3498
743 3986
743 4563
743 4757
743 4809
743 4883
743 5556
743 5730
743 6105
743 7237
744 1318
744 4941
744 6316
746 1879
746 5972
747 2020
747 3683
747 3855
747 4704
747 5610
747 5892
747 6363
748 766
748 3907
748 4441
748 5262
748 7024
749 4611
750 1919
750 2158
750 3855
750 5277
750 5676
750 5909
750 6378
750 6419
750 7162
751 1524
751 2845
751 6654
751 6960
752 3584
753 1774
754 2603
755 2762
755 7501
757 1948
757 2924
757 3741
757 3798
757 5600
757 7416
758 788
758 1701
758 1725
758 2194
758 2510
758 3042
758 5670
758 5845
758 7563
759 3588
759 4586
759 5466
759 5658
760 2545
760 3855
761 4485
762 4158
763 951
763 1047
763 1334
763 1348
763 1381
763 1555
763 2213
763 2238
763 2326
763 2452
763 2476
763 2734
763 2763
763 2798
763 2878
763 3047
763 3108
763 3240
763 3392
763 3499
763 3544
763 3597
763 3613
763 3659
763 3743
763 3756
763 4086
763 4325
763 4754
763 4809
763 4843
763 4979
763 5556
763 5769
763 5854
763 5944
763 6108
763 6234
763 6369
763 6405
763 6666
763 6870
763 6891
763 7226
763 7237
763 7284
763 7409
763 7532
764 1308
764 4858
764 5849
765 1749
765 2979
765 3770
765 3774
765 4040
765 5725
766 930
766 1392
766 1413
766 1506
766 1879
766 1905
766 2300
766 2396
766 2504
766 3682
766 3735
766 4649
766 4691
766 4927
766 5455
766 5938
766 6269
766 6446
766 6544
766 6622
766 7435
767 3038
768 5205
769 1850
769 3056
769 4931
770 1141
771 1046
771 1296
771 1637
771 1989
771 4324
771 4823
771 5587
771 6675
772 1349
772 5455
774 794
774 2492
775 3077
775 3466
776 1025
776 2347
776 5801
777 3092
777 3237
778 1014
778 2458
778 2511
778 2854
778 4902
778 5285
778 5791
778 6022
779 5127
779 5245
779 7602
780 5691
780 6021
780 6194
781 2599
781 3654
782 2414
783 4693
784 3324
785 1276
785 5834
785 5850
785 7335
786 4341
786 4448
786 5196
787 7317
788 5497
789 2510
790 3314
791 1808
792 1622
792 1921
792 3094
792 3130
792 5854
793 1304
793 1658
793 1806
793 2028
793 2063
793 3853
793 4000
793 4955
794 1791
794 3181
794 4203
795 7431
795 7480
796 4414
797 3117
798 894
798 895
798 1271
798 1340
798 1652
798 1658
798 1725
798 2510
798 3224
798 3768
798 4393
798 5212
798 5342
798 7498
799 1280
799 1381
799 5176
799 5582
799 5831
799 5944
799 6912
799 6953
801 1555
801 3409
802 1350
803 815
803 1391
803 5878
803 6382
805 3108
805 3338
805 4883
805 5674
805 5769
805 7237
806 1246
806 1351
806 4036
806 4433
806 5127
806 5315
806 6046
806 6095
807 2188
807 2805
807 3477
808 4444
809 1047
809 7409
810 907
810 2433
810 3584
810 4164
810 7579
811 4019
812 7061
813 1029
813 4356
814 1503
815 3538
816 1875
816 2757
816 3680
817 832
817 2808
817 2874
817 2897
817 3530
817 3873
817 5274
817 5543
817 5687
817 6450
817 7580
817 7595
817 7618
818 6577
819 5544
820 4935
820 6559
821 1647
821 4033
821 4279
821 4555
821 6190
821 7086
822 2892
822 3716
824 2510
824 7061
825 6389
826 3300
827 1224
827 2473
827 2482
827 2515
827 2609
827 2829
827 3135
827 3450
827 3530
827 3667
827 4880
827 4892
827 5534
827 5632
827 6334
827 6955
827 7165
828 1232
828 1792
828 2347
828 2985
828 3093
828 3632
828 4511
828 4636
828 4657
828 5454
828 7242
829 1956
830 1937
830 4931
830 5438
830 5857
830 6712
830 7043
831 3080
831 3103
832 3450
832 4095
833 2854
836 3853
837 1942
837 3584
838 1002
838 3240
838 7282
839 1320
839 1360
839 2982
839 3377
839 5023
839 5988
840 1315
840 1963
840 2039
840 3893
840 4019
840 5106
840 5508
840 5851
840 6416
840 6811
840 6911
841 5319
842 1785
842 2510
842 3360
842 3853
842 5013
842 5793
842 6906
842 7037
842 7273
843 1376
843 1901
843 2271
843 2532
843 2640
843 3450
843 3530
843 3867
843 4125
843 5994
843 6985
844 4461
844 7363
845 1529
845 4994
846 907
846 2838
846 3584
846 4104
846 4164
846 6652
847 1381
847 3081
847 5854
847 6036
847 6764
847 7226
847 7237
848 2140
848 4735
848 4811
849 2334
849 7024
850 7482
851 1039
851 3975
851 5402
852 1862
852 3701
853 5343
854 887
854 1140
854 2349
854 3038
854 3360
854 3853
854 3946
854 4000
854 4122
854 4393
854 5510
854 5526
855 4399
855 6653
856 7532
857 4460
857 5578
858 2203
858 2204
858 2510
858 2694
858 2761
858 3121
858 3130
858 3341
858 3400
858 4034
858 5510
859 1017
859 4132
860 1885
860 2062
860 4437
860 5131
860 6106
860 7207
860 7337
862 7078
862 7381
863 7118
864 1944
864 2916
864 7471
865 2180
865 3429
865 4783
865 4785
865 6454
865 6685
865 7129
866 1223
866 1468
866 1776
866 1902
866 1933
866 2835
866 3502
866 3508
866 4455
866 4539
866 5047
866 5355
866 5731
866 5857
866 6217
866 6712
866 6958
866 7001
866 7383
866 7406
867 1446
867 1674
867 2890
867 4021
867 4900
867 5413
867 5703
867 6369
868 3546
868 4310
869 6283
870 1491
870 1643
870 3703
870 4719
871 5175
872 4811
873 3313
873 3584
873 3803
873 3870
873 6099
873 6989
874 3905
874 4023
874 6765
874 7098
875 1255
875 1610
875 2158
876 1166
876 1610
876 3440
876 4087
876 7352
877 2341
878 2072
879 905
879 1297
879 1407
879 2289
879 2854
879 2947
879 3096
879 4474
879 7073
879 7551
880 4129
880 7058
881 1677
881 2113
881 3444
881 5574
881 6796
881 7567
882 2535
882 4093
882 5735
883 2916
883 3818
884 3342
884 3530
884 4452
884 5127
884 5513
885 1794
885 3390
885 3399
885 6217
886 2510
886 3269
886 5510
887 1658
887 1664
887 2078
887 3042
887 4000
887 4549
887 4554
887 5168
887 5526
887 7090
887 7224
887 7339
887 7437
888 1534
888 3764
888 4536
888 5274
888 6659
889 1617
889 3530
889 3807
889 4080
889 4948
889 7423
890 1464
890 6206
891 998
891 2600
891 4082
891 4612
891 5178
891 5962
891 7199
891 7410
892 3062
893 3528
894 1359
894 1566
894 3038
894 3157
894 3360
894 3361
894 3420
894 3706
894 3836
894 4000
894 4309
894 4350
894 4622
894 5597
894 6003
894 6614
894 7224
894 7339
895 2028
895 2063
895 2510
896 1849
897 1300
897 4338
897 5276
897 6670
897 7359
898 984
898 1213
898 1903
898 2893
898 5243
898 5268
898 5454
898 5796
898 6449
898 7199
899 2624
899 5020
900 2158
900 2233
900 2814
900 3400
900 3921
900 5421
900 5526
900 6656
900 7421
901 1683
901 3538
902 2420
902 5390
903 933
903 3718
903 5949
903 6331
903 7600
904 1107
904 1872
904 2145
904 2217
904 2605
904 3446
904 4409
904 6512
904 7232
905 1395
906 2488
907 1594
907 2433
907 2711
907 3196
907 3598
907 3897
907 4888
907 5318
907 6598
907 6662
907 7579
908 1862
908 2734
908 5944
909 5854
910 5927
911 6163
911 7032
912 2571
913 2680
913 7172
914 6129
915 1563
916 1057
916 3173
916 4364
916 5949
917 6194
918 4019
918 6416
919 3028
919 3450
919 3530
919 4319
919 4490
919 5127
919 6095
919 6267
919 7065
919 7595
920 1005
920 2524
920 3279
920 3663
920 4162
920 6101
921 1059
922 3173
922 4301
922 4364
923 1800
923 3085
923 7284
924 1039
924 2644
924 5703
924 5854
924 6140
924 6156
924 6891
925 3000
925 3210
925 3833
925 4720
925 4842
925 5314
925 6148
925 7256
926 1132
926 1182
926 3095
926 3829
928 2629
928 3263
928 6262
929 1681
929 3514
929 4785
929 5865
929 6519
930 1506
930 2368
930 3103
930 3359
930 3970
930 4174
930 5360
930 6016
930 7173
931 4124
932 2713
932 3720
932 4298
932 4865
932 4914
932 6118
932 6987
933 1065
933 1203
933 1384
933 1898
933 3348
933 3411
933 3530
933 3854
933 4261
933 4466
933 4673
933 4762
933 4771
933 5127
933 5128
933 5638
933 5751
933 6617
933 7110
933 7600
934 6296
934 6639
935 1121
935 2854
935 3181
935 5454
935 6408
936 1107
936 1200
936 1844
936 1859
936 1872
936 2605
936 3446
936 4304
936 4324
936 4338
936 5203
936 6515
936 7232
936 7551
937 2348
937 5274
938 2864
938 6220
938 6263
939 4785
940 5231
941 2919
941 4085
942 4212
943 1107
944 1653
944 2798
944 5402
944 7012
944 7606
945 1133
945 1892
945 3855
945 5610
945 6282
946 3175
948 4457
949 4433
950 3039
950 5900
950 5949
950 7028
950 7063
951 1067
951 1334
951 1381
951 1555
951 1760
951 1779
951 1967
951 2083
951 2201
951 2434
951 2452
951 2476
951 2571
951 2648
951 2725
951 2734
951 2876
951 2878
951 3108
951 3240
951 3244
951 3397
951 3408
951 3498
951 3504
951 3537
951 3560
951 3597
951 3961
951 4086
951 4754
951 4809
951 4908
951 4980
951 5090
951 5412
951 5556
951 5769
951 6108
951 6391
951 6403
951 6555
951 6789
951 6792
951 6891
951 7072
951 7075
951 7187
951 7237
951 7430
952 3346
952 4348
953 1663
953 2197
953 2204
953 2807
953 3977
953 4549
953 7463
954 5266
954 6250
955 2040
955 2045
955 2145
955 5283
955 5781
956 1107
956 6417
958 1064
958 1384
958 1783
958 1898
958 2705
958 2910
958 3060
958 3305
958 3482
958 3883
958 3987
958 4753
958 5158
958 5646
958 6262
958 7023
959 5245
959 6093
959 7496
960 1651
960 2818
960 4000
960 4785
961 4136
961 4726
961 5274
961 6118
961 6673
961 7400
961 7448
962 2691
962 6941
963 4259
964 3873
965 4339
965 6325
966 5126
966 5580
967 5578
968 1486
968 3845
969 5643
970 1718
970 1879
970 2021
970 2960
970 3616
970 4460
970 5795
971 3584
972 2304
972 2515
972 3450
972 4868
972 4880
972 5663
972 6278
972 7587
973 1357
973 1680
973 3330
973 4941
974 1226
974 1328
975 2039
976 2658
976 3880
976 4085
976 6530
977 982
977 2755
978 5181
978 6474
979 2983
980 1022
980 1424
980 1721
980 2442
980 3998
980 5939
980 6709
980 7031
981 3530
982 1466
982 1571
982 2755
982 3530
982 3873
982 4270
982 5127
982 5496
982 5598
982 7610
983 1543
983 2257
983 2734
983 3165
983 3597
983 4900
983 5222
983 6105
983 6618
984 1795
984 4178
984 5608
985 1016
985 1300
985 2615
985 3103
985 3452
985 3514
985 3711
985 4410
985 4630
985 5335
985 5448
985 7199
985 7552
986 1563
986 7212
987 1684
988 2363
988 3550
988 4356
988 4423
988 6252
988 7024
988 7415
989 1813
989 5581
989 5592
989 6537
989 7199
990 7129
992 4262
993 7362
994 3564
994 6476
994 6942
994 7334
994 7604
995 7488
996 4426
996 4775
996 6562
997 1690
997 2750
997 3073
997 3396
997 5248
997 6946
997 7021
998 1056
998 1677
998 1745
998 2058
998 2101
998 2663
998 3469
998 3857
998 3920
998 4175
998 4612
998 4723
998 5178
998 5962
998 6201
998 6233
998 7014
998 7047
998 7215
998 7334
999 1468
999 1787
999 3110
999 3898
999 5095
999 6074
999 6113
1000 4257
1000 6629
1001 2083
1001 2503
1001 2644
1001 3597
1001 4618
1001 5070
1001 5769
1001 5885
1001 6156
1001 6291
1001 7237
1002 2421
1003 2707
1004 5063
1004 7237
1005 1161
1005 1289
1005 1300
1005 1349
1005 1474
1005 1509
1005 1677
1005 1799
1005 1875
1005 2164
1005 2205
1005 2411
1005 2420
1005 2524
1005 2637
1005 2676
1005 2751
1005 2891
1005 3103
1005 3565
1005 3699
1005 3842
1005 3995
1005 4008
1005 4032
1005 4091
1005 4162
1005 4981
1005 5095
1005 5455
1005 5463
1005 5485
1005 5600
1005 5615
1005 5658
1005 5725
1005 5783
1005 5828
1005 6002
1005 6056
1005 6062
1005 6110
1005 6111
1005 6126
1005 6323
1005 6424
1005 6446
1005 6544
1005 6567
1005 6972
1005 6983
1005 6990
1005 7013
1005 7068
1005 7100
1005 7131
1005 7225
1005 7435
1006 2242
1006 2476
1006 3544
1006 5090
1007 1293
1007 4563
1007 4574
1007 7237
1007 7460
1008 1166
1008 2896
1008 3155
1008 3204
1008 3312
1008 3404
1008 3430
1008 3606
1008 4126
1008 5676
1008 5876
1008 6858
1008 6969
1008 7050
1008 7352
1009 1234
1009 1250
1009 1706
1009 2611
1009 3165
1009 6105
1009 7226
1009 7237
1010 1465
1010 2654
1010 3172
1010 4341
1010 7248
1011 1462
1011 2552
1011 2751
1011 3454
1011 7030
1012 1074
1012 1174
1012 1645
1012 1678
1012 2798
1012 4069
1012 5079
1013 4284
1014 2511
1014 5791
1015 1034
1015 1446
1015 1674
1015 2086
1015 2670
1015 2890
1015 3081
1015 4021
1015 4044
1015 6369
1015 6536
1016 1300
1016 2745
1016 4952
1016 5578
1016 5604
1016 6383
1016 7068
1016 7199
1016 7297
1016 7397
1017 1293
1017 1348
1017 1381
1017 2238
1017 2791
1017 4132
1017 5944
1017 6737
1017 6931
1017 6953
1018 4069
1018 6140
1019 1768
1019 3681
1019 4353
1019 6387
1019 7237
1020 1166
1020 1569
1020 3440
1020 3845
1020 5224
1020 6065
1020 6733
1020 7374
1021 3873
1023 5659
1024 4516
1025 1454
1025 2007
1025 2036
1025 2158
1025 2319
1025 2738
1025 3602
1025 3822
1025 3855
1025 4887
1025 7162
1025 7352
1025 7388
1025 7552
1026 2429
1026 2647
1026 3592
1027 1665
1027 1945
1027 3937
1027 5334
1027 5721
1028 1399
1028 1944
1028 6365
1029 1506
1029 6252
1030 5933
1031 3411
1031 3755
1031 4307
1031 4466
1031 5370
1031 6919
1032 1193
1032 7028
1033 7199
1034 4021
1035 1583
1035 4399
1035 6101
1036 6977
1037 4555
1038 5703
1039 1408
1039 1831
1039 2083
1039 2798
1039 5320
1039 6391
1039 6633
1039 7284
1040 2020
1040 3822
1040 3855
1041 1436
1041 2142
1041 2337
1041 2854
1041 5933
1041 6026
1041 7035
1042 1808
1043 1558
1043 2122
1043 2401
1043 3780
1043 4455
1043 5466
1044 6666
1046 4671
1046 5587
1047 4303
1047 4935
1047 7409
1047 7621
1048 7488
1049 1527
1049 3175
1050 1464
1050 3647
1050 3905
1050 5354
1051 2337
1051 2966
1051 4445
1051 6556
1052 4261
1053 2902
1053 6190
1054 1080
1054 1439
1054 1882
1054 1973
1054 4691
1054 7364
1054 7586
1055 1443
1055 1929
1055 2730
1055 4356
1055 4993
1055 5068
1055 6159
1055 6178
1056 2586
1056 2998
1056 4612
1056 6476
1056 7215
1056 7604
1057 1604
1057 1837
1057 2109
1057 2386
1057 2793
1057 3260
1057 3309
1057 3748
1057 4364
1057 4729
1057 5198
1057 5246
1057 5423
1057 5444
1057 5476
1057 5580
1057 5754
1057 5773
1057 6668
1057 6848
1057 7351
1058 2562
1058 4426
1059 2711
1060 2510
1060 3057
1061 6704
1062 2926
1062 4811
1063 4016
1063 7501
1064 3666
1064 5646
1065 1384
1065 3290
1065 3450
1065 3854
1065 4261
1065 5646
1065 6973
1066 2471
1066 3363
1066 3610
1066 7028
1067 4760
1068 1622
1068 2707
1068 3130
1068 3281
1068 3880
1068 6330
1068 6519
1068 7473
1069 1083
1070 3584
1071 5083
1072 4253
1072 5006
1073 1743
1074 2029
1074 2798
1074 3334
1074 3397
1074 4069
1074 4900
1074 5269
1074 6146
1074 6788
1074 7226
1075 1689
1075 5475
1076 4335
1076 6496
1077 1243
1077 2291
1077 4536
1077 4916
1077 5110
1078 5624
1078 5692
1078 7100
1079 2535
1080 5095
1081 1794
1082 2381
1083 4968
1083 4994
1083 7088
1084 1382
1084 2318
1084 2341
1084 4852
1084 7301
1085 2159
1086 5159
1087 5672
1087 6116
1088 3343
1088 5882
1088 6252
1088 7024
1089 3488
1089 3792
1089 4834
1089 5148
1089 7509
1090 3530
1090 5127
1090 6888
1091 6495
1092 2961
1092 7024
1093 2036
1093 6352
1093 6709
1093 7015
1094 1204
1094 3986
1095 1376
1095 3173
1096 6741
1097 2199
1098 1230
1098 4042
1098 4619
1098 6771
1099 5261
1099 5646
1100 2823
1101 1821
1102 2357
1102 3413
1102 3571
1102 3962
1102 4078
1102 6104
1102 6990
1102 7100
1102 7359
1102 7584
1103 2644
1103 3597
1103 5802
1103 5854
1103 7425
1104 4469
1105 3614
1105 5364
1106 2327
1106 2854
1107 1137
1107 1278
1107 1407
1107 1751
1107 2217
1107 2289
1107 2458
1107 2572
1107 2854
1107 4324
1107 4621
1107 5838
1107 6528
1107 7338
1108 1567
1108 2798
1108 3594
1109 6477
1110 1795
1111 1891
1111 6014
1112 6408
1113 2357
1113 3303
1113 3413
1113 3571
1113 7584
1114 1999
1114 3038
1114 3147
1114 3468
1114 7498
1115 2474
1115 4785
1115 6860
1116 6969
1117 3120
1117 6167
1117 6476
1117 7215
1118 1225
1118 2337
1118 3273
1118 4600
1118 4929
1119 1956
1119 2229
1119 2961
1119 3389
1119 5192
1119 6101
1119 6323
1119 6976
1119 7225
1119 7416
1120 3022
1120 6031
1121 4828
1121 5467
1122 5593
1123 6608
1123 6817
1124 4811
1125 2707
1125 7339
1126 3942
1126 6165
1126 6991
1127 3701
1127 3878
1127 5146
1127 7490
1128 3796
1128 6022
1128 6245
1128 7251
1129 2452
1129 2565
1129 2725
1129 3165
1129 3597
1129 4797
1129 5548
1129 5651
1129 6318
1129 6521
1129 6649
1129 6792
1130 1891
1130 3145
1130 3594
1130 4442
1130 4508
1130 5370
1130 6558
1130 7375
1131 2744
1131 2995
1131 4036
1132 1376
1132 2033
1132 3295
1132 4319
1132 4433
1132 5555
1132 5735
1132 5931
1132 5948
1133 1758
1133 3855
1133 5610
1133 6637
1134 1963
1134 6416
1135 1328
1135 3472
1135 3949
1135 4702
1135 4925
1136 3831
1136 5454
1136 7039
1137 1327
1137 1786
1137 2289
1137 2458
1137 2854
1137 2947
1137 3474
1137 5838
1137 6022
1137 6538
1137 7338
1137 7551
1138 1956
1139 6690
1140 1531
1140 2892
1140 3645
1140 3747
1140 4523
1140 6678
1141 2892
1141 3038
1141 5793
1141 7437
1141 7503
1142 1351
1142 4452
1144 4093
1146 1570
1146 1812
1146 3419
1146 3434
1146 3450
1146 7030
1146 7381
1147 1665
1147 2616
1147 4561
1148 5595
1149 1509
1149 1677
1149 1817
1149 1937
1149 2199
1149 2668
1149 2835
1149 3336
1149 4230
1149 4666
1149 4770
1149 4904
1149 4931
1149 5174
1149 5988
1149 6298
1149 6616
1149 6712
1149 6862
1149 7533
1150 1189
1150 1731
1150 2281
1150 2600
1150 2693
1150 2698
1150 3103
1150 3268
1150 3636
1150 5095
1150 5468
1150 5505
1150 6101
1150 6446
1150 6567
1150 6763
1150 6859
1150 7173
1150 7235
1150 7416
1151 5857
1152 1158
1152 4285
1152 6859
1153 4868
1153 4873
1154 2835
1154 4904
1155 4030
1155 6359
1155 7226
1156 3950
1156 5612
1157 1353
1157 4121
1157 4762
1157 5128
1158 2834
1158 3711
1158 4012
1158 4040
1158 4285
1158 4634
1158 4846
1158 6710
1158 6859
1159 2691
1159 6404
1160 5578
1161 3852
1161 6126
1161 6323
1162 3450
1163 4053
1163 4975
1164 1338
1164 2111
1164 2216
1164 3321
1164 3330
1164 5516
1164 7248
1165 1230
1165 2473
1165 5026
1165 7600
1166 1610
1166 1842
1166 2938
1166 3231
1166 4330
1166 5065
1166 6065
1166 6574
1166 6661
1166 6858
1166 6964
1167 4632
1168 1221
1168 3225
1168 3610
1168 4811
1169 5127
1170 2186
1170 5097
1170 5222
1171 4486
1172 2958
1173 2998
1173 6476
1174 1524
1174 3544
1174 4338
1174 5866
1175 3873
1175 7010
1176 7100
1177 2809
1178 5489
1178 7199
1179 1751
1179 2234
1179 2289
1179 6538
1179 7592
1180 3079
1180 3237
1180 3403
1180 3969
1180 4154
1180 4428
1180 4705
1180 5055
1180 5825
1180 5968
1180 6180
1180 6611
1180 6795
1180 7546
1181 1271
1183 3210
1183 4298
1183 5274
1184 1893
1185 4329
1185 6339
1185 6672
1186 1850
1187 1704
1187 4009
1187 4194
1187 6350
1188 5897
1189 3080
1189 3103
1189 3813
1190 4359
1190 4583
1190 4842
1191 4121
1192 2901
1192 3027
1193 2514
1193 2557
1193 3284
1194 1794
1195 2095
1196 2337
1197 2510
1198 2229
1198 4147
1199 1406
1199 7488
1200 2217
1200 6022
1200 6538
1201 6025
1201 6759
1202 4406
1202 5450
1202 7328
1203 1384
1203 4868
1203 5632
1203 5646
1203 5751
1203 6262
1203 7607
1205 1213
1205 1462
1206 4204
1207 1665
1207 2591
1207 4456
1207 4561
1207 5111
1207 5334
1207 5501
1207 5593
1207 6023
1207 6519
1207 6554
1207 7226
1208 3130
1208 4303
1209 1610
1210 5461
1210 6805
1210 7011
1212 2168
1212 3450
1213 4916
1214 5111
1214 7226
1215 2422
1216 1328
1216 2060
1216 2194
1216 2707
1216 2993
1216 3520
1216 3862
1216 4587
1216 4925
1216 6925
1216 7036
1217 3589
1218 3530
1219 1833
1219 2096
1219 3023
1219 3565
1219 3643
1219 4777
1219 4994
1219 6718
1219 6972
1220 6551
1220 7135
1221 1812
1221 2937
1221 3670
1222 1621
1222 1870
1222 2001
1222 2475
1222 2498
1222 4364
1222 4730
1222 4863
1222 4922
1222 5158
1222 6241
1222 6668
1222 7351
1223 1447
1223 1509
1223 1937
1223 2015
1223 2265
1223 2642
1223 2835
1223 2982
1223 3316
1223 3377
1223 3508
1223 4860
1223 5857
1223 6546
1223 6958
1223 6993
1224 2289
1224 2531
1224 4399
1225 2854
1225 4929
1226 5402
1226 6376
1226 6642
1227 3722
1227 5578
1228 3564
1228 4381
1228 5872
1228 5962
1228 6757
1228 7334
1229 2783
1229 6714
1229 7255
1230 1508
1230 2122
1230 3589
1230 3596
1230 4221
1230 4261
1230 4707
1230 4968
1230 5527
1230 5646
1230 5894
1230 6154
1230 6171
1230 6973
1230 7573
1231 3672
1231 3798
1231 5540
1231 6802
1231 7565
1232 2168
1232 2985
1232 3632
1232 3833
1232 5314
1232 6207
1232 6458
1232 6852
1233 1496
1233 3515
1233 4785
1233 5710
1233 6519
1233 7224
1234 2024
1234 3597
1234 4335
1235 1689
1236 1534
1236 2276
1236 3086
1236 3530
1236 5078
1236 5570
1237 6696
1238 4258
1238 4914
1238 6272
1239 1996
1239 3823
1239 5725
1240 3732
1240 6295
1241 6338
1242 6186
1243 2291
1245 2142
1246 2143
1246 3873
1247 2887
1248 5895
1248 7450
1249 1834
1249 1897
1249 6907
1250 1288
1250 1546
1250 2812
1250 3084
1250 3148
1250 3713
1250 3729
1250 3772
1250 3925
1250 4839
1250 4846
1250 6708
1250 6878
1250 7199
1250 7295
1250 7361
1251 5580
1251 6338
1252 2645
1252 6727
1253 2854
1253 5461
1253 7300
1254 1677
1254 2782
1254 3137
1254 3259
1254 6446
1255 1479
1255 1610
1255 4711
1255 5277
1256 4536
1257 7549
1258 2707
1258 3509
1258 4880
1258 5650
1258 6865
1259 3750
1259 4136
1260 1678
1260 2644
1260 4069
1260 6797
1260 7541
1262 1792
1262 3210
1262 4511
1262 4720
1262 4916
1262 5454
1262 6480
1262 7256
1263 1310
1263 1368
1264 1555
1264 2029
1264 4353
1264 4444
1264 6234
1264 6507
1264 7179
1264 7237
1265 1715
1265 1795
1265 2112
1265 2123
1265 5260
1265 6284
1266 4356
1267 1857
1267 3933
1267 6603
1268 1639
1268 1937
1268 6810
1269 3084
1270 6124
1271 1316
1271 1665
1271 2028
1271 2510
1271 2600
1271 3038
1271 3228
1271 3361
1271 3603
1271 3853
1271 4000
1271 4309
1271 4337
1271 4554
1271 4614
1271 4785
1271 5015
1271 5200
1271 5210
1271 6490
1271 7123
1271 7224
1271 7498
1272 5854
1273 4335
1274 1334
1275 1297
1275 1751
1275 1756
1275 2234
1275 2289
1275 2572
1275 2854
1275 3873
1275 5020
1275 5454
1275 6022
1275 7592
1277 1401
1278 5060
1279 2160
1279 2586
1280 1293
1280 1381
1280 2685
1280 2791
1280 2854
1280 4610
1280 5944
1280 6642
1280 6931
1280 7206
1280 7252
1280 7460
1281 1665
1281 1806
1281 2097
1281 2204
1281 2892
1281 3042
1281 4000
1281 4393
1281 4561
1281 6003
1281 6419
1281 7608
1282 4386
1283 7482
1284 1492
1284 1986
1284 3575
1284 7279
1285 2391
1285 5202
1286 4988
1287 4183
1287 4284
1287 5911
1287 6602
1288 2504
1288 6167
1289 6110
1290 6734
1291 1520
1291 1792
1291 3833
1291 4657
1291 4720
1291 5314
1291 6427
1292 2601
1292 3034
1292 5618
1292 6734
1292 7428
1293 1381
1293 2452
1293 3251
1293 3471
1293 3498
1293 4563
1293 5033
1293 5582
1293 5944
1293 6792
1293 7237
1294 6941
1296 2430
1296 6009
1297 1327
1297 2217
1297 6528
1297 6538
1298 5936
1299 3905
1300 1467
1300 1738
1300 2516
1300 2524
1300 2745
1300 2781
1300 2962
1300 3103
1300 3504
1300 4969
1300 5095
1300 5344
1300 5448
1300 5578
1300 6101
1300 6383
1300 6446
1300 7068
1300 7074
1300 7100
1300 7359
1300 7397
1301 5643
1302 7100
1303 2631
1303 2872
1303 4081
1304 1444
1304 1658
1304 1725
1304 1752
1304 2194
1304 2197
1304 2204
1304 3503
1304 4961
1305 2414
1305 2424
1305 2896
1305 3430
1305 3855
1305 4704
1305 5446
1305 5820
1305 6378
1305 6709
1305 6964
1305 6969
1305 7352
1306 3130
1306 5210
1306 5454
1307 2505
1307 3792
1310 2093
1310 2515
1310 3381
1310 3450
1310 4452
1310 4678
1310 6699
1311 3071
1312 1329
1312 1530
1312 1818
1312 1936
1312 2224
1312 2376
1312 2497
1312 2557
1312 2578
1312 3418
1312 3572
1312 3649
1312 3889
1312 4375
1312 4602
1312 4788
1312 5045
1312 5127
1312 5225
1312 5274
1312 5507
1312 5581
1312 5698
1312 6309
1312 6572
1312 6576
1312 6946
1312 7175
1312 7595
1313 5643
1314 2201
1314 3872
1314 5370
1315 2051
1315 3810
1315 6626
1315 6811
1316 1373
1316 1665
1316 1995
1316 2570
1316 2901
1316 2912
1316 3360
1316 3400
1316 3614
1316 3653
1316 3826
1316 4000
1316 4034
1316 4561
1316 4747
1316 4763
1316 4990
1316 5168
1316 5218
1316 5324
1316 5334
1316 6519
1316 6756
1316 6787
1316 6851
1316 7268
1317 2289
1317 4235
1317 6747
1319 2318
1319 2707
1319 3495
1319 7464
1320 1937
1320 2265
1320 2790
1320 4606
1320 4860
1320 4904
1320 5857
1320 5988
1320 7141
1321 1381
1321 3461
1321 5915
1322 2028
1323 7320
1324 2868
1325 1575
1325 1838
1325 3529
1325 4748
1325 6051
1325 7259
1325 7270
1325 7442
1326 2158
1326 2191
1326 3430
1326 4208
1326 4243
1327 2458
1327 2947
1327 3781
1327 6528
1327 7054
1327 7551
1328 1523
1328 2194
1328 2814
1328 3097
1328 3472
1328 3779
1328 3949
1328 4663
1328 4702
1328 4925
1328 5065
1328 7097
1329 3686
1329 3889
1329 4007
1329 4811
1329 6463
1330 3070
1331 1675
1332 2132
1332 6165
1332 6359
1333 1897
1334 1381
1334 1555
1334 1567
1334 1838
1334 2029
1334 2031
1334 2186
1334 2238
1334 2571
1334 2798
1334 3165
1334 3240
1334 3397
1334 3504
1334 3544
1334 3644
1334 4461
1334 4809
1334 4883
1334 4900
1334 4901
1334 5090
1334 5121
1334 5124
1334 5363
1334 5388
1334 5402
1334 5530
1334 5556
1334 6105
1334 6108
1334 6391
1334 6695
1334 6891
1334 7226
1334 7284
1334 7352
1334 7398
1334 7547
1334 7548
1335 4621
1335 4671
1336 4611
1337 4809
1337 7237
1338 2216
1338 2992
1338 3330
1339 2854
1339 3627
1340 2008
1340 2510
1341 2854
1342 7482
1343 3918
1344 3120
1345 1851
1345 4580
1345 4609
1345 5594
1346 3039
1346 3650
1346 4136
1346 4650
1346 7495
1347 2864
1347 3239
1347 4040
1348 2029
1348 2238
1348 2571
1348 2854
1348 3219
1348 3251
1348 3504
1348 3597
1348 4335
1348 4712
1348 4754
1348 4809
1348 4846
1348 5392
1348 5703
1348 5944
1348 5954
1348 6105
1348 6232
1348 6644
1348 7075
1348 7127
1348 7237
1348 7284
1348 7548
1349 1677
1349 1799
1349 2205
1349 2396
1349 2676
1349 2719
1349 2751
1349 2899
1349 2911
1349 3324
1349 3414
1349 3813
1349 3842
1349 3852
1349 3858
1349 4141
1349 4492
1349 5440
1349 5455
1349 5457
1349 5466
1349 5615
1349 5725
1349 6101
1349 6199
1349 6200
1349 6339
1349 6424
1349 6446
1349 6622
1349 6734
1349 6813
1349 6823
1349 7244
1349 7435
1349 7476
1350 1384
1350 2143
1350 3292
1350 3596
1350 4614
1350 6646
1351 5127
1351 5687
1351 6046
1352 3073
1352 6478
1353 1388
1353 3184
1354 3986
1354 5011
1354 6429
1355 4564
1355 5191
1355 5771
1355 6256
1355 6447
1355 7101
1356 1444
1357 3959
1358 3733
1359 3327
1359 4955
1361 5396
1362 1734
1362 1795
1362 7312
1363 5817
1364 5671
1364 6259
1365 3584
1366 7500
1367 2556
1367 3333
1367 3471
1367 6707
1367 7226
1369 1376
1370 4008
1370 4969
1372 1838
1372 3171
1372 3183
1372 3251
1372 3387
1372 3544
1372 4219
1372 6950
1372 6953
1373 1689
1374 3174
1374 5753
1375 4785
1376 1577
1376 1628
1376 1849
1376 2006
1376 2650
1376 2954
1376 3418
1376 3450
1376 3686
1376 4007
1376 4011
1376 4158
1376 4319
1376 4563
1376 4775
1376 4811
1376 4866
1376 5534
1376 5581
1376 5926
1376 6029
1376 6080
1376 6135
1376 6136
1376 6281
1376 6390
1376 6431
1376 6468
1376 6676
1376 6724
1376 7030
1376 7238
1376 7545
1377 5612
1379 4069
1380 3643
1380 6461
1381 1645
1381 1920
1381 1998
1381 2083
1381 2213
1381 2238
1381 2685
1381 2870
1381 3047
1381 3108
1381 3544
1381 3701
1381 4086
1381 4144
1381 4479
1381 4578
1381 4754
1381 4759
1381 4883
1381 4919
1381 5090
1381 5403
1381 5556
1381 5568
1381 5694
1381 5769
1381 5831
1381 5854
1381 6870
1381 6912
1381 6931
1381 6953
1381 6988
1381 7284
1381 7305
1381 7460
1381 7532
1381 7548
1382 1519
1383 1420
1383 3530
1383 4125
1384 1538
1384 1898
1384 2547
1384 2705
1384 2819
1384 2988
1384 3348
1384 3411
1384 3426
1384 3530
1384 3666
1384 3854
1384 3880
1384 4042
1384 4466
1384 4514
1384 4673
1384 4762
1384 5128
1384 5278
1384 5435
1384 5517
1384 5632
1384 5638
1384 5646
1384 5751
1384 5894
1384 6125
1384 6415
1384 6421
1384 6547
1384 6722
1384 6889
1384 6973
1384 7205
1384 7600
1385 4063
1385 5012
1386 4439
1386 7192
1388 3184
1388 3900
1388 4385
1388 4425
1388 4452
1388 4832
1388 6527
1389 5252
1389 5854
1390 3879
1391 2049
1391 3109
1391 4028
1391 4149
1391 4255
1391 5268
1391 5386
1391 5878
1391 6382
1391 6564
1393 2958
1393 3165
1393 3544
1393 6792
1394 1879
1394 3970
1394 4491
1394 5561
1396 2228
1396 3227
1396 5338
1396 6259
1396 7081
1397 2239
1398 6241
1398 6471
1399 1944
1399 4719
1399 6365
1401 3059
1401 3149
1401 3670
1401 6540
1401 6628
1401 7582
1401 7614
1402 1546
1402 2515
1402 3189
1402 3342
1402 3381
1402 3530
1402 4125
1402 4452
1402 5274
1402 5663
1402 7569
1403 3578
1403 4734
1404 2988
1404 4811
1405 2854
1405 6022
1406 2854
1406 5137
1406 7459
1407 2854
1407 6538
1408 7572
1409 3095
1409 3873
1409 5454
1409 6505
1410 2854
1410 3267
1410 4420
1410 6745
1411 1946
1413 5468
1413 5658
1413 6016
1413 6323
1413 6339
1414 3186
1414 7365
1415 3450
1415 6195
1416 2912
1416 4542
1417 4931
1418 2661
1418 2854
1419 4597
1420 2897
1421 1650
1421 2391
1421 4211
1421 5549
1422 7178
1423 3153
1423 6459
1424 2738
1424 3424
1424 4088
1424 5676
1424 6378
1424 6709
1424 7162
1425 2966
1425 3021
1425 3517
1425 3846
1426 3324
1426 5625
1426 6153
1426 6957
1427 1657
1427 3345
1427 5106
1427 5764
1428 2498
1429 4683
1429 6408
1430 1718
1430 3080
1430 3726
1430 3780
1431 5676
1432 4197
1432 5723
1433 7063
1434 2186
1434 2254
1434 2846
1434 3198
1434 3307
1434 3544
1434 5392
1434 5559
1434 6361
1434 6398
1434 7284
1435 2523
1436 2854
1437 2617
1437 4110
1438 5127
1439 3238
1439 4591
1439 4649
1440 2420
1441 3038
1441 3711
1441 5510
1442 3450
1442 3538
1442 3596
1444 1701
1444 1725
1444 2194
1444 2197
1444 2204
1444 3042
1444 3360
1444 3653
1444 4309
1444 4955
1444 5328
1444 5597
1444 7123
1445 7199
1446 2670
1446 5677
1446 6369
1446 7585
1447 1509
1447 1850
1447 1876
1447 1934
1447 1937
1447 2015
1447 2615
1447 2790
1447 2835
1447 3056
1447 3508
1447 3591
1447 3694
1447 4904
1447 4931
1447 5575
1447 5988
1447 6217
1447 6752
1447 6958
1447 7001
1447 7141
1448 2267
1448 3056
1449 4869
1449 7100
1450 4785
1450 5099
1450 7301
1451 4785
1451 6183
1452 2711
1452 5578
1453 2368
1453 4078
1454 2191
1455 1528
1455 2510
1455 5670
1455 6794
1456 3900
1457 3008
1457 3418
1457 4128
1457 4876
1457 5226
1457 7228
1458 1835
1459 3920
1461 3909
1462 1769
1462 2020
1462 2387
1462 2800
1462 3082
1462 3382
1462 5377
1462 5498
1462 6347
1462 6502
1463 1528
1464 1498
1464 1882
1464 2444
1464 2455
1464 2769
1464 3137
1464 3339
1464 3350
1464 3565
1464 3795
1464 3905
1464 4022
1464 4201
1464 4414
1464 4649
1464 4691
1464 4803
1464 4907
1464 5109
1464 5135
1464 5667
1464 6179
1464 6524
1464 6703
1464 6765
1464 7233
1464 7605
1466 1824
1467 2516
1467 2843
1467 3898
1468 1776
1468 1933
1468 4455
1468 5047
1468 5731
1469 2303
1470 2502
1470 5465
1470 6194
1471 2972
1471 4146
1471 4720
1471 5430
1471 5892
1471 6202
1471 6231
1471 6408
1471 6458
1471 6967
1471 7256
1471 7294
1472 3462
1473 4705
1474 2170
1474 2229
1474 2420
1474 3497
1474 3565
1474 3932
1474 4272
1474 5207
1474 6002
1474 7553
1475 5543
1476 2029
1476 2254
1477 2974
1477 7427
1478 6949
1479 3961
1480 1776
1480 5957
1481 1771
1481 1830
1481 2566
1481 3112
1481 5095
1481 6567
1482 2207
1483 7162
1484 4940
1484 6254
1485 7300
1486 1610
1486 1792
1486 1919
1486 3247
1486 3822
1486 5277
1486 5446
1486 5909
1486 6251
1486 7015
1487 1856
1488 1878
1488 3439
1488 4156
1488 4172
1488 4196
1488 4282
1488 5110
1488 5818
1488 6533
1488 6983
1488 7137
1488 7260
1488 7358
1490 4452
1491 1643
1491 4719
1492 5303
1492 7128
1494 1830
1494 1942
1494 6767
1495 1966
1495 4682
1495 5319
1495 7527
1496 1622
1496 2060
1496 2237
1496 2707
1496 2941
1496 3853
1496 4527
1496 4607
1496 6519
1496 6621
1496 6860
1497 2699
1497 2744
1497 2840
1497 2897
1497 3181
1497 3184
1497 3895
1497 3900
1497 4163
1497 5127
1497 5454
1497 5734
1497 7030
1497 7165
1498 1882
1498 3301
1498 5936
1499 3450
1499 3880
1499 5085
1500 1519
1500 2591
1500 4785
1501 7476
1502 2977
1502 5797
1503 3236
1503 6345
1504 4811
1504 6551
1505 2994
1506 1749
1506 2019
1506 2368
1506 3080
1506 3554
1506 3722
1506 3817
1506 4329
1506 4814
1506 5640
1506 6859
1506 6882
1507 4645
1507 5764
1508 2122
1508 3062
1508 3589
1508 5527
1509 1560
1509 1627
1509 1639
1509 1677
1509 1933
1509 2015
1509 2265
1509 3336
1509 3557
1509 3694
1509 4259
1509 4556
1509 4666
1509 4716
1509 4770
1509 4860
1509 4899
1509 4931
1509 5391
1509 5643
1509 6217
1509 6616
1509 6752
1509 6812
1509 6818
1509 6862
1509 6882
1509 6958
1509 7106
1509 7141
1509 7382
1509 7476
1509 7533
1510 2377
1510 3137
1510 5095
1511 6296
1512 6391
1512 6618
1513 4338
1514 4444
1515 4810
1516 1615
1516 3085
1517 5817
1518 5884
1519 2408
1519 3130
1519 3837
1519 4718
1519 5099
1519 5200
1519 5313
1520 1792
1520 5029
1521 3172
1521 3321
1521 3330
1521 3552
1521 3744
1521 5516
1522 4373
1522 5817
1522 6295
1524 1846
1524 2390
1524 2673
1524 2685
1524 3518
1524 6654
1525 4692
1526 2754
1526 5319
1527 5793
1528 3039
1528 5189
1529 3746
1530 6407
1531 1665
1531 3038
1531 3645
1531 4523
1531 4804
1531 5170
1531 5510
1531 6678
1532 5387
1532 7075
1532 7490
1533 2040
1533 3837
1533 4338
1533 4374
1533 6212
1534 2679
1534 3086
1534 3530
1534 4876
1534 5943
1535 1734
1535 3325
1536 1792
1536 3632
1536 4865
1536 5235
1536 6070
1536 6207
1536 6876
1537 3852
1538 1887
1538 3854
1538 5128
1538 5638
1538 5646
1539 6209
1539 6256
1539 7534
1540 4373
1541 7237
1542 4014
1542 5455
1542 6839
1543 1802
1543 4900
1543 6105
1543 7130
1544 3662
1544 6748
1544 6873
1544 7129
1544 7266
1546 2515
1546 2526
1546 3189
1546 3381
1546 3530
1546 4275
1546 7569
1546 7587
1547 5090
1547 5817
1547 5854
1547 6361
1548 1762
1548 1899
1548 3994
1549 5871
1550 6330
1551 2380
1551 4699
1551 5004
1551 5138
1551 5303
1551 6283
1551 7279
1552 6185
1553 2132
1553 3530
1553 4125
1553 5454
1553 5543
1554 2422
1554 6015
1554 7219
1555 1632
1555 2083
1555 2734
1555 2858
1555 2876
1555 3409
1555 3756
1555 3896
1555 4809
1555 4883
1555 4900
1555 4917
1555 5124
1555 5402
1555 5582
1555 5703
1555 6105
1555 6140
1555 6789
1555 6891
1555 7187
1555 7398
1555 7548
1556 2510
1557 3009
1557 5101
1558 1879
1558 2300
1558 2552
1558 2627
1558 5443
1558 5466
1558 5578
1558 6200
1558 6339
1558 7403
1559 1606
1559 1921
1559 2591
1559 2912
1559 3107
1559 4785
1559 5141
1559 5334
1559 6087
1559 6519
1559 6997
1559 7226
1560 2199
1560 2265
1560 2615
1560 2835
1560 3056
1560 4770
1560 4860
1560 4899
1560 4904
1560 4931
1560 5355
1560 5857
1560 6217
1560 6616
1560 6818
1560 6958
1560 7001
1561 6012
1562 2848
1562 3240
1562 7237
1563 1843
1563 2198
1563 3225
1563 3625
1563 3873
1563 5309
1564 2414
1565 3708
1565 5822
1565 7237
1567 1883
1567 4233
1567 7404
1568 3679
1568 3725
1568 7200
1570 2702
1570 3530
1570 3631
1571 3381
1571 3450
1571 3530
1571 4163
1571 6638
1571 7488
1571 7610
1572 6755
1573 2244
1574 1649
1574 2693
1574 7100
1576 1887
1576 2619
1576 3119
1576 5763
1576 5949
1576 7070
1578 3985
1579 4811
1580 5046
1580 7052
1581 7504
1582 3614
1583 2580
1583 3221
1584 1879
1584 3492
1584 5630
1584 6433
1584 6886
1585 5607
1585 6901
1586 3571
1587 3526
1587 5253
1587 5708
1587 6461
1588 4356
1589 3353
1589 3856
1590 5944
1590 6388
1591 3548
1592 4498
1592 5294
1592 5800
1592 7063
1593 7540
1594 2711
1594 2838
1594 6640
1594 7579
1595 2223
1595 7339
1596 6197
1597 3932
1598 2020
1598 3855
1598 5277
1598 5610
1598 6642
1599 1642
1599 2194
1599 2272
1599 2318
1599 2707
1599 3483
1599 3520
1599 4453
1599 4632
1599 4808
1599 4852
1600 1684
1600 1899
1600 4185
1600 7334
1600 7604
1601 5461
1601 7285
1602 2989
1602 3127
1602 5764
1602 6911
1603 5274
1603 7488
1604 5198
1604 6241
1605 3231
1606 2305
1606 2591
1606 2941
1606 5334
1606 6081
1606 6519
1606 6597
1606 7226
1607 6611
1607 7291
1608 3029
1608 3807
1608 3924
1608 5274
1608 5914
1609 5779
1609 7099
1610 1635
1610 1792
1610 2243
1610 3164
1610 3312
1610 3368
1610 3460
1610 3855
1610 4054
1610 5065
1610 6755
1610 7015
1611 1706
1611 1845
1611 3544
1611 3743
1611 4737
1611 5077
1611 6018
1611 6147
1611 6398
1611 6697
1611 6698
1612 7237
1613 2186
1613 2928
1613 3597
1613 3614
1613 4900
1613 4908
1613 5222
1613 6403
1613 6857
1614 2880
1614 4611
1614 6008
1614 7071
1615 2019
1615 4067
1615 4367
1615 7094
1616 2366
1616 5454
1618 1622
1618 2366
1618 2841
1618 3210
1618 3890
1618 4607
1618 4785
1618 5454
1618 6139
1618 6197
1618 6342
1618 6537
1618 7044
1618 7501
1618 7580
1619 5147
1620 7199
1621 6338
1622 1671
1622 1941
1622 2366
1622 3986
1622 4527
1622 4785
1622 5724
1623 4873
1624 1792
1624 3632
1624 4438
1624 5430
1624 5454
1624 6070
1624 6207
1624 6293
1624 6566
1625 1741
1625 7408
1626 1650
1626 2391
1626 2744
1626 2897
1626 2986
1626 2995
1626 3295
1626 3818
1626 3829
1626 3900
1626 4536
1626 4876
1626 5687
1626 6267
1627 4213
1627 5732
1627 7470
1628 2428
1628 3718
1628 5751
1629 2993
1629 4527
1629 5343
1629 6519
1629 7266
1630 1830
1630 4599
1630 5514
1631 4453
1631 4632
1632 2685
1632 3409
1632 3597
1632 6343
1632 6891
1632 7237
1633 2711
1633 3598
1633 3897
1633 4888
1633 5115
1633 5318
1633 6000
1633 7468
1633 7579
1634 5461
1634 6805
1635 3234
1635 3855
1635 5277
1635 6411
1636 3632
1636 3833
1636 5454
1636 6207
1636 6458
1636 6852
1637 4592
1637 5020
1638 5072
1638 5514
1638 5951
1638 7358
1639 1937
1639 2102
1639 2835
1639 4134
1639 4197
1639 4666
1639 6092
1639 6716
1639 6752
1640 1945
1640 4000
1641 2338
1642 1793
1642 2341
1642 2474
1642 3495
1642 3853
1642 3972
1642 4000
1642 4119
1642 4554
1642 4607
1642 4632
1642 4785
1642 4925
1642 4999
1642 6519
1642 6621
1642 6860
1642 6925
1642 7301
1642 7464
1642 7492
1642 7608
1643 4934
1643 5488
1643 6365
1644 1698
1644 5274
1644 6946
1645 1678
1645 2047
1645 3081
1645 3262
1645 3395
1645 3868
1645 4069
1645 4967
1645 5388
1645 6293
1645 7042
1645 7237
1646 2082
1646 5667
1647 2337
1647 4475
1647 4929
1647 5371
1647 5516
1648 3277
1648 4811
1649 5951
1650 2391
1650 2744
1650 3285
1650 3295
1650 3450
1650 3530
1650 4211
1650 4289
1650 4870
1650 4876
1650 6095
1651 1941
1651 2259
1651 3030
1651 3105
1651 5709
1651 6519
1652 2510
1652 3853
1653 2798
1653 5717
1654 4527
1655 2047
1656 4811
1657 3067
1657 3358
1657 4019
1657 4447
1657 5764
1657 5851
1658 1752
1658 1806
1658 2510
1658 2892
1658 2956
1658 3038
1658 3042
1658 3269
1658 3352
1658 3360
1658 3361
1658 4119
1658 4122
1658 5220
1658 5526
1658 6043
1658 6705
1658 6807
1658 6838
1658 6925
1658 7447
1658 7498
1659 5194
1660 7361
1661 3530
1661 5127
1661 6058
1662 3256
1662 3408
1663 2204
1663 2510
1663 5212
1663 6912
1665 2509
1665 2591
1665 2616
1665 2623
1665 2715
1665 2892
1665 2912
1665 3341
1665 3400
1665 3612
1665 3653
1665 3824
1665 3853
1665 3946
1665 4151
1665 4337
1665 4350
1665 4550
1665 4608
1665 4785
1665 4928
1665 5218
1665 5307
1665 5579
1665 5963
1665 5979
1665 6445
1665 6519
1665 6838
1665 6860
1665 7083
1665 7224
1666 2807
1666 3306
1667 6621
1667 6906
1668 1849
1668 4387
1668 4650
1668 7487
1669 3916
1670 4725
1670 4745
1670 6506
1671 1941
1671 2862
1671 3986
1671 4309
1671 4527
1671 4785
1671 5159
1671 7170
1671 7472
1672 1817
1672 6217
1672 6616
1672 6712
1672 7354
1673 4572
1673 6544
1674 2416
1674 2670
1674 2682
1674 2890
1674 4021
1674 4638
1674 4900
1674 5703
1674 5854
1674 6090
1674 6536
1675 2182
1676 3795
1677 1799
1677 1875
1677 1878
1677 1973
1677 2170
1677 2205
1677 2229
1677 2295
1677 2524
1677 2533
1677 2676
1677 3356
1677 3410
1677 3565
1677 3841
1677 4394
1677 4572
1677 4981
1677 5080
1677 5149
1677 5455
1677 5485
1677 5578
1677 5600
1677 5828
1677 5867
1677 6002
1677 6056
1677 6323
1677 6424
1677 6446
1677 6567
1677 6767
1677 6839
1677 7100
1677 7275
1677 7435
1677 7476
1678 1891
1678 2151
1678 2522
1678 3133
1678 3264
1678 5063
1678 5317
1678 5788
1678 6141
1678 6142
1678 6193
1678 6343
1678 7237
1678 7621
1679 5967
1680 2337
1680 2802
1680 2854
1680 5984
1680 7513
1681 6166
1682 3039
1684 2730
1684 3584
1685 2850
1685 3080
1685 3726
1685 3798
1685 4280
1685 5578
1685 5616
1685 5658
1685 6016
1685 6101
1685 6175
1685 6200
1685 6672
1686 2321
1686 6490
1687 2900
1688 2470
1688 4992
1688 7286
1689 2110
1689 2509
1689 2608
1689 2623
1689 2818
1689 3046
1689 3341
1689 3360
1689 3555
1689 3836
1689 3935
1689 4000
1689 4151
1689 4183
1689 4247
1689 4440
1689 4456
1689 4561
1689 4915
1689 5574
1689 5884
1689 5985
1689 6255
1689 6261
1689 6445
1689 6794
1689 7089
1689 7118
1689 7339
1689 7574
1691 1927
1691 2289
1691 2488
1691 2854
1691 3006
1691 4543
1691 5005
1691 6022
1691 6186
1691 7335
1692 6120
1693 2414
1693 3158
1693 3822
1693 4934
1693 5065
1693 5215
1693 5876
1693 6266
1693 6352
1693 7162
1694 4002
1694 4872
1694 5436
1694 7314
1695 2844
1695 4099
1696 2624
1696 4880
1697 6022
1698 1774
1698 2532
1698 3775
1698 3821
1698 4257
1698 4655
1698 5043
1698 5591
1698 5700
1698 6185
1698 6309
1698 6385
1698 6467
1698 6609
1699 1902
1699 1958
1699 2308
1699 4728
1699 4931
1699 6785
1700 2775
1700 2805
1701 1725
1701 2194
1701 2204
1701 3224
1701 3503
1701 3633
1701 4955
1702 4357
1703 4811
1704 3011
1704 4009
1704 6350
1705 1731
1705 1839
1705 1973
1705 2566
1705 3080
1705 3103
1705 4814
1705 6101
1706 2213
1706 3544
1706 3833
1706 4335
1706 4757
1706 5362
1706 5395
1706 6649
1707 5117
1708 3273
1709 5884
1710 2599
1710 3364
1710 3654
1710 4348
1710 4959
1710 6453
1710 7071
1711 2204
1711 4038
1711 5306
1711 5342
1711 7090
1712 5371
1712 5912
1713 3387
1713 3701
1713 4013
1713 4079
1713 4335
1713 4620
1713 5717
1713 5866
1714 5229
1714 6491
1715 6084
1715 6116
1716 2162
1717 2298
1717 5058
1718 2177
1718 4124
1718 6175
1718 6200
1719 3272
1720 2151
1720 4891
1720 4967
1721 1960
1721 2007
1721 2056
1721 3075
1721 3204
1721 3822
1721 3855
1721 4088
1721 4330
1721 4704
1721 5215
1721 5577
1721 5676
1721 5790
1721 5876
1721 5892
1721 5939
1721 6352
1721 6357
1721 6378
1721 7162
1721 7581
1722 2750
1723 4326
1724 1795
1724 1938
1724 2369
1724 5304
1724 6085
1724 6360
1724 6564
1724 7365
1724 7561
1725 1982
1725 2194
1725 2250
1725 2510
1725 2707
1725 3042
1725 3503
1725 3633
1725 4664
1725 4955
1725 5212
1725 6043
1726 2854
1727 5605
1728 4966
1728 5598
1728 5720
1728 5734
1728 6638
1728 7395
1729 2357
1729 3221
1729 3962
1729 4589
1729 5292
1729 6990
1729 7080
1730 7498
1731 1839
1731 2698
1731 5468
1732 3070
1733 3544
1733 6361
1734 2245
1734 2613
1734 3182
1734 3325
1734 3793
1734 4249
1734 4505
1734 5268
1734 5585
1734 6451
1734 6564
1734 7008
1734 7153
1734 7550
1735 6757
1736 6960
1737 1937
1737 3450
1737 5527
1737 6269
1738 4952
1738 6062
1738 7296
1738 7397
1739 3622
1739 4785
1739 7442
1740 5653
1741 1992
1741 3052
1741 3839
1741 4042
1741 4181
1741 6080
1741 6259
1742 5110
1742 6703
1743 3264
1744 2510
1744 5274
1744 7090
1744 7595
1746 2007
1746 3136
1746 3158
1746 5610
1747 1848
1747 2371
1748 4811
1749 2162
1749 2165
1749 3103
1749 3774
1749 4012
1749 4040
1749 5346
1749 6016
1751 2289
1751 3951
1752 3038
1752 3520
1752 3853
1752 4112
1752 4119
1752 4554
1753 3530
1754 4744
1755 4886
1756 6022
1756 6232
1756 6390
1756 7366
1757 4946
1759 2993
1761 2145
1761 2968
1761 3152
1761 3250
1761 4246
1761 4256
1761 4623
1761 5203
1761 6495
1761 6887
1762 4356
1763 1795
1763 2059
1763 4154
1763 6021
1764 3600
1764 5862
1765 6101
1766 2014
1767 3020
1767 3064
1767 3243
1767 6562
1767 7458
1769 7340
1770 2414
1770 3296
1770 6004
1770 6378
1770 7162
1771 2354
1771 3112
1771 6567
1771 7216
1771 7553
1772 4785
1775 1995
1776 3613
1776 4396
1776 4931
1776 5047
1776 5957
1776 6249
1777 7237
1778 3320
1778 3873
1778 3942
1778 4794
1779 6142
1780 6101
1781 2646
1781 3544
1781 6219
1782 4503
1783 5278
1784 6129
1785 3934
1785 4811
1786 5722
1786 7045
1786 7551
1787 3588
1787 4338
1787 7359
1788 4257
1789 1792
1789 2347
1789 2385
1789 2576
1789 3809
1789 4451
1789 4636
1789 4657
1789 5892
1789 5956
1789 6427
1792 1950
1792 2157
1792 2385
1792 2576
1792 2832
1792 2836
1792 2985
1792 2991
1792 3006
1792 3083
1792 3093
1792 3129
1792 3138
1792 3181
1792 3398
1792 3786
1792 3809
1792 3833
1792 3845
1792 3847
1792 3855
1792 3856
1792 3994
1792 4146
1792 4193
1792 4244
1792 4359
1792 4511
1792 4636
1792 4657
1792 4720
1792 5243
1792 5314
1792 5454
1792 5790
1792 5892
1792 5921
1792 5964
1792 5993
1792 6207
1792 6412
1792 6458
1792 6967
1792 6991
1792 7162
1792 7256
1792 7350
1793 1941
1793 1943
1793 2818
1793 2912
1793 2955
1793 3038
1793 3366
1793 3715
1793 4388
1793 5710
1793 6597
1793 6693
1794 1937
1794 2614
1794 2889
1794 3390
1794 5355
1794 5857
1794 6217
1795 1834
1795 2059
1795 2777
1795 2785
1795 2827
1795 2880
1795 3181
1795 3322
1795 3373
1795 3570
1795 3891
1795 3906
1795 3969
1795 4159
1795 4336
1795 4369
1795 4428
1795 4457
1795 4482
1795 4515
1795 4546
1795 4705
1795 4805
1795 4933
1795 5103
1795 5131
1795 5153
1795 5304
1795 5361
1795 5470
1795 5562
1795 6341
1795 6564
1795 7133
1795 7199
1795 7543
1796 2284
1796 3660
1796 3743
1796 5946
1796 7541
1798 2263
1798 2510
1798 2892
1798 3224
1798 4955
1798 6838
1799 1906
1799 1956
1799 2117
1799 2300
1799 2411
1799 2544
1799 2600
1799 2751
1799 2781
1799 2961
1799 3016
1799 3306
1799 3761
1799 3835
1799 3911
1799 4008
1799 4023
1799 4127
1799 4248
1799 4329
1799 4846
1799 4994
1799 5351
1799 5600
1799 5613
1799 5658
1799 5908
1799 6206
1799 6446
1799 6968
1799 7098
1799 7240
1799 7303
1799 7321
1799 7480
1800 2522
1800 6797
1801 2341
1801 2591
1801 6013
1801 6197
1801 6519
1803 4297
1803 6194
1804 2229
1804 2420
1804 3680
1804 4110
1804 4349
1804 4594
1804 4969
1804 5095
1804 5292
1804 6016
1804 6339
1804 7013
1805 4284
1806 2510
1806 3038
1806 3042
1806 3269
1806 3853
1806 4000
1806 4119
1806 5220
1806 7123
1807 4811
1808 2854
1808 3555
1808 4575
1808 4804
1808 6759
1808 7117
1808 7224
1809 4527
1809 5656
1810 4785
1811 4785
1811 5710
1812 5162
1812 6929
1812 7071
1812 7237
1814 2992
1814 4977
1814 6552
1815 4843
1816 1897
1817 1937
1817 2615
1817 3559
1817 4666
1817 4728
1817 4770
1817 5857
1817 5988
1817 6217
1817 6423
1817 6921
1817 7533
1817 7536
1818 2135
1819 6441
1820 5514
1821 2390
1821 5596
1822 2854
1823 3356
1824 2013
1824 2108
1824 2541
1824 4100
1825 2590
1825 4069
1826 4798
1826 7605
1827 2512
1827 6928
1828 4116
1828 6641
1829 6042
1830 1929
1830 2354
1830 2927
1830 3384
1830 4037
1830 4819
1830 5072
1830 5514
1830 7143
1830 7216
1831 2673
1831 2724
1831 2734
1831 3240
1831 3644
1831 3701
1831 4086
1831 4582
1831 5124
1831 5370
1831 5769
1831 5953
1831 6048
1831 6141
1831 6405
1831 6841
1831 7237
1832 3313
1833 4032
1833 5308
1833 5867
1833 6544
1833 6972
1834 2660
1834 2747
1834 3382
1834 4154
1834 4937
1834 6180
1834 6347
1834 7022
1834 7279
1834 7340
1835 3390
1835 4029
1835 5896
1835 6484
1835 6656
1835 6944
1835 7245
1836 2617
1836 6068
1837 6241
1838 3047
1838 3644
1838 4754
1838 7349
1838 7490
1839 1973
1839 3080
1839 3103
1839 6101
1840 2453
1840 2645
1840 6727
1841 4816
1842 4087
1842 6027
1842 7189
1844 2289
1844 6538
1845 3208
1846 2131
1846 3047
1846 6642
1846 6654
1846 7171
1847 6728
1848 1902
1848 1956
1848 2096
1848 2751
1848 3678
1848 3980
1848 4184
1848 4280
1848 4455
1848 5443
1848 5463
1848 5578
1848 5652
1848 6175
1848 6200
1848 7355
1848 7416
1849 2065
1849 2132
1849 3019
1849 3189
1849 3198
1849 3381
1849 3450
1849 3530
1849 3630
1849 3650
1849 3652
1849 3873
1849 4049
1849 4125
1849 4206
1849 4216
1849 4298
1849 4650
1849 4932
1849 5274
1849 5534
1849 5663
1849 5680
1849 5749
1849 5920
1849 6063
1849 6095
1849 6118
1849 6262
1849 6766
1849 7145
1849 7170
1849 7487
1849 7569
1849 7618
1850 1934
1850 1937
1850 2015
1850 2154
1850 2267
1850 3056
1850 3591
1850 4031
1850 4434
1850 4606
1850 4860
1850 4904
1850 5383
1850 5683
1850 6001
1850 6086
1850 6739
1850 6959
1850 7141
1851 1959
1851 6932
1851 7069
1852 1875
1852 2626
1852 6110
1852 6567
1853 2386
1853 2904
1853 6241
1853 6471
1853 7351
1854 1875
1854 3326
1854 3454
1854 3561
1854 4698
1855 2021
1855 7274
1856 2206
1856 3116
1856 3639
1856 3666
1856 4152
1856 4257
1856 4811
1857 2290
1858 6344
1858 7223
1859 4324
1859 4338
1859 5567
1859 6138
1859 6468
1859 6528
1859 6729
1860 3813
1860 5578
1861 6369
1861 6430
1862 2798
1862 4837
1863 2452
1863 6792
1863 6821
1864 6232
1865 5461
1865 7285
1867 4456
1867 4761
1868 4452
1869 4304
1870 6428
1871 2809
1872 2794
1872 2882
1872 4304
1872 4338
1872 6515
1872 6729
1873 2430
1873 2853
1873 2943
1873 5203
1873 7195
1874 5347
1875 1973
1875 2745
1875 4014
1875 4700
1875 4727
1875 4882
1875 5095
1875 5725
1875 6003
1875 6567
1875 6671
1876 2265
1876 2790
1876 2976
1876 5756
1876 7141
1877 4913
1877 5369
1878 3279
1878 3841
1878 4162
1878 4786
1878 4840
1878 7260
1879 2399
1879 2630
1879 3080
1879 3492
1879 3571
1879 3970
1879 4485
1879 4998
1879 5443
1879 5540
1879 5561
1879 5578
1879 5630
1879 5658
1879 5711
1879 5881
1879 6016
1879 6200
1879 6886
1879 7296
1879 7331
1880 4796
1880 5281
1880 6887
1881 2663
1882 2354
1882 2422
1882 2811
1882 3932
1882 5492
1882 5989
1882 6524
1882 7098
1882 7233
1882 7553
1883 6642
1883 6863
1884 2158
1884 4359
1884 4583
1885 5798
1885 6830
1886 4900
1887 1974
1887 2910
1887 3317
1887 3987
1887 4085
1887 4295
1887 5190
1887 5230
1887 5707
1887 6806
1887 7607
1888 5060
1889 2028
1890 3666
1890 3764
1890 6088
1891 1920
1891 2029
1891 2083
1891 2798
1891 3145
1891 3387
1891 5079
1891 5759
1891 5769
1891 5866
1891 6391
1891 6467
1891 6558
1891 6665
1891 6797
1891 7237
1891 7375
1891 7425
1892 2056
1892 2831
1892 6282
1893 3459
1893 4125
1894 6876
1894 7552
1895 2251
1896 2021
1896 2309
1896 2960
1896 3741
1896 4328
1896 6392
1897 2128
1897 3650
1897 4229
1897 4879
1897 5263
1897 5349
1897 5372
1897 6275
1897 6341
1897 6502
1897 6775
1897 6882
1897 7148
1897 7199
1897 7365
1897 7535
1898 2624
1898 3450
1898 3854
1898 4673
1898 5751
1898 7079
1898 7313
1899 3629
1899 4544
1899 6828
1900 2994
1901 4094
1901 5043
1902 1933
1902 2370
1902 2850
1902 4131
1902 4455
1902 4480
1902 4668
1902 4903
1902 4931
1902 5683
1902 5686
1902 5745
1902 6074
1902 6200
1902 6842
1902 7406
1903 3749
1903 5042
1904 2664
1904 3520
1905 3414
1905 3898
1905 4008
1905 4146
1905 5308
1905 5455
1905 5578
1905 5725
1905 7416
1906 2544
1906 6206
1907 5814
1907 5922
1907 6180
1907 6941
1908 2844
1909 2966
1909 3169
1909 4148
1909 4929
1910 4612
1911 4355
1911 4809
1911 7072
1911 7237
1912 4705
1913 4115
1914 5097
1915 3881
1915 3907
1916 4146
1917 2023
1917 3908
1917 5960
1918 3584
1918 5398
1919 2120
1919 2158
1919 3460
1919 5909
1920 3701
1920 5797
1920 6036
1920 6912
1921 1941
1921 2056
1921 2075
1921 2259
1921 3520
1921 4061
1921 4527
1921 5091
1921 5335
1922 5036
1922 6186
1922 7096
1923 4558
1924 2848
1924 4901
1925 3836
1925 4955
1925 5526
1925 6514
1925 6787
1925 7224
1926 7248
1927 6186
1928 3949
1929 2626
1929 3193
1929 3907
1929 5463
1929 7106
1930 5981
1931 7359
1932 3943
1932 4232
1932 4593
1932 5474
1932 6677
1932 7090
1932 7479
1933 1937
1933 2835
1933 3390
1933 3502
1933 3557
1933 3571
1933 3672
1933 4455
1933 4572
1933 4770
1933 4931
1933 5731
1933 6074
1933 6298
1933 6818
1933 7199
1933 7406
1934 1937
1934 2267
1934 2732
1934 3056
1934 4315
1934 5893
1935 4241
1936 2658
1936 3807
1937 2015
1937 2037
1937 2130
1937 2199
1937 2265
1937 2266
1937 2267
1937 2577
1937 2614
1937 2615
1937 2668
1937 2826
1937 2835
1937 2884
1937 2933
1937 3056
1937 3336
1937 3377
1937 3390
1937 3399
1937 3502
1937 3694
1937 3971
1937 4180
1937 4230
1937 4666
1937 4728
1937 4770
1937 4904
1937 4931
1937 5047
1937 5174
1937 5578
1937 5857
1937 5988
1937 6001
1937 6073
1937 6092
1937 6217
1937 6298
1937 6323
1937 6546
1937 6616
1937 6736
1937 6752
1937 6785
1937 6818
1937 6862
1937 6958
1937 6959
1937 7001
1937 7141
1937 7199
1937 7315
1937 7319
1937 7536
1937 7560
1938 4168
1938 6564
1939 6775
1940 2404
1940 2772
1940 2813
1940 4071
1940 6952
1941 2058
1941 2185
1941 2349
1941 2707
1941 2892
1941 3400
1941 4785
1941 4999
1941 5966
1941 6144
1941 6470
1941 6519
1941 6621
1942 3444
1942 5604
1942 6158
1942 6781
1943 2349
1943 2591
1943 3622
1943 4388
1943 4527
1945 1975
1945 2056
1945 2256
1945 2305
1945 2507
1945 2591
1945 2941
1945 3151
1945 3341
1945 3355
1945 3360
1945 3509
1945 3653
1945 3715
1945 3937
1945 4000
1945 4296
1945 4506
1945 4532
1945 4561
1945 4593
1945 4785
1945 5334
1945 5335
1945 5419
1945 5710
1945 5721
1945 6788
1945 7083
1945 7224
1945 7245
1945 7535
1946 2290
1946 3198
1946 3504
1946 4034
1946 5093
1946 7284
1947 3945
1947 4309
1947 5780
1947 5944
1947 6101
1948 3359
1948 6859
1949 6802
1949 6842
1950 2017
1950 4169
1951 5807
1952 3119
1952 4125
1952 4962
1953 3319
1953 7482
1954 3757
1954 6065
1954 7162
1954 7374
1955 4633
1955 4855
1956 2021
1956 2117
1956 2122
1956 2401
1956 2843
1956 2889
1956 2960
1956 3349
1956 3678
1956 4280
1956 4355
1956 4480
1956 4968
1956 5381
1956 5443
1956 5532
1956 5578
1956 5689
1956 5908
1956 6047
1956 7158
1956 7296
1956 7403
1956 7491
1956 7565
1957 2134
1957 3857
1957 7121
1958 2266
1958 3562
1958 3678
1958 4640
1958 4931
1958 5414
1958 5584
1958 5879
1958 6217
1958 6249
1959 6145
1960 3136
1960 3430
1960 4704
1960 5247
1960 5446
1960 5610
1960 5832
1960 5876
1961 3642
1962 5785
1963 2051
1963 3893
1963 4019
1963 4356
1963 4447
1963 5105
1964 2671
1964 6407
1965 4785
1967 2648
1967 6105
1968 3156
1968 6601
1968 6615
1968 6950
1969 2594
1970 5370
1970 6633
1971 2390
1971 4520
1971 5370
1971 6654
1972 5614
1972 6419
1973 2170
1973 2422
1973 3620
1973 3932
1973 4376
1973 4691
1973 4800
1973 5658
1973 6002
1973 6012
1973 6831
1973 7074
1973 7553
1974 4106
1974 4880
1975 5710
1976 5854
1977 5991
1978 7587
1979 4811
1979 4923
1980 2456
1980 4785
1980 5401
1980 6519
1981 4893
1982 2510
1982 2892
1982 3768
1982 3853
1982 4449
1982 6043
1983 6436
1984 7370
1985 2983
1985 5042
1985 6362
1986 3133
1986 3661
1986 7435
1987 2066
1987 2998
1987 3005
1987 3920
1987 6201
1989 2854
1989 3048
1989 4338
1989 4671
1989 6253
1989 6884
1990 3829
1991 4032
1991 6972
1991 7038
1994 2821
1994 3983
1994 6974
1995 2018
1995 2510
1995 2787
1995 2892
1995 3038
1995 3255
1997 3677
1998 4759
1999 2204
1999 4393
1999 4554
1999 7563
2000 3813
2001 3418
2001 4847
2001 5287
2002 6310
2003 3158
2004 4007
2004 4216
2004 5407
2004 6337
2004 6631
2004 7078
2005 3993
2005 6617
2005 7313
2007 3998
2008 2510
2008 2761
2008 3269
2008 3768
2009 6815
2010 5024
2011 3597
2011 6322
2011 6698
2012 5972
2013 3393
2013 3829
2013 4560
2013 4912
2013 6157
2013 6503
2014 2083
2014 2326
2014 2725
2014 2734
2014 3081
2014 3165
2014 3251
2014 3405
2014 3597
2014 3657
2014 4055
2014 4202
2014 4900
2014 4979
2014 5479
2014 5651
2014 5822
2014 6031
2014 6108
2014 7575
2015 2267
2015 2614
2015 3213
2015 4356
2015 4432
2015 4606
2015 5857
2015 6818
2015 7064
2015 7141
2016 5758
2017 3786
2017 3833
2017 4657
2017 4715
2017 5314
2017 5378
2017 5454
2017 6202
2017 6770
2017 6876
2017 7489
2018 5555
2019 2879
2019 4367
2020 2299
2020 2659
2020 2832
2020 3031
2020 3855
2020 4024
2020 4146
2020 5324
2020 5564
2020 7015
2020 7162
2020 7193
2021 2122
2021 2260
2021 2617
2021 2889
2021 4280
2021 5725
2021 5758
2022 2920
2022 5837
2022 6617
2023 2622
2023 2854
2023 5012
2023 6355
2023 6903
2024 3081
2024 3130
2024 3251
2024 3544
2024 4335
2024 6697
2024 6891
2024 7398
2025 4384
2026 2510
2026 2761
2026 2892
2026 3162
2027 4811
2028 2063
2028 3038
2028 3853
2028 3945
2028 4991
2028 5200
2028 6097
2028 7123
2028 7421
2028 7498
2029 2083
2029 2571
2029 2644
2029 3240
2029 3397
2029 3544
2029 4267
2029 4556
2029 4809
2029 5079
2029 5090
2029 5209
2029 5644
2029 5854
2029 6108
2029 6236
2029 6361
2029 6695
2029 6846
2029 7075
2029 7398
2030 2067
2030 2854
2030 4039
2031 2238
2031 3240
2031 4721
2031 4851
2031 5530
2031 6296
2031 7107
2031 7226
2031 7250
2032 7317
2034 3038
2034 4763
2034 5510
2035 2504
2035 7188
2036 2158
2036 2659
2036 3040
2036 3430
2036 3822
2036 3855
2036 4126
2036 5277
2036 5909
2036 7162
2037 2492
2037 2614
2037 2835
2037 3324
2037 4860
2037 4904
2037 4931
2037 5174
2037 5857
2037 5988
2037 6086
2037 6380
2037 7452
2038 4811
2039 2211
2039 3358
2039 4019
2039 5755
2039 5764
2039 6416
2039 6768
2039 7076
2040 3096
2040 4246
2040 5471
2042 2673
2042 4578
2042 6558
2042 7521
2043 3764
2043 7538
2044 5564
2045 2289
2045 4235
2045 4246
2045 4623
2045 4796
2045 5781
2045 5918
2046 5060
2047 4027
2047 4563
2047 5176
2047 6279
2047 7460
2048 5250
2049 3276
2049 5268
2050 2239
2050 2680
2050 6120
2050 7170
2051 3127
2051 3810
2051 4318
2051 5106
2051 5764
2051 6811
2052 2827
2052 6384
2053 3615
2054 4356
2055 5950
2056 2195
2056 3822
2056 3845
2056 4309
2056 4934
2056 5215
2056 5236
2056 5277
2056 5446
2056 5728
2056 6208
2056 6282
2056 6378
2056 6845
2056 7352
2057 4544
2057 6155
2057 6757
2058 2899
2058 5725
2058 6800
2058 6900
2058 7176
2059 4705
2060 3044
2060 4607
2060 4785
2060 4852
2061 3833
2061 4676
2061 6991
2062 3344
2063 6465
2064 7362
2065 3650
2065 7487
2066 2160
2066 3045
2066 3282
2066 3564
2066 3927
2066 4544
2066 5347
2066 6379
2066 7215
2066 7334
2067 3527
2067 3587
2067 6760
2068 5268
2068 5858
2069 3550
2070 2878
2070 7042
2070 7460
2071 4875
2071 5893
2072 2097
2072 6794
2072 7339
2073 2142
2073 4669
2073 7270
2074 5856
2075 4785
2075 5044
2076 2918
2077 3114
2077 5249
2077 5274
2077 5914
2078 3038
2079 7580
2080 2551
2080 2751
2081 2996
2081 7435
2083 2326
2083 2421
2083 2452
2083 2644
2083 2648
2083 2734
2083 2878
2083 3044
2083 3387
2083 3397
2083 3471
2083 3594
2083 3701
2083 4353
2083 4404
2083 4467
2083 4584
2083 4754
2083 4809
2083 4883
2083 5124
2083 5370
2083 5402
2083 5556
2083 5831
2083 5866
2083 6391
2083 6473
2083 6695
2083 7226
2083 7398
2083 7547
2083 7606
2083 7621
2084 4145
2085 2790
2085 3324
2085 4860
2085 5857
2085 6252
2085 7141
2086 4777
2086 6536
2087 2237
2087 4785
2088 4868
2089 2231
2089 7517
2090 5802
2090 5854
2090 6090
2091 2304
2091 3582
2091 5377
2091 7534
2092 4811
2093 2744
2093 3530
2093 4163
2093 4502
2093 7488
2094 4069
2094 4820
2094 5161
2094 6633
2094 6897
2095 3450
2095 3530
2095 3543
2095 4095
2096 2183
2096 2600
2096 2891
2096 3080
2096 3214
2096 3293
2096 3672
2096 4008
2096 6047
2096 6323
2096 6446
2096 6877
2096 7383
2098 2705
2099 4785
2099 5526
2099 6330
2100 2326
2100 7237
2101 4544
2103 5267
2103 7060
2104 4811
2105 7213
2106 4811
2107 2641
2107 3381
2107 4433
2107 6046
2107 6503
2107 6955
2108 5202
2108 6809
2109 3748
2110 7339
2111 7248
2112 6116
2112 6994
2114 6407
2115 5461
2116 5201
2117 2566
2117 2781
2117 3101
2117 6164
2117 7303
2117 7327
2118 5844
2118 6241
2119 7079
2120 4243
2120 5610
2121 5673
2122 2260
2122 2996
2122 3016
2122 3741
2122 3898
2122 4806
2122 5443
2122 5629
2122 6052
2122 6175
2122 6339
2122 7158
2122 7522
2122 7612
2124 2205
2124 2334
2124 5346
2124 5930
2124 6133
2124 6483
2125 4785
2125 5860
2127 2864
2127 3103
2127 6323
2127 7225
2128 4996
2128 7199
2128 7314
2129 3840
2129 5274
2129 7580
2130 3056
2130 5857
2132 2874
2132 5274
2132 5411
2132 5890
2132 6960
2132 7381
2133 2603
2134 3469
2134 3920
2136 3920
2137 3154
2137 5462
2137 6633
2138 4941
2138 5933
2138 6759
2139 5604
2140 2148
2140 2914
2140 3456
2140 3736
2140 3991
2140 4084
2140 4194
2140 4543
2140 5464
2140 5480
2140 6226
2140 6286
2140 6390
2140 6822
2141 6096
2141 6467
2141 7562
2142 2217
2142 2234
2142 2289
2142 2337
2142 2779
2142 2854
2142 4005
2142 4420
2142 5056
2142 5234
2142 6026
2142 6528
2142 7172
2143 2618
2143 3873
2143 3944
2143 4873
2143 4900
2143 6019
2143 7032
2144 2276
2144 2995
2144 3086
2144 5078
2144 5570
2145 2854
2145 4235
2145 4246
2145 6022
2145 7213
2146 2298
2146 2470
2147 6101
2149 3614
2149 4090
2149 4981
2149 5229
2149 6491
2150 3584
2151 2849
2151 3367
2151 3544
2151 3597
2151 4013
2151 4520
2151 5317
2151 5370
2151 5679
2151 6048
2151 6205
2151 6797
2151 7253
2152 2391
2153 2422
2154 6725
2155 5216
2155 5555
2155 5862
2155 6054
2156 4671
2157 2288
2157 2744
2157 3910
2157 4125
2157 5274
2157 5404
2157 5410
2157 5549
2157 5687
2157 6888
2158 2832
2158 3130
2158 3312
2158 5053
2158 5224
2158 5909
2158 6207
2158 6266
2158 7402
2159 3502
2159 4352
2159 6129
2160 2586
2160 2944
2160 2998
2160 3045
2160 3120
2160 3469
2160 3521
2160 3599
2160 3920
2160 3926
2160 4544
2160 5132
2160 5654
2160 5872
2160 6167
2160 6406
2160 6476
2160 6587
2160 6612
2160 7230
2160 7604
2161 2236
2162 2404
2162 2772
2162 3139
2162 3774
2162 7143
2163 3985
2163 4077
2163 5595
2163 6744
2164 2524
2164 3852
2164 5457
2164 6424
2164 6544
2164 6983
2165 5346
2165 5895
2166 4381
2167 5807
2169 2989
2170 2229
2170 2420
2170 2566
2170 2952
2170 3103
2170 3427
2170 3620
2170 4376
2170 4531
2170 4800
2170 5359
2170 5457
2170 5725
2170 6101
2170 6800
2170 6859
2170 7235
2171 3039
2171 4811
2172 3615
2173 2361
2174 2515
2174 5404
2174 5823
2174 7595
2175 6040
2177 2229
2177 2315
2177 2952
2177 4595
2177 5242
2177 5432
2177 5468
2177 5578
2177 6672
2178 2854
2178 3334
2178 4039
2179 7357
2180 2756
2180 6276
2181 7600
2183 2816
2183 2889
2183 4723
2183 6323
2184 3103
2184 3859
2185 4785
2185 7036
2186 2361
2186 2846
2186 2928
2186 3205
2186 3240
2186 3408
2186 3504
2186 3597
2186 4335
2186 4538
2186 4557
2186 4900
2186 5703
2186 5944
2186 6037
2186 6381
2186 6388
2186 6398
2186 6403
2186 6639
2186 6792
2187 5578
2188 2657
2188 2805
2189 2470
2189 3346
2189 3534
2189 4348
2189 4476
2189 6116
2189 7071
2190 7135
2190 7273
2191 2906
2191 3158
2191 4704
2191 5676
2191 5815
2191 6709
2192 4595
2192 4998
2192 7267
2193 4146
2193 5378
2193 5565
2193 6202
2193 6408
2193 6991
2193 7489
2194 2197
2194 2204
2194 2707
2194 3495
2194 3520
2194 3605
2194 3633
2194 3853
2194 3938
2194 4632
2194 4925
2194 4955
2194 7464
2195 3136
2195 3424
2195 3462
2195 3640
2195 5053
2195 5461
2195 6529
2195 7352
2196 3425
2196 3618
2196 4257
2196 5835
2196 7413
2197 2204
2197 2510
2197 2892
2197 3224
2197 3853
2197 4554
2197 5212
2197 5526
2197 6280
2197 7090
2199 2668
2199 2835
2199 3766
2199 5355
2199 5575
2199 5988
2199 6092
2199 6712
2199 6862
2199 7001
2199 7144
2200 2379
2200 4864
2200 6185
2201 2929
2201 3022
2201 3044
2201 3367
2201 3701
2201 4312
2201 4967
2201 5147
2201 5387
2201 6168
2201 6378
2201 6529
2201 6664
2202 5294
2204 2892
2204 3503
2204 3853
2204 3990
2204 4309
2204 4554
2204 4961
2204 5168
2204 5212
2204 5342
2204 5453
2204 5526
2205 2524
2205 2676
2205 3410
2205 5455
2205 6126
2206 3493
2206 3701
2207 2798
2207 3211
2207 3240
2207 3594
2207 3961
2207 4198
2207 7379
2208 7440
2209 5680
2210 5012
2211 4318
2212 3564
2212 5872
2212 5962
2213 3240
2213 3659
2213 3704
2213 5813
2213 7532
2214 6349
2215 4225
2216 3172
2216 3552
2216 3744
2216 4929
2216 5305
2216 5516
2217 2234
2217 2458
2217 2794
2217 3446
2217 3781
2217 4304
2217 5285
2217 5722
2217 5791
2217 6022
2217 6216
2217 6515
2217 6528
2218 4356
2219 4908
2220 5607
2221 2673
2221 6318
2221 6343
2221 6666
2221 6753
2221 7558
2222 3520
2222 4785
2224 2609
2225 3975
2226 4375
2227 2532
2228 7009
2229 2420
2229 2566
2229 2626
2229 2637
2229 2733
2229 2745
2229 2952
2229 2961
2229 3080
2229 3137
2229 3270
2229 3571
2229 3881
2229 3898
2229 4228
2229 4369
2229 4517
2229 4572
2229 4985
2229 5095
2229 5162
2229 5242
2229 5505
2229 5725
2229 5938
2229 6016
2229 6101
2229 6491
2229 6567
2229 6734
2229 6776
2229 7225
2229 7356
2230 6350
2232 3548
2232 4260
2232 4368
2232 4397
2232 5887
2232 6564
2233 2707
2233 3853
2233 4204
2233 4900
2233 7339
2234 3951
2234 4746
2234 7333
2234 7592
2235 6441
2236 4880
2237 2707
2237 4218
2238 2316
2238 3240
2238 3504
2238 4267
2238 4468
2238 5222
2238 5703
2238 5944
2238 6108
2238 6639
2238 6857
2238 7284
2238 7575
2239 2742
2239 3170
2239 5264
2239 6120
2240 3351
2240 3528
2241 3661
2241 4485
2241 4548
2242 3251
2242 6960
2244 2502
2244 4512
2244 5051
2244 7534
2246 3620
2247 2557
2247 6676
2248 3430
2248 5314
2249 5475
2249 6096
2249 7246
2251 2833
2251 3569
2251 4719
2251 4911
2251 7155
2251 7341
2252 2456
2252 3912
2253 3885
2253 6328
2254 2262
2254 2571
2254 3504
2254 3808
2254 4894
2254 4919
2254 5944
2254 7237
2255 2757
2255 3723
2256 3653
2256 5104
2257 6618
2258 2557
2259 2591
2259 2955
2259 3400
2259 3612
2259 3715
2259 3760
2259 4340
2259 4561
2259 4785
2259 5218
2259 5334
2259 5343
2259 5710
2259 6219
2259 6330
2259 6568
2259 6621
2260 2399
2260 2751
2260 3359
2260 3855
2260 4274
2260 4329
2260 5095
2260 5440
2260 7522
2261 3530
2261 7573
2262 3597
2262 3882
2262 4459
2262 6792
2263 2510
2263 6838
2263 7498
2264 7615
2265 2615
2265 3056
2265 4293
2265 4356
2265 4521
2265 4931
2265 5172
2265 5355
2265 5592
2265 5857
2265 6500
2265 6812
2265 7199
2266 5857
2266 6217
2266 6712
2266 7257
2267 4617
2267 4666
2267 4784
2267 5893
2267 6455
2267 6862
2267 7257
2268 4811
2269 4069
2269 4186
2270 4570
2271 2532
2271 4731
2272 3520
2272 6166
2273 3151
2274 5377
2275 2515
2275 3530
2275 4839
2276 3086
2276 3530
2276 4960
2276 5078
2276 5570
2276 5862
2276 6955
2277 4392
2278 3845
2279 5628
2279 7549
2280 2437
2280 2854
2280 3408
2280 4365
2280 5489
2280 6894
2282 4811
2283 5665
2285 5339
2285 5539
2285 5704
2285 7089
2286 4086
2287 5986
2288 6506
2289 2572
2289 2882
2289 3304
2289 3486
2289 3816
2289 3909
2289 3951
2289 3956
2289 4235
2289 4906
2289 5285
2289 5715
2289 5834
2289 6468
2289 6528
2289 6592
2289 7255
2289 7338
2289 7592
2290 2361
2290 2494
2290 5944
2290 6398
2292 2504
2293 3790
2294 3412
2295 2700
2296 6914
2297 4811
2298 5298
2298 5529
2298 6694
2298 7534
2299 3296
2299 5065
2299 5277
2299 6411
2299 7317
2300 2368
2300 4329
2300 5578
2300 6339
2300 6663
2301 4246
2301 6887
2302 7100
2303 7327
2304 2624
2304 2705
2304 4042
2304 5680
2304 7032
2305 3187
2305 5334
2305 5343
2305 7224
2306 3145
2306 3975
2306 5759
2307 3112
2307 6383
2308 4728
2308 4931
2308 6712
2309 5443
2310 7573
2311 7248
2312 3873
2313 3340
2313 3912
2313 5343
2314 2995
2314 5127
2315 4210
2315 4595
2315 7173
2316 3597
2316 4135
2316 5854
2317 3159
2317 3819
2317 4006
2317 5670
2318 4309
2318 4632
2318 4925
2318 5099
2318 5159
2318 5656
2318 6429
2319 6065
2319 7552
2320 3408
2321 6302
2321 7302
2322 2510
2322 5168
2323 7089
2324 7028
2325 4204
2326 2452
2326 2476
2326 2725
2326 2734
2326 2858
2326 3108
2326 3597
2326 3968
2326 4900
2326 5402
2326 5769
2326 6108
2326 6140
2326 6792
2326 6821
2326 6870
2326 7237
2326 7272
2327 3330
2327 5205
2327 5671
2327 6578
2327 7009
2328 3127
2328 4209
2328 4318
2328 5764
2328 5851
2328 6768
2328 6911
2329 4245
2329 4464
2329 7089
2330 3181
2331 2422
2332 3481
2332 5554
2333 3758
2334 3571
2334 7024
2335 2535
2335 4745
2336 7017
2337 2511
2337 2854
2337 2966
2337 3184
2337 3199
2337 3330
2337 3700
2337 3958
2337 4949
2337 5226
2337 5234
2337 5254
2337 5516
2337 6337
2337 6460
2337 6556
2337 6909
2337 7335
2337 7438
2339 5287
2340 2669
2340 4882
2340 5242
2341 3527
2341 3715
2341 5044
2342 6432
2343 6366
2343 6460
2344 2418
2344 3659
2344 5854
2344 6552
2345 3692
2345 3994
2345 4916
2345 6957
2346 3247
2347 2655
2347 2836
2347 3006
2347 3093
2347 3786
2347 3809
2347 4269
2347 4478
2347 4565
2347 4653
2347 4657
2347 5420
2347 5847
2347 5909
2347 6207
2347 6852
2348 5996
2349 2591
2349 2955
2349 3622
2349 3653
2349 4034
2349 4999
2349 5159
2349 5419
2349 5710
2349 6519
2350 3162
2350 3462
2351 3112
2352 3530
2353 2639
2354 4599
2354 4691
2354 7216
2355 6914
2356 4443
2356 5578
2356 6877
2356 7122
2356 7403
2356 7416
2357 3221
2357 3571
2357 3850
2357 4589
2357 5396
2357 6990
2357 7080
2358 2904
2359 3813
2359 6924
2360 6670
2361 2831
2361 2846
2361 3198
2361 3544
2361 5944
2362 5045
2364 4433
2365 6017
2366 3210
2366 4593
2366 5728
2366 7170
2367 3597
2368 2617
2368 3166
2368 3565
2368 4274
2368 4572
2368 5561
2368 5725
2368 7435
2369 2385
2369 3210
2369 5035
2369 6091
2371 4184
2372 3172
2372 3330
2372 4941
2372 5816
2372 7248
2373 2571
2373 3090
2373 5944
2373 6388
2374 3251
2375 2502
2376 3751
2376 4107
2376 4811
2377 6101
2377 7060
2378 7268
2378 7298
2380 5372
2381 3453
2381 4657
2381 4842
2381 4912
2381 5274
2381 5543
2382 3530
2382 4962
2382 5632
2382 6724
2382 7032
2383 2763
2384 4957
2384 7028
2384 7539
2385 2985
2385 3083
2385 3210
2385 4359
2385 4636
2385 6207
2386 3655
2386 4301
2386 5727
2386 5754
2387 2747
2387 2800
2387 2930
2387 4154
2387 4705
2387 5968
2387 6289
2387 6636
2387 7571
2388 5047
2389 6252
2389 7199
2390 2798
2390 3621
2390 3701
2390 4785
2390 5369
2390 5564
2390 5854
2390 7237
2390 7537
2391 2468
2391 2744
2391 2764
2391 2897
2391 2967
2391 3285
2391 3530
2391 3698
2391 4206
2391 4275
2391 4319
2391 4422
2391 4502
2391 4536
2391 4870
2391 5127
2391 5315
2391 5534
2391 5549
2391 5687
2391 6058
2391 6125
2391 6724
2391 6921
2391 7434
2392 2854
2393 7314
2394 4163
2395 6676
2396 5725
2396 6446
2396 7435
2397 6505
2398 5816
2398 7248
2399 2630
2399 3137
2399 3977
2399 5396
2399 5440
2399 5466
2400 5543
2401 4328
2401 4329
2401 4455
2401 4903
2401 5047
2401 5449
2401 5629
2401 6440
2401 7403
2402 7100
2402 7619
2403 4908
2404 2772
2405 7580
2406 4593
2406 7352
2407 6716
2408 2701
2408 3520
2408 7177
2409 2414
2410 6990
2411 5233
2412 2571
2412 4792
2412 5944
2413 3650
2413 4656
2413 5534
2413 7089
2414 2442
2414 2506
2414 2857
2414 2906
2414 3204
2414 3838
2414 3998
2414 5520
2414 5681
2414 5846
2414 5939
2414 6352
2414 7031
2414 7168
2415 5164
2416 2890
2416 5427
2416 5677
2416 7585
2417 5817
2417 6316
2418 4062
2419 2510
2419 3415
2419 4417
2419 4953
2419 6489
2420 3080
2420 3103
2420 3565
2420 3571
2420 4800
2420 5112
2420 6002
2422 3103
2422 3690
2422 4644
2422 5364
2422 5400
2422 5658
2422 5989
2422 6015
2422 6101
2422 6339
2422 6469
2422 7219
2423 6506
2423 7595
2424 2896
2424 3155
2424 3234
2424 3822
2424 3855
2424 4704
2424 5001
2424 5324
2424 5446
2424 5820
2424 5876
2424 6305
2424 6575
2424 6845
2427 2707
2428 2473
2428 3348
2428 3381
2428 3638
2428 3718
2428 4217
2428 5128
2428 5527
2428 5800
2428 7600
2429 2647
2429 6639
2430 3432
2430 4338
2430 5926
2430 6468
2430 6700
2430 7545
2431 2694
2432 4371
2433 3897
2433 4626
2433 4888
2433 6640
2433 6652
2433 7579
2434 3165
2434 3498
2434 3560
2434 3597
2434 3961
2434 4809
2434 4843
2434 6105
2434 6846
2434 7187
2434 7237
2435 5854
2435 5944
2436 3163
2438 6200
2439 3610
2439 5800
2440 2588
2440 5604
2441 7537
2442 3385
2442 3998
2442 5939
2443 2569
2443 3581
2444 2769
2444 3805
2444 4907
2446 3758
2447 7147
2448 3405
2448 5369
2448 7006
2449 3091
2449 3571
2450 2643
2450 3117
2450 5208
2450 6784
2451 5095
2451 6672
2451 6798
2452 2725
2452 3165
2452 3240
2452 3504
2452 3544
2452 3597
2452 3644
2452 3701
2452 3869
2452 4242
2452 4900
2452 5530
2452 5548
2452 6105
2452 6108
2452 7237
2453 2645
2454 4899
2455 2769
2455 3350
2455 3805
2455 5373
2456 2593
2456 2600
2456 5141
2456 5154
2456 6519
2456 7245
2456 7441
2457 5631
2458 3781
2458 4906
2458 5791
2458 6887
2459 2964
2459 6817
2460 3073
2460 7146
2461 3974
2462 5127
2463 3737
2464 4811
2465 4994
2467 2569
2467 2874
2467 4895
2468 2515
2468 3285
2468 4211
2468 4900
2468 5245
2468 6921
2468 7254
2469 6595
2470 2803
2470 4348
2470 4356
2470 4959
2470 4992
2470 5495
2470 6160
2470 6937
2470 7148
2470 7286
2472 4623
2472 5471
2472 6475
2472 6887
2473 2535
2473 3450
2473 4042
2473 5258
2473 6415
2473 6431
2473 6973
2473 7199
2473 7565
2473 7600
2474 4713
2474 4783
2474 5335
2474 5650
2474 6860
2476 2648
2476 2878
2476 3240
2476 3397
2476 3566
2476 5090
2476 5402
2476 5530
2476 5769
2476 5831
2476 6105
2476 6140
2476 6193
2476 6343
2476 6891
2476 7237
2477 6549
2478 2510
2478 2736
2479 3222
2479 5128
2480 7169
2481 3308
2481 3336
2481 6616
2481 6712
2482 4125
2482 5274
2482 5543
2483 3469
2483 5132
2483 6167
2484 4785
2484 7170
2485 6391
2485 7414
2486 4335
2487 2745
2488 2708
2488 3251
2488 5293
2488 5327
2488 5381
2489 6295
2490 5625
2491 3064
2492 2628
2492 3502
2492 5683
2492 6290
2492 6810
2492 6818
2493 4341
2494 4030
2494 5944
2495 4609
2495 6145
2496 6728
2498 4939
2498 5274
2498 6049
2498 6506
2498 7413
2498 7595
2499 3061
2499 3584
2499 4899
2499 6712
2500 6932
2501 4226
2501 4878
2501 5891
2501 6716
2501 7424
2502 4512
2502 7221
2504 2964
2504 3874
2504 4146
2504 4714
2504 5409
2504 6933
2504 7188
2505 3792
2505 4819
2507 2912
2507 4296
2507 5401
2507 5963
2507 6519
2508 2867
2508 4424
2509 5334
2510 2527
2510 2596
2510 2597
2510 2761
2510 2807
2510 2957
2510 3013
2510 3102
2510 3130
2510 3147
2510 3157
2510 3224
2510 3274
2510 3278
2510 3335
2510 3360
2510 3400
2510 3415
2510 3417
2510 3420
2510 3503
2510 3555
2510 3706
2510 3725
2510 3736
2510 3767
2510 3768
2510 3853
2510 3946
2510 3977
2510 4000
2510 4006
2510 4052
2510 4072
2510 4112
2510 4122
2510 4299
2510 4357
2510 4417
2510 4464
2510 4525
2510 4549
2510 4554
2510 4605
2510 4697
2510 4835
2510 4844
2510 4926
2510 4955
2510 5013
2510 5168
2510 5336
2510 5342
2510 5417
2510 5453
2510 5473
2510 5563
2510 5670
2510 5845
2510 6043
2510 6071
2510 6094
2510 6131
2510 6414
2510 6489
2510 6542
2510 6690
2510 6769
2510 6843
2510 6873
2510 6881
2510 6906
2510 7036
2510 7037
2510 7200
2510 7273
2510 7309
2510 7339
2510 7463
2510 7494
2510 7498
2510 7525
2510 7563
2511 2854
2511 4906
2511 5933
2511 7045
2512 4378
2512 4763
2512 6928
2513 2591
2513 2801
2513 3514
2513 6330
2513 6519
2514 4847
2514 5754
2515 2755
2515 3331
2515 3381
2515 3450
2515 3530
2515 4095
2515 4106
2515 4163
2515 4211
2515 4452
2515 4678
2515 4726
2515 5127
2515 5227
2515 5663
2515 5823
2515 6673
2515 6724
2515 6921
2515 6955
2515 7569
2515 7587
2516 2962
2516 4969
2517 3038
2518 4691
2518 5578
2520 4441
2520 4570
2521 4957
2522 6797
2522 7541
2523 3006
2523 4319
2524 3103
2524 3410
2524 4394
2524 5308
2524 5455
2524 6126
2524 6446
2525 5658
2526 3450
2528 2781
2529 4957
2529 5539
2529 6463
2530 6188
2530 6273
2531 3544
2532 3450
2532 3867
2534 6446
2534 7074
2534 7435
2535 3888
2535 4093
2536 4055
2536 6557
2537 4321
2537 4761
2538 7536
2539 3610
2539 4811
2540 5531
2541 4125
2541 6888
2542 4785
2543 3240
2543 4045
2543 6780
2544 6002
2546 4356
2547 6617
2548 6817
2548 7532
2549 7162
2550 3430
2550 5610
2551 4947
2551 5242
2551 6101
2551 6107
2552 3080
2552 3680
2552 5242
2553 2691
2554 4234
2556 3327
2556 3471
2556 4353
2556 5079
2557 3119
2558 3084
2559 3006
2559 3632
2559 4636
2559 6070
2559 6207
2560 2940
2560 5066
2560 5127
2560 5258
2560 6774
2561 5233
2561 6001
2562 3066
2563 2926
2564 2864
2564 4124
2564 5578
2564 6339
2564 7403
2566 2961
2566 4147
2566 4376
2566 4846
2566 5095
2566 7074
2567 2758
2568 2902
2569 2713
2569 2866
2569 3581
2569 3854
2569 5487
2569 6258
2570 3038
2570 4393
2570 6787
2571 3566
2571 3597
2571 3659
2571 5097
2571 6105
2571 6234
2571 6644
2572 3261
2572 3486
2572 3909
2573 6917
2574 5128
2574 5751
2575 2707
2576 4359
2576 4657
2577 6712
2577 7208
2578 5914
2579 5274
2580 3221
2580 3413
2580 3571
2580 4327
2580 4534
2580 5292
2580 6078
2580 6990
2580 7080
2581 4937
2582 3833
2583 2713
2583 2786
2583 3530
2583 3693
2583 4765
2583 5007
2583 5274
2583 5557
2583 7580
2584 2757
2585 3530
2585 6738
2586 2944
2586 2998
2586 3045
2586 3282
2586 3564
2586 3599
2586 4612
2586 5872
2586 5962
2586 6167
2586 6379
2586 6476
2586 6612
2586 7410
2586 7604
2587 2615
2587 4156
2588 6101
2589 2713
2589 2902
2589 3758
2589 4344
2589 5837
2589 5949
2591 2707
2591 3107
2591 3509
2591 3612
2591 4561
2591 4593
2591 4607
2591 5335
2591 5710
2591 5861
2591 5905
2591 5963
2591 6519
2591 6597
2591 6621
2591 6801
2592 5943
2593 2755
2594 6639
2595 4033
2596 2707
2596 4999
2598 6186
2599 4959
2599 5260
2599 7071
2600 2854
2600 3007
2600 3080
2600 4082
2600 4337
2600 4416
2600 5579
2600 5804
2600 6373
2600 6583
2600 6817
2602 6963
2605 3446
2605 5770
2605 6890
2606 4755
2607 2673
2607 4303
2607 5151
2607 5370
2607 7237
2607 7282
2609 4962
2609 5454
2609 5543
2609 7482
2609 7595
2610 3791
2610 6232
2612 3272
2614 2790
2614 4899
2614 4904
2614 4931
2614 5857
2614 6298
2614 6455
2614 6712
2614 6810
2614 7141
2615 2709
2615 2835
2615 2953
2615 2982
2615 3056
2615 3557
2615 3664
2615 4156
2615 4180
2615 4770
2615 4860
2615 4904
2615 4931
2615 5478
2615 5575
2615 5988
2615 6215
2615 6423
2615 6584
2615 6712
2615 6752
2615 6958
2615 7001
2615 7141
2615 7161
2615 7315
2615 7360
2615 7454
2615 7536
2616 3341
2616 4561
2617 2645
2617 3349
2617 4110
2617 5463
2617 5653
2617 5725
2617 6068
2618 3658
2618 6724
2619 6493
2620 2710
2621 3947
2622 4469
2623 3826
2623 4151
2623 5635
2624 3163
2624 3445
2624 3854
2624 4139
2624 4338
2624 4466
2624 4673
2624 4781
2624 4880
2624 6125
2624 6358
2624 6375
2624 7497
2626 3384
2626 5455
2626 5457
2626 6252
2626 6317
2626 6446
2626 7131
2628 3399
2629 5751
2629 5876
2629 7607
2630 2669
2630 2864
2630 6200
2631 3948
2631 5370
2632 5337
2633 3469
2634 2792
2634 4106
2634 5680
2634 5935
2636 5514
2636 7357
2637 2911
2637 2974
2637 3103
2637 3565
2637 3583
2637 4162
2637 4800
2637 4882
2637 5095
2637 5457
2637 5783
2637 5929
2637 6113
2637 6126
2637 6238
2637 6323
2637 6424
2637 6544
2637 6567
2637 6972
2637 7100
2638 4759
2638 6326
2639 3271
2639 3739
2639 3888
2639 4081
2639 5702
2639 5949
2639 5975
2639 6431
2639 6617
2640 2840
2640 3530
2640 5205
2641 3530
2641 3873
2641 4163
2641 5859
2643 3325
2643 4911
2644 2673
2644 2734
2644 4900
2644 5327
2644 5703
2644 5769
2644 6369
2644 6553
2644 6633
2644 7237
2644 7547
2645 6727
2645 7283
2646 7317
2647 2928
2647 3408
2647 4900
2647 5869
2648 3108
2648 3498
2648 4306
2648 5944
2648 7237
2649 4250
2649 4457
2649 6341
2651 5584
2652 6916
2653 3552
2653 5516
2654 3172
2656 5099
2658 6421
2658 7597
2659 3158
2659 3822
2659 3845
2659 4126
2659 5236
2659 5610
2662 4897
2663 2998
2663 4612
2663 5872
2663 7215
2663 7334
2665 3048
2666 2673
2666 5479
2666 6552
2666 6753
2667 4427
2667 4992
2668 3766
2668 6712
2669 5578
2669 6200
2670 3745
2670 4021
2670 4044
2670 4638
2670 5413
2670 5703
2670 6090
2672 3038
2672 3467
2672 5526
2672 6490
2672 7527
2673 3251
2673 5462
2673 6633
2673 6654
2673 6797
2673 7253
2674 2711
2674 2962
2675 7029
2676 4091
2676 4969
2676 4981
2676 5308
2676 5457
2676 5828
2676 5867
2676 6126
2676 6424
2676 6544
2676 6924
2678 5436
2678 7314
2680 7386
2681 6946
2683 3077
2684 6556
2686 3616
2686 4460
2687 7329
2688 5127
2689 5845
2689 5901
2690 3341
2691 3018
2691 3079
2691 3759
2691 3969
2691 4512
2691 4933
2691 5050
2691 5668
2691 5968
2691 6256
2691 6341
2691 6941
2691 7101
2691 7258
2691 7571
2692 3795
2693 3673
2693 6126
2694 3038
2694 3121
2694 3360
2694 3555
2694 3582
2694 3853
2694 4000
2694 5497
2694 6115
2694 6794
2695 4028
2695 4855
2697 6327
2697 6432
2698 3279
2698 3673
2699 3095
2699 3184
2699 3530
2699 4163
2699 4270
2699 4989
2699 5513
2699 5734
2699 7488
2700 4162
2700 4743
2700 6101
2703 4149
2703 5268
2703 5386
2703 7004
2704 3867
2705 3263
2705 3873
2705 4254
2705 4689
2705 4873
2705 5641
2705 6478
2706 2948
2706 4555
2706 4600
2706 5254
2706 6190
2706 7086
2707 3263
2707 3483
2707 4061
2707 4119
2707 4238
2707 4309
2707 4382
2707 4554
2707 4611
2707 4632
2707 4677
2707 4785
2707 4925
2707 4999
2707 5030
2707 5159
2707 5200
2707 5461
2707 5501
2707 5597
2707 5656
2707 5673
2707 6330
2707 6519
2707 6621
2707 6860
2707 7032
2707 7090
2707 7246
2707 7352
2709 5643
2710 4941
2710 5789
2711 2730
2711 2740
2711 2850
2711 2917
2711 2976
2711 3604
2711 3707
2711 4104
2711 5318
2711 6000
2711 6598
2711 6640
2711 7468
2711 7475
2712 5461
2713 3039
2713 4125
2713 4811
2713 5274
2713 5404
2713 5411
2713 5557
2713 6365
2713 6463
2713 6627
2713 6856
2713 7070
2713 7308
2715 3400
2715 3946
2716 6153
2717 3199
2717 6088
2718 4580
2719 5095
2719 6129
2720 3107
2721 4359
2722 6252
2723 3942
2723 4822
2723 4976
2723 6165
2723 6444
2724 3701
2724 4267
2724 5079
2724 5402
2724 6695
2725 3218
2725 3597
2725 4242
2725 4883
2725 4900
2725 5090
2725 5124
2725 5146
2725 5548
2725 6105
2725 6391
2725 6695
2725 6789
2725 6792
2725 7237
2725 7490
2726 3633
2727 3389
2727 4329
2727 6396
2728 6339
2729 3538
2729 6278
2729 6399
2730 3550
2730 3584
2730 4164
2730 4888
2730 6255
2730 7287
2731 7329
2732 5893
2733 3565
2734 2798
2734 2847
2734 2876
2734 3108
2734 3165
2734 3397
2734 3499
2734 3644
2734 3701
2734 3869
2734 4242
2734 4377
2734 4900
2734 4967
2734 4979
2734 5402
2734 5479
2734 5530
2734 5548
2734 5556
2734 5769
2734 6105
2734 6140
2734 6146
2734 6326
2734 6391
2734 6403
2734 6789
2734 6792
2734 6891
2734 7072
2734 7226
2734 7237
2734 7398
2734 7548
2735 7583
2738 3855
2738 4701
2738 4887
2738 6065
2738 6964
2739 6703
2740 2838
2740 4164
2740 4888
2741 3323
2741 4356
2742 4682
2742 4858
2742 6905
2743 4000
2744 2967
2744 2995
2744 3530
2744 3900
2744 4211
2744 4536
2744 4876
2744 5216
2744 5315
2744 6534
2744 6888
2744 6955
2744 7254
2744 7368
2745 2961
2745 3103
2745 3315
2745 3452
2745 3714
2745 4272
2745 5095
2745 5186
2745 5207
2745 6101
2745 6400
2745 6732
2745 6859
2745 7013
2745 7074
2746 3244
2746 6891
2746 7028
2747 3548
2747 6362
2748 2818
2749 4839
2749 6120
2750 4039
2751 3690
2751 4624
2751 4993
2751 5578
2751 5725
2751 6323
2751 6446
2751 7435
2752 4825
2752 6238
2753 6341
2753 6936
2753 7148
2754 2854
2755 2995
2755 3285
2755 3450
2755 4211
2755 6921
2757 3318
2757 3932
2758 3005
2758 5675
2758 6623
2759 6250
2759 6759
2760 4900
2761 3360
2761 3463
2761 3706
2761 4774
2761 5168
2761 5563
2761 7563
2763 6333
2763 6467
2763 6897
2765 2881
2765 5268
2765 6194
2766 4785
2768 4338
2768 4671
2770 3143
2771 2943
2771 4890
2771 6292
2772 6952
2772 7568
2773 3342
2773 4452
2773 6112
2774 7589
2775 2805
2775 3450
2775 3790
2775 4163
2775 5127
2775 5862
2775 6648
2775 7317
2775 7488
2775 7610
2776 5060
2776 6119
2777 3575
2777 5184
2778 5157
2780 7402
2781 5725
2781 6323
2782 3470
2782 4376
2782 4695
2782 6586
2782 6671
2783 6884
2784 7588
2785 4368
2786 3066
2786 5566
2787 2892
2787 3042
2787 3121
2787 4000
2787 4309
2787 5200
2787 6003
2787 7339
2788 3390
2788 3589
2788 3596
2788 6777
2790 2835
2790 2933
2790 2934
2790 3069
2790 4860
2790 4904
2790 5174
2790 5928
2790 5988
2790 7001
2790 7141
2791 3968
2791 5582
2791 5694
2791 6077
2791 6326
2791 7237
2791 7252
2792 5128
2792 6530
2794 3446
2794 4304
2794 6515
2794 7232
2795 4241
2798 2825
2798 2949
2798 2980
2798 3125
2798 3161
2798 3644
2798 3701
2798 4086
2798 4198
2798 4373
2798 4809
2798 4891
2798 5079
2798 5090
2798 5312
2798 5369
2798 5402
2798 5688
2798 5934
2798 6140
2798 6168
2798 6193
2798 6369
2798 6666
2798 6695
2798 6789
2798 6891
2798 7012
2798 7375
2798 7547
2799 3755
2800 3079
2800 5303
2800 6180
2800 6941
2801 4785
2802 6769
2803 7071
2803 7550
2804 3554
2804 4680
2805 3279
2805 3477
2805 4183
2805 4284
2805 5541
2805 6602
2806 6884
2807 3767
2807 6794
2808 5274
2808 5454
2808 6195
2808 7610
2809 3457
2809 4408
2809 7592
2810 3265
2813 6173
2814 3097
2814 5461
2814 6168
2814 7499
2815 6960
2816 3544
2816 4348
2816 5263
2816 6160
2817 7327
2818 3341
2818 4034
2818 4461
2818 5401
2818 6519
2819 6415
2819 7032
2821 3983
2822 6817
2823 3530
2823 5139
2824 7602
2826 4931
2828 3715
2828 4785
2829 3450
2830 7028
2831 5010
2831 5489
2831 5820
2832 4146
2832 6148
2832 6566
2832 7046
2833 3802
2833 4379
2834 3553
2834 4040
2834 4285
2834 4322
2834 6710
2835 2933
2835 4723
2835 4893
2835 5047
2835 5174
2835 5355
2835 5731
2835 5848
2835 5857
2835 6001
2835 6298
2835 6565
2835 6958
2835 7144
2835 7406
2835 7533
2836 3006
2836 3632
2836 6207
2837 4277
2838 3598
2838 3604
2838 3897
2838 4104
2838 4358
2838 4626
2838 4888
2838 5647
2838 6640
2838 6652
2838 6731
2838 7287
2838 7468
2838 7475
2838 7579
2839 6402
2839 7207
2840 3530
2840 3667
2840 4125
2840 4765
2840 4880
2840 5060
2840 6847
2841 2941
2841 4785
2842 3497
2843 3384
2843 4141
2843 5578
2843 6339
2843 6446
2843 6734
2843 7186
2843 7416
2843 7435
2844 3687
2844 4099
2844 4225
2844 4811
2844 6399
2844 6530
2844 7028
2845 6960
2846 3198
2846 3504
2846 5703
2846 5854
2846 6361
2847 2878
2847 4759
2847 5944
2848 2977
2848 3047
2848 3597
2848 4365
2848 4754
2848 4919
2848 5536
2848 5556
2848 5854
2848 5944
2848 6523
2848 6552
2848 6797
2848 6870
2848 7237
2848 7548
2849 4003
2850 5578
2850 7113
2851 3793
2852 6062
2854 2888
2854 3010
2854 3124
2854 3240
2854 3275
2854 3330
2854 3547
2854 3587
2854 3619
2854 3626
2854 3914
2854 3928
2854 4189
2854 4338
2854 4365
2854 4392
2854 4411
2854 4483
2854 4501
2854 4575
2854 4590
2854 4690
2854 4738
2854 4941
2854 4995
2854 5120
2854 5127
2854 5133
2854 5137
2854 5319
2854 5447
2854 5454
2854 5489
2854 5516
2854 5799
2854 5817
2854 6022
2854 6023
2854 6041
2854 6121
2854 6172
2854 6214
2854 6460
2854 6528
2854 6537
2854 6644
2854 6651
2854 6684
2854 6826
2854 6914
2854 6978
2854 7035
2854 7178
2854 7229
2854 7305
2854 7366
2854 7396
2854 7551
2855 3016
2855 6903
2856 7135
2858 5694
2858 5769
2858 6193
2858 7237
2859 6617
2860 2944
2861 7502
2862 2895
2862 4769
2862 5423
2863 3822
2863 3855
2864 3103
2864 3414
2864 3470
2864 4491
2864 4985
2864 5108
2864 5600
2864 6111
2864 6446
2864 7225
2865 6296
2867 3273
2867 4089
2867 4929
2868 2908
2868 2973
2868 3310
2868 4291
2868 4465
2868 4662
2868 6344
2869 4811
2870 4841
2870 4891
2870 4917
2870 5176
2870 6326
2871 6221
2872 3751
2872 6279
2874 3530
2874 5274
2875 5370
2876 3597
2876 3644
2876 4665
2876 5079
2877 7109
2878 3108
2878 3240
2878 3397
2878 4242
2878 4754
2878 4792
2878 4809
2878 4843
2878 4883
2878 4900
2878 5090
2878 5530
2878 5556
2878 5831
2878 6105
2878 6141
2878 6789
2878 7187
2878 7237
2878 7398
2879 7094
2880 4383
2880 7340
2881 6194
2883 6971
2884 2933
2885 3470
2886 5836
2887 4000
2887 6514
2889 3103
2889 6339
2889 6882
2890 4777
2890 5427
2890 5677
2890 6536
2890 7585
2891 5463
2891 6101
2891 6323
2892 3038
2892 3224
2892 3269
2892 3352
2892 3361
2892 3400
2892 3555
2892 3653
2892 3747
2892 3836
2892 3937
2892 3945
2892 3946
2892 4119
2892 4309
2892 4554
2892 4561
2892 4614
2892 4763
2892 4955
2892 4961
2892 5013
2892 5168
2892 5212
2892 5326
2892 5328
2892 5405
2892 5497
2892 5510
2892 5526
2892 5579
2892 5670
2892 6115
2892 6490
2892 7123
2892 7237
2892 7339
2892 7498
2892 7608
2893 3450
2894 4783
2894 4785
2896 2936
2896 2938
2896 3140
2896 3296
2896 3437
2896 3606
2896 4088
2896 5065
2896 5324
2896 5526
2896 5925
2896 6529
2896 6575
2896 7350
2897 3295
2897 3530
2897 3818
2897 3829
2897 3873
2897 4125
2897 4536
2897 4876
2897 5098
2897 5127
2897 5245
2897 5314
2897 5636
2897 5734
2897 6054
2897 6057
2897 6157
2897 7254
2897 7488
2898 3162
2899 5455
2899 5463
2900 3737
2902 3021
2902 3955
2902 5340
2902 5855
2902 6744
2903 5206
2904 4963
2905 4337
2905 4393
2905 4747
2905 5579
2906 3437
2906 5832
2907 5642
2908 2988
2908 5441
2909 4785
2910 3060
2910 3277
2910 4152
2910 5706
2910 7147
2911 5455
2912 6519
2912 6583
2912 6656
2913 3267
2914 2988
2914 4811
2914 5735
2915 4359
2915 5921
2915 6688
2917 5574
2917 6877
2918 3470
2919 6519
2920 4811
2921 4756
2921 5068
2921 5415
2921 5449
2921 5463
2921 6273
2921 6800
2922 4650
2923 4785
2924 5540
2925 3445
2926 3418
2926 5274
2928 3499
2928 3544
2928 3597
2928 5494
2928 5854
2929 5370
2930 3582
2930 4160
2930 4336
2930 5910
2930 6180
2930 7534
2931 5899
2931 7100
2932 5277
2932 6755
2933 3377
2933 3508
2933 4931
2933 5047
2933 5575
2933 5857
2933 5988
2933 6217
2933 7141
2935 4525
2935 6542
2938 3757
2938 5065
2939 3861
2939 3969
2939 4559
2939 5265
2939 5807
2940 4232
2942 3544
2942 7198
2943 4111
2943 4890
2943 6292
2944 2998
2944 3005
2944 3347
2944 5654
2944 5675
2944 6476
2944 7334
2944 7604
2945 7173
2946 6633
2947 3781
2947 6538
2950 3714
2951 3960
2951 5646
2951 7110
2951 7320
2952 3813
2952 5192
2952 5432
2952 6107
2954 4751
2955 3281
2955 3715
2955 5710
2955 6519
2955 6597
2957 4496
2958 5536
2959 2987
2959 4900
2959 6979
2960 4328
2960 6392
2961 3378
2961 5876
2961 7556
2963 3416
2964 3724
2964 6817
2965 5060
2965 6560
2966 3428
2966 4033
2966 4929
2966 6088
2966 6297
2967 3530
2967 3873
2967 3900
2967 4125
2967 4163
2967 7056
2967 7602
2968 7519
2970 3378
2971 3325
2971 4105
2971 4446
2972 3158
2972 3437
2972 3822
2972 5053
2972 5277
2972 5324
2972 6419
2972 7352
2973 3905
2973 4023
2973 4291
2973 4414
2973 6020
2973 7098
2974 4071
2974 5006
2974 5267
2974 7100
2974 7427
2976 6712
2977 3251
2977 4271
2977 5817
2978 3071
2978 3873
2978 4095
2978 5245
2979 3103
2979 5895
2980 3130
2980 3644
2980 3896
2980 5388
2980 5822
2980 6108
2980 6649
2980 6764
2980 6891
2980 7075
2980 7237
2980 7425
2980 7529
2981 5510
2982 4904
2982 5174
2982 5857
2982 5988
2983 5377
2984 7295
2985 2991
2985 3129
2985 3632
2985 3809
2985 4657
2985 5378
2985 6207
2985 6427
2985 6458
2986 2995
2986 6888
2986 7595
2987 4900
2987 6979
2988 3646
2988 3880
2988 4152
2988 4261
2988 4262
2988 4302
2988 4471
2988 4637
2988 4995
2988 5007
2988 5441
2988 5653
2988 6896
2988 6966
2989 3127
2989 5851
2990 6474
2991 3129
2991 3632
2991 3809
2991 4636
2991 7615
2992 3172
2992 4341
2992 5816
2993 3880
2993 3972
2993 4102
2994 3530
2994 4125
2994 4270
2994 4319
2994 5245
2994 5464
2994 6114
2994 6218
2994 6245
2994 6267
2994 6599
2994 6946
2994 7602
2995 3058
2995 3216
2995 3285
2995 3295
2995 4433
2995 4502
2995 5127
2995 5859
2995 5862
2995 6955
2995 7142
2996 3780
2996 3953
2996 4329
2996 4443
2996 4806
2996 5532
2996 5848
2996 6175
2996 7296
2997 7381
2998 3045
2998 3469
2998 3927
2998 4544
2998 5875
2998 6271
2998 6623
2998 6799
2998 7215
2998 7334
2998 7604
2999 3956
3000 6688
3001 3349
3001 4798
3001 7605
3002 5941
3003 7339
3004 7078
3005 3362
3005 3865
3005 3920
3005 4175
3005 6201
3006 3093
3006 3632
3006 3809
3006 4636
3006 6207
3008 4128
3009 3705
3009 5101
3009 6870
3012 3064
3012 6272
3013 5513
3013 5700
3013 7558
3014 4338
3014 5775
3014 7226
3015 7268
3016 3110
3016 3722
3016 5640
3017 4760
3017 7557
3019 5655
3020 3453
3020 3820
3020 4085
3020 4257
3020 6088
3020 6572
3020 6617
3020 6919
3020 7052
3020 7554
3020 7614
3021 6083
3021 6120
3022 3044
3022 4528
3022 5147
3022 5370
3022 6219
3022 6478
3022 7444
3023 3544
3023 5561
3023 7383
3024 6101
3024 6434
3024 7416
3025 5278
3026 3963
3028 3530
3028 3900
3030 4785
3030 5159
3030 7224
3032 3334
3032 3783
3032 5866
3033 5447
3035 3966
3036 5610
3037 5127
3038 3157
3038 3194
3038 3228
3038 3360
3038 3400
3038 3555
3038 3653
3038 3679
3038 3747
3038 3836
3038 3945
3038 4000
3038 4035
3038 4122
3038 4350
3038 4366
3038 4390
3038 4549
3038 4614
3038 4804
3038 4955
3038 5015
3038 5171
3038 5220
3038 5579
3038 5597
3038 6025
3038 6089
3038 6477
3038 6514
3038 6682
3038 6706
3038 6787
3038 6832
3038 7123
3038 7200
3038 7224
3038 7443
3038 7498
3039 3450
3039 3650
3039 3880
3039 4225
3039 4261
3039 4307
3039 4387
3039 4811
3039 5028
3039 5274
3039 5634
3039 5718
3039 6258
3039 6399
3039 6431
3039 6478
3039 6617
3039 7595
3040 6593
3041 4785
3042 3121
3042 3360
3042 3747
3042 3945
3042 4000
3042 4122
3042 4247
3042 4955
3042 5220
3042 5326
3042 5510
3042 5597
3042 7123
3042 7498
3043 5345
3044 3081
3044 4528
3045 3282
3045 3564
3045 3599
3045 5188
3045 7604
3047 3240
3047 3294
3047 3688
3047 6552
3047 6789
3047 6895
3047 7237
3047 7282
3048 4338
3048 6884
3049 4081
3049 4307
3050 4785
3051 6757
3051 7230
3052 4033
3054 3091
3055 6478
3056 3448
3056 3559
3056 3584
3056 5761
3056 5824
3056 5893
3056 5988
3056 6455
3056 6712
3056 6752
3056 7059
3056 7141
3058 5216
3060 4693
3060 4740
3061 3557
3061 5355
3061 6442
3061 6712
3062 4637
3063 7284
3064 3637
3065 6855
3066 4257
3068 5201
3069 7540
3070 4760
3070 4965
3071 3426
3071 3991
3071 5274
3073 3737
3073 3751
3073 3880
3073 4939
3073 5065
3073 5194
3073 6177
3073 6368
3073 6589
3073 6899
3073 6943
3073 7146
3074 3628
3074 6370
3074 6711
3075 3136
3075 5277
3075 5876
3075 6004
3075 6363
3075 6378
3075 6529
3075 7162
3075 7350
3076 5951
3077 3466
3077 4338
3077 5483
3077 6028
3077 6211
3077 6335
3078 7339
3079 6180
3080 3103
3080 3497
3080 3620
3080 3636
3080 3689
3080 3932
3080 4432
3080 4691
3080 5445
3080 5578
3080 6002
3080 6101
3080 6672
3080 7173
3080 7411
3081 3251
3081 3594
3081 3597
3081 4891
3081 4900
3081 5688
3081 7226
3081 7237
3081 7398
3082 4154
3082 6970
3083 3632
3083 4359
3083 5235
3083 5454
3083 6876
3084 3496
3084 5060
3084 7255
3086 4211
3086 5078
3086 5511
3086 5570
3086 5862
3086 7602
3087 4155
3087 5856
3087 6365
3087 6582
3088 4432
3088 6122
3089 3632
3090 5387
3090 5564
3092 4744
3093 3856
3093 4269
3093 4359
3093 4563
3093 4636
3093 5420
3093 5921
3093 6852
3093 7350
3094 5049
3095 3450
3095 3876
3095 4036
3095 4502
3095 5127
3096 4338
3096 5241
3096 5587
3096 5918
3096 6887
3097 3462
3097 3757
3097 3853
3097 4330
3098 5037
3099 3201
3099 4409
3100 5372
3101 5974
3102 3269
3103 3279
3103 3714
3103 3722
3103 3817
3103 3852
3103 3932
3103 4147
3103 4162
3103 4228
3103 4248
3103 4280
3103 4595
3103 4756
3103 4786
3103 4814
3103 4994
3103 5072
3103 5095
3103 5108
3103 5207
3103 5463
3103 5468
3103 5578
3103 5658
3103 6016
3103 6069
3103 6101
3103 6323
3103 6339
3103 6367
3103 6446
3103 7100
3103 7131
3103 7231
3104 4039
3105 3514
3105 4632
3105 4986
3105 7472
3106 4124
3106 4806
3107 5454
3107 5963
3107 6165
3107 6432
3108 3334
3108 3544
3108 3644
3108 4754
3108 4809
3108 4843
3108 4883
3108 4900
3108 5090
3108 5124
3108 5530
3108 5556
3108 5769
3108 6108
3108 6140
3108 6391
3108 6654
3108 6891
3108 7548
3110 5233
3110 6446
3111 6250
3112 4599
3112 6567
3112 7216
3113 4900
3115 4356
3117 3176
3117 5208
3118 3557
3118 5355
3118 6161
3118 6442
3119 6874
3119 7559
3120 3564
3120 3599
3120 5765
3120 6155
3120 7405
3121 3341
3121 3360
3121 3945
3121 4000
3121 7224
3121 7289
3122 7497
3123 3625
3125 3743
3125 3757
3127 3345
3127 3412
3127 4318
3127 4370
3127 5152
3127 5508
3127 5764
3127 5851
3127 6768
3128 3833
3128 5010
3128 6134
3128 6207
3128 6408
3128 6593
3128 6876
3129 4636
3130 3514
3130 4039
3130 4145
3130 4398
3130 4607
3130 4986
3130 5159
3130 5829
3130 6035
3130 6330
3130 6454
3130 6491
3130 6519
3130 6568
3130 6860
3130 7209
3130 7507
3131 4738
3131 5136
3131 5384
3131 6477
3132 4616
3133 3597
3134 5330
3134 5610
3135 6174
3136 3430
3136 4330
3136 4704
3136 4856
3136 5556
3136 5790
3136 5832
3136 6004
3137 3661
3137 4706
3137 5177
3137 5659
3137 6042
3137 7060
3138 4636
3138 5001
3139 7450
3140 7162
3141 3589
3141 4217
3141 5026
3141 5527
3141 6171
3141 6415
3141 7320
3143 4338
3144 3584
3145 3594
3145 6558
3146 3956
3147 4549
3147 5733
3149 3572
3150 5006
3151 5335
3152 3401
3153 4068
3153 5710
3154 4528
3154 5370
3154 6808
3155 5277
3155 5876
3155 6329
3155 6378
3155 7352
3156 6496
3157 3769
3158 3528
3158 3822
3158 5215
3158 5236
3158 5610
3158 6305
3158 7015
3158 7162
3159 4272
3159 4955
3160 3680
3160 4549
3160 5658
3161 3701
3161 6891
3161 7237
3162 3360
3162 3400
3162 3990
3162 4000
3162 4519
3162 4928
3162 5606
3162 6851
3162 7224
3162 7498
3162 7608
3163 3530
3163 4673
3163 5555
3163 6046
3163 6058
3164 6867
3165 3240
3165 3397
3165 4754
3165 5090
3165 5269
3165 5548
3165 6105
3165 6391
3166 5561
3167 3991
3168 3696
3169 4033
3169 4148
3169 4929
3169 5244
3171 7237
3172 3321
3173 4301
3173 6241
3173 6668
3173 7502
3177 3461
3178 7052
3179 5376
3180 4033
3181 3542
3181 3851
3181 4284
3181 4511
3181 4720
3181 4898
3181 4916
3181 5536
3181 5726
3181 6174
3181 6427
3181 6441
3181 6648
3181 6824
3181 7141
3181 7256
3181 7260
3181 7488
3182 3325
3182 7153
3183 5418
3184 3450
3184 3530
3184 3883
3184 4163
3184 4319
3184 4385
3184 4425
3184 4832
3184 5599
3184 6955
3185 3833
3185 4757
3185 5120
3185 7558
3186 7199
3187 6519
3188 3450
3188 4637
3188 4889
3189 3381
3189 4298
3189 4452
3189 4726
3189 5227
3189 5274
3189 5663
3189 6938
3189 7448
3189 7587
3190 3972
3190 4531
3191 5962
3192 3937
3192 4908
3193 4031
3195 4785
3196 6598
3196 6652
3196 7579
3197 7032
3197 7211
3198 4335
3198 4557
3198 4908
3198 5222
3198 5854
3199 4033
3199 6088
3200 3670
3200 6421
3202 3628
3202 4785
3203 4880
3204 5610
3207 4845
3208 3544
3208 4062
3208 6398
3209 5355
3210 3433
3210 3507
3210 4146
3210 4208
3210 4243
3210 4359
3210 4657
3210 5243
3210 5454
3210 5566
3210 5790
3210 5892
3210 6412
3210 6419
3210 6432
3210 6566
3210 7256
3210 7615
3211 5240
3211 6523
3212 4852
3213 6752
3213 7064
3214 3672
3214 3798
3215 3647
3215 6319
3216 3667
3216 3895
3216 4125
3216 5127
3216 7093
3217 4000
3217 6678
3218 7237
3220 5634
3221 3435
3221 3571
3221 3850
3221 3962
3221 4078
3221 4327
3221 4534
3221 4589
3221 5292
3221 7080
3222 3450
3222 4254
3223 4329
3223 5112
3223 6323
3224 3768
3224 3853
3224 4393
3225 3426
3225 4042
3225 7528
3227 4033
3227 4130
3227 4555
3227 4600
3227 5173
3227 5671
3227 6190
3227 6235
3227 7009
3228 5597
3228 7339
3229 4187
3230 3469
3230 3920
3230 3926
3230 6476
3231 5224
3231 6755
3232 4470
3233 4819
3233 7390
3234 5240
3234 5610
3234 6411
3234 6845
3234 7162
3235 7019
3236 4922
3236 6481
3237 4177
3239 3679
3239 4527
3240 3256
3240 3498
3240 3499
3240 3504
3240 3644
3240 3869
3240 3882
3240 3961
3240 4069
3240 4086
3240 4092
3240 4281
3240 4325
3240 4809
3240 4843
3240 4910
3240 5079
3240 5090
3240 5332
3240 5402
3240 5530
3240 5548
3240 5703
3240 5769
3240 5854
3240 5915
3240 5944
3240 6036
3240 6108
3240 6369
3240 6391
3240 6681
3240 6695
3240 6792
3240 6870
3240 6891
3240 7226
3240 7237
3240 7282
3240 7284
3241 4811
3241 7332
3242 5842
3244 6649
3245 5646
3246 4274
3247 3786
3247 3822
3247 5102
3247 5277
3247 7162
3248 4855
3249 4031
3249 5389
3249 5463
3250 6495
3251 3878
3251 3882
3251 5077
3251 5388
3251 5536
3251 5556
3251 5559
3251 5854
3251 5944
3251 6219
3251 6234
3251 6236
3251 6552
3251 6607
3251 6697
3251 6797
3251 6870
3251 6931
3251 7187
3251 7237
3251 7460
3251 7490
3252 4053
3253 5793
3254 6405
3257 5169
3258 6101
3259 4958
3260 5246
3260 6303
3262 6234
3262 7237
3263 3687
3264 3657
3264 4069
3264 6343
3264 6841
3264 7237
3265 4076
3265 5586
3265 6190
3266 3822
3266 4087
3266 6207
3267 4354
3267 4420
3267 6745
3268 5908
3269 3360
3269 6705
3270 4162
3270 6101
3272 3612
3272 4785
3273 3330
3273 4033
3273 4929
3273 4941
3273 5371
3278 6705
3279 4141
3279 4572
3279 5095
3279 5485
3280 5454
3281 4238
3281 5664
3281 6519
3282 3599
3282 4544
3282 5347
3282 6757
3282 7405
3282 7604
3283 4120
3283 4335
3283 6496
3285 4502
3285 5549
3285 6921
3285 7368
3286 7237
3287 5775
3288 5521
3288 6436
3289 7237
3290 5280
3291 4476
3291 4959
3291 7071
3293 4008
3293 4455
3293 6446
3293 6877
3294 7237
3295 4319
3295 4536
3296 3855
3296 6903
3296 7162
3296 7352
3299 5740
3300 5195
3300 6672
3300 7088
3301 5381
3302 5725
3302 6446
3303 3571
3303 5396
3303 5930
3305 3684
3305 6646
3305 6692
3305 6927
3308 3336
3309 4138
3309 6241
3311 5208
3311 6784
3312 5065
3313 6099
3314 3463
3314 3736
3314 4738
3314 7061
3314 7601
3315 4357
3315 5463
3315 6060
3317 5370
3317 6478
3317 6664
3317 7028
3317 7607
3318 3663
3318 3932
3320 5812
3320 5884
3322 7237
3323 7579
3324 5658
3324 6101
3325 3793
3325 4105
3325 7550
3327 4034
3327 5854
3327 6051
3327 7442
3328 5807
3329 4344
3330 3552
3330 3812
3330 4033
3330 4319
3330 4341
3330 4475
3330 4483
3330 4555
3330 4929
3330 4941
3330 5450
3330 6259
3330 7009
3330 7262
3331 6809
3332 5543
3333 3499
3333 3597
3333 5854
3333 7226
3334 5269
3334 5369
3334 5564
3334 5729
3334 5854
3334 6146
3334 6168
3334 6391
3335 3511
3335 5583
3335 6621
3336 6073
3336 6321
3337 7237
3338 3597
3338 5402
3339 6984
3339 7553
3340 3520
3340 4527
3340 5200
3341 3394
3341 3603
3341 3653
3341 3824
3341 3826
3341 3937
3341 4034
3341 4122
3341 4523
3341 4561
3341 4915
3341 4928
3341 5334
3341 5484
3341 5606
3341 5635
3341 5811
3341 6514
3341 6883
3341 7083
3341 7237
3342 3438
3342 3450
3342 3505
3342 3533
3342 3667
3342 3873
3342 4163
3342 4206
3342 4452
3342 4782
3342 5205
3342 5274
3342 6054
3342 6648
3342 7401
3342 7423
3342 7488
3342 7526
3344 3373
3344 4627
3344 5814
3345 5764
3346 4155
3346 4476
3346 4992
3346 7474
3347 5675
3348 4217
3348 4466
3348 4762
3348 5646
3348 7600
3349 3389
3349 3421
3349 5583
3349 5725
3350 4023
3350 5072
3350 5242
3350 6206
3350 6546
3350 6743
3352 3360
3352 3400
3352 3747
3352 3946
3352 4990
3352 7123
3352 7177
3354 6942
3355 5728
3355 6208
3357 4811
3357 6463
3358 5508
3359 4329
3359 5440
3359 5578
3359 6175
3359 6773
3359 7522
3360 3555
3360 3653
3360 3747
3360 3836
3360 3937
3360 3946
3360 4000
3360 4119
3360 4122
3360 4337
3360 4525
3360 4549
3360 4554
3360 4561
3360 4614
3360 4763
3360 4785
3360 5168
3360 5326
3360 5336
3360 5510
3360 5526
3360 5597
3360 5670
3360 6605
3360 6787
3360 6794
3360 7339
3361 3747
3361 4000
3361 4393
3361 5526
3364 4167
3364 4348
3364 5260
3364 6116
3365 7580
3367 3948
3367 4312
3367 4528
3368 3460
3368 4469
3368 5277
3368 7469
3369 3563
3369 4811
3370 4490
3370 4493
3370 7044
3371 3632
3371 4359
3372 4416
3373 5179
3373 6246
3373 6564
3374 3861
3374 5042
3374 5069
3374 5302
3375 4279
3375 4929
3377 4180
3377 4396
3377 4606
3377 4904
3377 6217
3377 6818
3379 4157
3379 5126
3379 5476
3379 7146
3379 7351
3380 3751
3380 4811
3381 3450
3381 3530
3381 3544
3381 3807
3381 4163
3381 4452
3381 4678
3381 4726
3381 4989
3381 5127
3381 5202
3381 5663
3381 5823
3381 5948
3381 5969
3381 6112
3381 6245
3381 6638
3381 6673
3381 6888
3381 7366
3381 7385
3381 7569
3381 7587
3382 4558
3382 4766
3382 6180
3383 6316
3385 3998
3385 5939
3386 3929
3387 3896
3387 5568
3387 5866
3387 6105
3387 6912
3388 4785
3389 4947
3389 5578
3389 7001
3389 7288
3390 5443
3390 5451
3390 5857
3390 6217
3390 6298
3390 6455
3391 3853
3391 7437
3392 6821
3392 6870
3394 7339
3395 4694
3395 6833
3396 5422
3396 6463
3397 3961
3397 4809
3397 4908
3397 5090
3397 5124
3397 5402
3397 5556
3397 6105
3397 6108
3397 6361
3397 7237
3399 3678
3399 4728
3399 5047
3399 5612
3399 5683
3399 5957
3399 6074
3399 6175
3399 6249
3399 6818
3399 6842
3399 7033
3400 3603
3400 3612
3400 3653
3400 3715
3400 3747
3400 3946
3400 4000
3400 4034
3400 4119
3400 4554
3400 4632
3400 5334
3400 5526
3400 5579
3400 5768
3400 5985
3400 6519
3400 6860
3400 7067
3400 7224
3400 7237
3400 7563
3401 4623
3401 6887
3402 5831
3402 6697
3403 6660
3403 7365
3404 4187
3404 4330
3404 5065
3404 5676
3404 6300
3405 4843
3405 4908
3405 5369
3405 6142
3406 5239
3406 6779
3408 3544
3408 4335
3408 5033
3408 6108
3408 6361
3408 7237
3409 5537
3410 3454
3410 3545
3410 3565
3410 3852
3410 4162
3410 4710
3410 4927
3410 4994
3410 5162
3410 5455
3410 6101
3410 6126
3410 6446
3410 6754
3410 6767
3410 7100
3410 7183
3410 7191
3411 3755
3411 3854
3411 4466
3411 4868
3411 4880
3411 5646
3411 7462
3412 5152
3413 3571
3413 4589
3414 6446
3416 4013
3416 6666
3417 4549
3417 6873
3418 3737
3418 3991
3418 4125
3418 4724
3418 5274
3418 5914
3418 5996
3418 6415
3418 6949
3418 7482
3420 5733
3422 4308
3422 6075
3423 3643
3423 5708
3424 5676
3424 6065
3425 4811
3426 5646
3426 6421
3427 4280
3427 5006
3427 5267
3427 6199
3428 4033
3430 3822
3430 3855
3430 4577
3430 5324
3430 5446
3430 5815
3430 5832
3430 5876
3430 6222
3430 6312
3430 7352
3431 6082
3431 6794
3432 6022
3435 6078
3435 6990
3436 3825
3436 6913
3437 3845
3437 3855
3437 4704
3437 4755
3437 5206
3437 5801
3437 5874
3437 5876
3437 6378
3437 6419
3437 6758
3437 7046
3438 3530
3439 3958
3439 4314
3439 5127
3439 5454
3439 7167
3440 4087
3440 5277
3440 6196
3440 6300
3440 6419
3440 6574
3440 6575
3440 7046
3441 6509
3442 4452
3443 3639
3444 4031
3444 7114
3445 3513
3445 3888
3445 3957
3445 4254
3445 7165
3446 4304
3446 4324
3446 4338
3447 6330
3449 4375
3449 5012
3450 3533
3450 3667
3450 3790
3450 3832
3450 3867
3450 3873
3450 3895
3450 3910
3450 4095
3450 4125
3450 4163
3450 4211
3450 4319
3450 4334
3450 4685
3450 4752
3450 4765
3450 4767
3450 4775
3450 4799
3450 4801
3450 4874
3450 4876
3450 4880
3450 4946
3450 5043
3450 5127
3450 5205
3450 5245
3450 5274
3450 5394
3450 5411
3450 5476
3450 5534
3450 5625
3450 5646
3450 5666
3450 5684
3450 5701
3450 5883
3450 6195
3450 6334
3450 6540
3450 6548
3450 6673
3450 6724
3450 6921
3450 6938
3450 6955
3450 6973
3450 6985
3450 6999
3450 7125
3450 7190
3450 7228
3450 7323
3450 7368
3450 7401
3450 7488
3450 7497
3450 7526
3450 7610
3451 6391
3452 6732
3452 7074
3453 4811
3453 6562
3454 7491
3455 3650
3458 3633
3459 5314
3460 5235
3461 3544
3461 4494
3462 3509
3462 5370
3462 5461
3462 5985
3462 6378
3463 4361
3463 4738
3463 6477
3463 7392
3465 6141
3466 6289
3468 3725
3468 3884
3468 6477
3469 3500
3469 4544
3469 4612
3469 5491
3469 6167
3469 6270
3469 6476
3469 7334
3469 7410
3469 7604
3470 4628
3470 5163
3470 6101
3470 6854
3471 3597
3471 4754
3471 5279
3472 3949
3473 4570
3473 7024
3474 3928
3475 3608
3475 7515
3476 7022
3478 7527
3480 4900
3481 4153
3481 4356
3482 6025
3483 4632
3483 4785
3483 7464
3484 4081
3485 4649
3486 4338
3487 4026
3489 7600
3490 6455
3491 5421
3492 3571
3493 6139
3494 3948
3494 5370
3495 4785
3495 5159
3496 5060
3496 7255
3497 4376
3497 4691
3497 6101
3499 3544
3499 3597
3499 4843
3499 4900
3499 4979
3499 5479
3499 5494
3499 6108
3499 6146
3499 6792
3499 7237
3500 4924
3500 5675
3500 6757
3501 4257
3501 5835
3502 4749
3502 5047
3502 5731
3502 5857
3503 5212
3504 3544
3504 4900
3504 5392
3504 5559
3504 5854
3504 6105
3504 6108
3504 6361
3504 6403
3504 6552
3504 6639
3504 7075
3504 7284
3506 4811
3507 5206
3507 7287
3507 7459
3508 5174
3509 4785
3509 5370
3509 5775
3509 5803
3509 6478
3509 7301
3510 3597
3510 4908
3510 5564
3510 6403
3510 6891
3512 6476
3513 4880
3514 4527
3514 4607
3514 5335
3514 6625
3514 6860
3516 4476
3516 6284
3516 7071
3518 3594
3518 5431
3518 6654
3519 6648
3519 6955
3520 3862
3520 4632
3520 4852
3520 5160
3520 5572
3520 5685
3520 6166
3520 6702
3520 7177
3521 4175
3521 5178
3521 6623
3522 5604
3523 3755
3523 7079
3524 5411
3526 3643
3526 5708
3526 6439
3526 6461
3526 7598
3527 5896
3527 7266
3527 7537
3528 3585
3528 4515
3528 5139
3528 6136
3528 6786
3528 7129
3530 3538
3530 3589
3530 3596
3530 3667
3530 3720
3530 3737
3530 3751
3530 3755
3530 3771
3530 3801
3530 3854
3530 3900
3530 3991
3530 4051
3530 4085
3530 4123
3530 4125
3530 4163
3530 4254
3530 4270
3530 4298
3530 4323
3530 4387
3530 4436
3530 4502
3530 4504
3530 4536
3530 4707
3530 4726
3530 4745
3530 4782
3530 4811
3530 4818
3530 4876
3530 4892
3530 4946
3530 4960
3530 5127
3530 5139
3530 5205
3530 5216
3530 5227
3530 5274
3530 5309
3530 5410
3530 5411
3530 5538
3530 5549
3530 5550
3530 5555
3530 5557
3530 5680
3530 5687
3530 5706
3530 5734
3530 5852
3530 5900
3530 5935
3530 5948
3530 6050
3530 6095
3530 6118
3530 6169
3530 6267
3530 6319
3530 6463
3530 6577
3530 6674
3530 6717
3530 6738
3530 6874
3530 6935
3530 6955
3530 7030
3530 7165
3530 7311
3530 7377
3530 7381
3530 7385
3530 7413
3530 7482
3530 7487
3530 7488
3532 4384
3533 4782
3533 6054
3534 7071
3535 4994
3536 4333
3536 4343
3536 6887
3538 7518
3539 4599
3539 4819
3540 6467
3541 7049
3542 3994
3542 7156
3543 6564
3544 3597
3544 3611
3544 3692
3544 3961
3544 4086
3544 4191
3544 4240
3544 4335
3544 4477
3544 4494
3544 4809
3544 5064
3544 5090
3544 5110
3544 5362
3544 5556
3544 5854
3544 6105
3544 6108
3544 6146
3544 6147
3544 6296
3544 6361
3544 6398
3544 6403
3544 6633
3544 6666
3544 6789
3544 6841
3544 7075
3544 7237
3544 7566
3545 6754
3545 6767
3546 7493
3547 4039
3547 4469
3547 6488
3548 4060
3548 5377
3549 4348
3550 3661
3550 5284
3550 7415
3550 7416
3551 5043
3552 7248
3553 6859
3554 3595
3554 6030
3554 6323
3555 3653
3555 3853
3555 4549
3555 5052
3555 5497
3555 5526
3555 6261
3555 6873
3555 7339
3556 6146
3557 4931
3557 5047
3557 5355
3557 5857
3557 6298
3557 6712
3557 7001
3557 7315
3558 6274
3559 4230
3559 4931
3559 5514
3559 5988
3559 6712
3559 7029
3560 4809
3560 7203
3561 6115
3561 7225
3562 6287
3563 4811
3564 3920
3564 3926
3564 4175
3564 5132
3564 5178
3564 5347
3564 5962
3564 6270
3564 6476
3564 6757
3564 7215
3564 7334
3564 7405
3565 4947
3565 4994
3565 5135
3565 5485
3565 5600
3565 6101
3565 7088
3566 4919
3566 5402
3566 6032
3566 6695
3566 7548
3567 4371
3567 6483
3567 7158
3568 3597
3568 4563
3569 3731
3569 3793
3569 4105
3569 4421
3569 7199
3570 3891
3571 3850
3571 4589
3571 5095
3571 5292
3571 6016
3571 6783
3571 6813
3571 7001
3571 7080
3571 7199
3571 7584
3573 5110
3573 6998
3574 4847
3574 4963
3574 6241
3575 4627
3575 4807
3576 4206
3577 5966
3578 3670
3579 5960
3580 6023
3580 6296
3581 3755
3581 5800
3581 5868
3581 7497
3582 3759
3582 4512
3582 7534
3584 3675
3584 4190
3584 4206
3584 4591
3584 4691
3584 4875
3584 4914
3584 5165
3584 5581
3584 5643
3584 5705
3584 5833
3584 6066
3584 6255
3584 6297
3584 6640
3584 6657
3584 6913
3584 7060
3584 7299
3585 6269
3585 6882
3586 3918
3588 6425
3588 7362
3589 5026
3590 6723
3593 7502
3594 3948
3594 5370
3594 6695
3594 6975
3595 6030
3595 6323
3595 7100
3596 4261
3596 4895
3596 5518
3596 5646
3596 7596
3597 3644
3597 3869
3597 3961
3597 4086
3597 4306
3597 4527
3597 4754
3597 4772
3597 4809
3597 4900
3597 4908
3597 5079
3597 5090
3597 5114
3597 5124
3597 5176
3597 5412
3597 5530
3597 5548
3597 5703
3597 5769
3597 5854
3597 5944
3597 6100
3597 6105
3597 6146
3597 6234
3597 6523
3597 6621
3597 6639
3597 6649
3597 6764
3597 6870
3597 6891
3597 6930
3597 6931
3597 7075
3597 7391
3598 4164
3598 6662
3598 7579
3599 3926
3599 6155
3599 6476
3599 7477
3600 4880
3601 4825
3603 4122
3603 4309
3603 5220
3603 6003
3603 6096
3603 7224
3606 6420
3606 7050
3606 7162
3607 5461
3609 5454
3609 6359
3610 3700
3610 3991
3610 5441
3610 6088
3610 6466
3612 5335
3612 5963
3612 6519
3613 5325
3613 5788
3613 6141
3614 4039
3614 4240
3614 4267
3614 4317
3614 4412
3614 5775
3614 6595
3614 6613
3614 7557
3615 4647
3615 4886
3616 3680
3616 5108
3616 5658
3616 5805
3617 4406
3617 4900
3617 7261
3617 7328
3618 4821
3620 3733
3620 4355
3620 5095
3620 5938
3621 6666
3622 6519
3623 4959
3624 4347
3624 6120
3624 7063
3625 3687
3625 5716
3625 7185
3626 3691
3628 4808
3632 3809
3632 4269
3632 4636
3632 5378
3632 5454
3632 6207
3632 6645
3632 6852
3632 7488
3633 4955
3633 5212
3633 7090
3634 4359
3635 4811
3636 5108
3636 5468
3636 6012
3636 6446
3636 6604
3637 4359
3638 3650
3638 5014
3638 5682
3639 3666
3641 4130
3641 7030
3641 7165
3642 3670
3642 4436
3642 5341
3642 6163
3643 5253
3643 5708
3643 5714
3643 6439
3643 6461
3643 7598
3644 3961
3644 4809
3644 5090
3644 5402
3644 6108
3644 6579
3644 7237
3644 7398
3644 7547
3647 4248
3647 4899
3647 5425
3647 5604
3647 6252
3647 6380
3647 7435
3648 6146
3649 5127
3650 4298
3650 4536
3650 4650
3650 5534
3650 5663
3650 6888
3650 7487
3651 4026
3651 4470
3652 5854
3653 3773
3653 3826
3653 3937
3653 3946
3653 4309
3653 4337
3653 4550
3653 4561
3653 4997
3653 5003
3653 5635
3653 6712
3653 6883
3653 7083
3653 7266
3653 7339
3653 7608
3654 6453
3655 3786
3655 3855
3655 4720
3655 6241
3655 7256
3657 5370
3659 3961
3659 5176
3659 5402
3659 5831
3659 7237
3659 7282
3662 7056
3663 3907
3665 6120
3666 3839
3666 3880
3666 4811
3666 5646
3666 5706
3666 6431
3666 6722
3666 7376
3667 4125
3667 4275
3667 6181
3668 7199
3669 4467
3669 5402
3669 5759
3669 6105
3669 6140
3670 4121
3670 4261
3670 4338
3670 4775
3670 4876
3670 5158
3670 5245
3670 5702
3670 6163
3670 6468
3670 6679
3670 6692
3671 3905
3671 4023
3671 6641
3671 7098
3672 3798
3672 4124
3672 4978
3672 5532
3672 6220
3672 6877
3672 7122
3674 6020
3674 6476
3676 6685
3677 4602
3678 6074
3678 6249
3678 7122
3678 7565
3679 3853
3679 4038
3679 4785
3679 5210
3679 5717
3679 6621
3679 6860
3679 7379
3680 5540
3680 5658
3681 5944
3681 7237
3681 7263
3682 3970
3682 6069
3683 3855
3684 5702
3685 4587
3686 4735
3686 5379
3687 5139
3687 5278
3687 6547
3688 6020
3692 4165
3692 4452
3692 7339
3693 6840
3694 4666
3694 4716
3694 5857
3694 6001
3694 7533
3694 7536
3694 7560
3695 4632
3695 5041
3696 6562
3697 7162
3698 5862
3698 6921
3698 7368
3701 3708
3701 3878
3701 3948
3701 4754
3701 4813
3701 4935
3701 4967
3701 5062
3701 5079
3701 5082
3701 5370
3701 5564
3701 5688
3701 5713
3701 5769
3701 5822
3701 6036
3701 6236
3701 6478
3701 6642
3701 6764
3701 7237
3701 7490
3702 4797
3702 7541
3703 5488
3703 5856
3705 3984
3705 4122
3705 5454
3705 5597
3705 7123
3706 5670
3707 6731
3708 4321
3708 5479
3708 6146
3712 4786
3712 7485
3714 4631
3714 5095
3714 7100
3715 4532
3715 4607
3715 4632
3715 5966
3715 6237
3715 6470
3715 6621
3716 4122
3716 4549
3716 4614
3716 5966
3716 6103
3717 3751
3718 7313
3719 7219
3720 4652
3720 5205
3720 7214
3721 5927
3721 7504
3722 4280
3722 5192
3722 5364
3722 7416
3724 4625
3724 6817
3725 3977
3725 4006
3725 4232
3725 4393
3725 5670
3725 5977
3725 7123
3725 7498
3725 7601
3726 5578
3727 5139
3730 4455
3731 4421
3732 4444
3732 4507
3734 6716
3735 5455
3736 3977
3736 6514
3737 3807
3737 4047
3737 4533
3737 4788
3737 5274
3737 5914
3737 6185
3737 6949
3737 7336
3738 4065
3738 4544
3738 6155
3738 6476
3738 6804
3738 7405
3740 4814
3741 5532
3741 7403
3742 3757
3742 6300
3743 6654
3744 4929
3747 4961
3747 7224
3748 5311
3748 5754
3748 6241
3748 6471
3750 3910
3750 4136
3750 4678
3750 4726
3750 4895
3750 6724
3750 7461
3751 3764
3751 4332
3751 4811
3751 4836
3751 5127
3751 5274
3751 5404
3751 5454
3751 5847
3751 6314
3751 6566
3751 6861
3752 4852
3752 7097
3753 4935
3754 7383
3755 4095
3755 4275
3755 4286
3755 4762
3755 5094
3755 5128
3755 5394
3755 5633
3755 5744
3755 5907
3755 6315
3755 7497
3755 7618
3756 5063
3756 5176
3756 6146
3756 6193
3756 7237
3757 3855
3757 5014
3757 5065
3757 5074
3757 6529
3757 6709
3757 6964
3757 7162
3757 7369
3758 4811
3758 6566
3759 5051
3759 5181
3759 6256
3760 5501
3760 6621
3761 7126
3762 4811
3765 5050
3766 6092
3766 6712
3766 6785
3766 6812
3766 7033
3767 3977
3767 6769
3767 6881
3768 5212
3769 7204
3770 5346
3771 4811
3773 4785
3773 4999
3773 5335
3773 5966
3774 3784
3774 5346
3774 5895
3774 6859
3774 7450
3775 7199
3776 4785
3777 4499
3777 4569
3777 5821
3777 6519
3778 6757
3779 4607
3779 5966
3780 6016
3782 6160
3783 4479
3783 5747
3784 4793
3785 5670
3786 4146
3786 4438
3786 4511
3786 4720
3786 6991
3786 7256
3787 7158
3788 6147
3789 4555
3789 4941
3790 6673
3790 6999
3792 4408
3792 5390
3793 4249
3793 5605
3795 6703
3796 7211
3797 4873
3798 4328
3798 4455
3798 5449
3798 6802
3798 6842
3799 3859
3799 5754
3800 4811
3800 6816
3802 4379
3802 5372
3803 7030
3803 7502
3804 6446
3804 6718
3805 5036
3806 4691
3807 4298
3807 4375
3807 4387
3807 4788
3807 5261
3807 5274
3807 5348
3807 5626
3807 6370
3807 6673
3809 4359
3809 5420
3809 6207
3810 4447
3810 5851
3810 6416
3811 4356
3811 6098
3812 5516
3813 5108
3813 7235
3814 7284
3817 3911
3818 4422
3818 6450
3819 7387
3820 4042
3820 5744
3820 7554
3822 4126
3822 4146
3822 4522
3822 4657
3822 5577
3822 5790
3822 5892
3822 6207
3822 6329
3822 6463
3822 6876
3822 6903
3822 7015
3822 7020
3822 7162
3822 7256
3822 7350
3822 7469
3823 4994
3823 7013
3824 5334
3824 5510
3824 7224
3826 3946
3826 4000
3826 4337
3826 4561
3826 5579
3826 7224
3827 6580
3828 7339
3829 4560
3829 7138
3830 3860
3830 4085
3830 7597
3831 6828
3832 4125
3832 5557
3833 4359
3833 4511
3833 4657
3833 4720
3833 5314
3833 5830
3833 5892
3833 5993
3833 6148
3833 6202
3833 6207
3833 6408
3833 6687
3833 6967
3833 6991
3833 7294
3834 6361
3835 4994
3835 5429
3836 3884
3836 3946
3837 6884
3839 5742
3842 5455
3842 6544
3843 5562
3844 5219
3845 3855
3845 4146
3845 4359
3845 4653
3845 4676
3845 4701
3845 4755
3845 4934
3845 5029
3845 5314
3845 5454
3845 5610
3845 5790
3845 5892
3845 5921
3845 6202
3845 6207
3845 6427
3845 6637
3845 6845
3845 6991
3845 7182
3845 7256
3845 7294
3845 7352
3845 7489
3847 6427
3848 5564
3849 4544
3850 4327
3850 4589
3850 6078
3850 7080
3850 7584
3852 5308
3852 5455
3852 5457
3852 5485
3852 5867
3852 6067
3852 6126
3852 6323
3853 4035
3853 4112
3853 4393
3853 4549
3853 4622
3853 4783
3853 5015
3853 5166
3853 6003
3853 6089
3853 6096
3853 6878
3853 6925
3853 7492
3854 4771
3854 5534
3854 5611
3854 5632
3854 5894
3854 7607
3855 4126
3855 4629
3855 4865
3855 4934
3855 5236
3855 5324
3855 5330
3855 5610
3855 5909
3855 5921
3855 6047
3855 6312
3855 7162
3855 7194
3855 7552
3857 7121
3858 5455
3858 6622
3859 4778
3859 6101
3860 5422
3860 7595
3861 4744
3861 4886
3861 5349
3861 5628
3861 5888
3861 6341
3861 7365
3862 5335
3862 6306
3862 7317
3863 3907
3864 5355
3864 6616
3865 7334
3867 5043
3867 5211
3869 4919
3873 4106
3873 4125
3873 4163
3873 4206
3873 4254
3873 4876
3873 4880
3873 4900
3873 4950
3873 5411
3873 5454
3873 5534
3873 5555
3873 5941
3873 6505
3873 6724
3873 6955
3873 7065
3873 7381
3873 7564
3873 7587
3873 7592
3874 6817
3875 4324
3875 4673
3876 5127
3876 5823
3877 4180
3877 4292
3877 5881
3877 6111
3878 7490
3879 6738
3880 6431
3881 6377
3882 4144
3882 4754
3882 4908
3882 5090
3882 7507
3886 3977
3888 4042
3888 4788
3888 4811
3888 6431
3889 5589
3892 4785
3893 5764
3893 6416
3894 7381
3895 6955
3895 7401
3895 7482
3896 5866
3897 7468
3898 5359
3898 5455
3898 6446
3899 5324
3900 4125
3900 4163
3900 4319
3900 5127
3900 5823
3900 6054
3900 6955
3900 7488
3900 7595
3901 6062
3902 4124
3903 6817
3904 4785
3905 4414
3905 4465
3905 4579
3905 5383
3905 7098
3905 7467
3907 5621
3909 4621
3910 4484
3910 5274
3910 5543
3910 5647
3911 5455
3911 5578
3912 3986
3912 5159
3912 5343
3912 5673
3912 6313
3912 6519
3913 4795
3915 4985
3915 7164
3916 4132
3917 4737
3918 4880
3918 6125
3918 6940
3919 5817
3920 4544
3920 4612
3920 4984
3920 5675
3920 5872
3920 6476
3920 6757
3920 6799
3920 6814
3920 6942
3920 7014
3920 7230
3921 4338
3921 6186
3921 6421
3921 6520
3921 7545
3921 7607
3922 3984
3922 6490
3923 5370
3926 4065
3926 6476
3926 6757
3926 7405
3927 4717
3927 5875
3927 6167
3927 6623
3927 7014
3928 7542
3929 5223
3930 7597
3931 4007
3931 6899
3932 4228
3932 5207
3932 6101
3932 6179
3932 7553
3933 6328
3936 5623
3941 6365
3942 4183
3942 5594
3942 6782
3942 7363
3943 5343
3944 5232
3944 5463
3945 6094
3945 6895
3946 4000
3946 4151
3946 4309
3946 4961
3946 4990
3946 5334
3946 6682
3946 7224
3948 4108
3948 4118
3948 4479
3948 4528
3948 4967
3948 5096
3948 5461
3948 6236
3948 6478
3948 7611
3949 4925
3949 7209
3950 5612
3950 6712
3950 6812
3952 7339
3953 4124
3953 4329
3953 4443
3953 4642
3953 4806
3953 6367
3954 6725
3954 7139
3955 4941
3956 4338
3956 4623
3956 5918
3957 3999
3957 4121
3957 5394
3957 7032
3959 6685
3960 5646
3960 6920
3961 4083
3961 4809
3961 4880
3961 5402
3961 6105
3961 6108
3961 6236
3961 6789
3961 6891
3961 7237
3962 4570
3962 6990
3962 7584
3964 4439
3964 5414
3964 7192
3966 4004
3966 7351
3966 7412
3967 5017
3967 7331
3967 7522
3967 7565
3968 6543
3968 6870
3968 7237
3969 4558
3969 4705
3969 4937
3969 5072
3969 5922
3969 6021
3970 5561
3970 5630
3970 6886
3971 4988
3971 7406
3972 4531
3973 6232
3974 6108
3974 6146
3976 5465
3977 5125
3977 6881
3978 6101
3979 4198
3979 4356
3979 5062
3979 6241
3979 6891
3979 7351
3980 4455
3980 4572
3980 7092
3981 5607
3982 7058
3983 7351
3984 6460
3986 4309
3986 4532
3986 4563
3986 5343
3986 6568
3986 7508
3987 5706
3987 5876
3987 5894
3987 5949
3987 7607
3988 7579
3989 4681
3989 5831
3990 4309
3990 4337
3991 4811
3991 5323
3991 5601
3991 5665
3991 6319
3991 6657
3991 6853
3993 4555
3994 4380
3994 4916
3994 5314
3994 5543
3994 5997
3995 4162
3995 5308
3995 6101
3995 7383
3996 7237
3997 4000
3998 7031
3999 6278
3999 7032
3999 7079
4000 4035
4000 4098
4000 4151
4000 4337
4000 4393
4000 4403
4000 4561
4000 4614
4000 4763
4000 5220
4000 5326
4000 5484
4000 5510
4000 5526
4000 5606
4000 6094
4000 6103
4000 6261
4000 6445
4000 6759
4000 6883
4000 7025
4000 7339
4000 7498
4000 7608
4001 4251
4001 4356
4001 7243
4002 5623
4002 5807
4002 6180
4003 4198
4003 5062
4003 5079
4003 6017
4003 6409
4004 4868
4006 4224
4006 5670
4007 4216
4007 4319
4007 4387
4007 5028
4007 5127
4008 5455
4008 7435
4009 5142
4010 6085
4012 5346
4012 5393
4013 4069
4013 5367
4013 5822
4013 6140
4013 6141
4013 6142
4013 6146
4013 6621
4013 6797
4013 6891
4014 6839
4015 5377
4017 7203
4018 5370
4019 4447
4019 5508
4019 5764
4019 6626
4019 6768
4019 6911
4020 4146
4020 4720
4020 5314
4021 4044
4021 4500
4021 5413
4021 5703
4021 6369
4023 4291
4023 4579
4023 4662
4023 4907
4023 5429
4024 4146
4024 5314
4024 6408
4024 6427
4025 7579
4031 7106
4032 4477
4032 4691
4032 4793
4032 5360
4032 7359
4032 7427
4033 4130
4033 4300
4033 4319
4033 4555
4033 4600
4033 4929
4033 5134
4033 5254
4033 5259
4033 5371
4033 5671
4033 6190
4033 6235
4033 6259
4033 6836
4033 7009
4033 7163
4033 7513
4034 4915
4034 6490
4034 6851
4035 6514
4036 4101
4036 4163
4036 5454
4036 7251
4038 5210
4038 5695
4038 7090
4039 4319
4039 4365
4039 4843
4039 4979
4039 5199
4039 5418
4039 5509
4039 5802
4039 7396
4040 5895
4042 4426
4042 4466
4042 4762
4042 5632
4042 5646
4042 5665
4042 5682
4043 4785
4043 6519
4046 4994
4046 6002
4047 5914
4048 4470
4050 7062
4051 5008
4053 4975
4053 5842
4053 7459
4055 5674
4055 5747
4056 6369
4056 7237
4057 7032
4057 7079
4058 4073
4058 4721
4058 5111
4059 4298
4059 6514
4060 4260
4060 4397
4060 6564
4061 4785
4061 4815
4061 6621
4064 4910
4065 6476
4069 4520
4069 6140
4069 6146
4069 6891
4069 7237
4069 7415
4069 7532
4069 7606
4070 5983
4070 6021
4070 6194
4071 5267
4071 7512
4073 5111
4074 5127
4075 4515
4078 5456
4078 6252
4078 7359
4078 7584
4079 5854
4079 6031
4079 6639
4080 6966
4081 7345
4081 7386
4082 4455
4083 4935
4083 6478
4083 7409
4084 5012
4085 5167
4085 5278
4085 6562
4085 7052
4086 4377
4086 5124
4086 5402
4086 5703
4086 5854
4086 6105
4086 6789
4086 6870
4086 6891
4086 7237
4086 7282
4088 4833
4088 5676
4088 5925
4088 6300
4088 6529
4090 4680
4091 5308
4092 5536
4092 6234
4093 4342
4093 4693
4093 5545
4093 5620
4093 6177
4095 4433
4095 7610
4096 4426
4097 4595
4097 5658
4097 6200
4098 5657
4099 6399
4099 7486
4102 4587
4102 4593
4104 4164
4104 4888
4104 7287
4105 4446
4106 4319
4106 4880
4106 5274
4106 5696
4106 7488
4108 5380
4108 5717
4108 7237
4109 4329
4109 4936
4109 5972
4111 6884
4112 5526
4113 5674
4114 4785
4114 5079
4114 5370
4114 5759
4115 5454
4117 4593
4117 4943
4118 6797
4119 4309
4119 4426
4119 4862
4119 7123
4119 7498
4120 4335
4120 6496
4121 4785
4121 5158
4121 5272
4122 4614
4122 5901
4122 6514
4122 7237
4122 7563
4123 4504
4123 4515
4123 5274
4124 5578
4124 6339
4125 4452
4125 4801
4125 5127
4125 5245
4125 5274
4125 5411
4125 5678
4125 6899
4125 7093
4125 7423
4125 7482
4125 7595
4126 5065
4126 5236
4126 5324
4126 5610
4126 6357
4126 7162
4127 4224
4127 4756
4127 5112
4128 5274
4128 7214
4129 7339
4130 4555
4130 7028
4131 4710
4131 5578
4132 4919
4133 5618
4135 6250
4136 4650
4136 4726
4136 5127
4136 5227
4136 6118
4136 7448
4136 7618
4137 6738
4138 5580
4138 6241
4140 4811
4141 6101
4142 5285
4142 7213
4143 5880
4143 7615
4144 7460
4145 4364
4145 5547
4145 5653
4145 5727
4145 5754
4145 7370
4146 4657
4146 4676
4146 4720
4146 5156
4146 5277
4146 5314
4146 5425
4146 5892
4146 6408
4146 6411
4146 6419
4146 6721
4146 6770
4146 6876
4146 7294
4146 7489
4147 4572
4147 5095
4147 6446
4147 6976
4147 7225
4148 4929
4149 5268
4149 5386
4150 5274
4151 4561
4151 5635
4151 6445
4151 6883
4151 7083
4151 7574
4152 4221
4152 4257
4152 6436
4152 7458
4153 6980
4154 4173
4154 5377
4155 4252
4155 6365
4157 5127
4159 4336
4159 6005
4160 5910
4161 5370
4162 4265
4162 4947
4162 5485
4162 6067
4162 6101
4162 6311
4162 6586
4162 7013
4162 7100
4162 7173
4163 4452
4163 4502
4163 4782
4163 5127
4163 5274
4163 5411
4163 6054
4163 6648
4163 7087
4163 7488
4163 7526
4163 7610
4164 4626
4164 4888
4164 5472
4164 6640
4164 6652
4164 7579
4165 5316
4165 5454
4165 6408
4165 6659
4165 7199
4167 4348
4167 4959
4171 5978
4174 4210
4174 5970
4174 6016
4174 7173
4175 4381
4175 4612
4175 5962
4175 6476
4175 7230
4175 7604
4176 4779
4176 6520
4176 7545
4177 5825
4179 5703
4179 5854
4180 4230
4180 5988
4180 6712
4180 6958
4180 7141
4180 7319
4180 7360
4182 6101
4183 4284
4183 5513
4184 7355
4184 7435
4186 4360
4187 4330
4187 5662
4187 6183
4187 6378
4187 6529
4187 7050
4187 7581
4188 7224
4192 5369
4194 6350
4196 4286
4197 6092
4197 7560
4198 4837
4198 5062
4198 6409
4199 7583
4200 4785
4202 6666
4203 5009
4204 4527
4204 4607
4206 4211
4206 4673
4206 5823
4206 6724
4206 6921
4206 7581
4207 5578
4208 6566
4210 5970
4211 4880
4211 5127
4211 5245
4211 6438
4211 6921
4211 7254
4211 7368
4212 6562
4212 7057
4212 7313
4215 4811
4217 5637
4217 7110
4219 6953
4221 4868
4221 6372
4221 7455
4222 4811
4223 4882
4223 5725
4227 7488
4228 4472
4228 5207
4228 6101
4229 5661
4230 7100
4234 5274
4235 4246
4235 4256
4235 5203
4235 6475
4235 6887
4236 6887
4237 4359
4238 4846
4239 7199
4239 7237
4240 6296
4240 7017
4241 6688
4242 4809
4242 6105
4242 6792
4243 4704
4243 6222
4243 6566
4243 7040
4243 7352
4245 4469
4246 5918
4246 6747
4246 6884
4246 6887
4248 4654
4248 4968
4248 5425
4248 6501
4248 6763
4248 7074
4248 7210
4250 6341
4251 7243
4252 4719
4252 6365
4253 4710
4254 5230
4254 6058
4254 7049
4255 4877
4255 6864
4256 6475
4256 6495
4256 6890
4256 7213
4257 4811
4257 4821
4257 4864
4257 5286
4257 5595
4257 6248
4257 6399
4257 6431
4257 6562
4257 6919
4257 6996
4259 4552
4259 5442
4259 5643
4259 6323
4260 6564
4261 5646
4264 7135
4265 6483
4266 4375
4266 5295
4266 6946
4266 7019
4266 7386
4267 6644
4268 6254
4270 5720
4270 6888
4271 6077
4271 7252
4273 6309
4274 5440
4274 5578
4274 7522
4275 5245
4275 5274
4277 5111
4277 5703
4278 7604
4280 5095
4280 5443
4280 5578
4280 5725
4280 7074
4280 7225
4280 7416
4283 5011
4284 4526
4284 4768
4284 5649
4285 6859
4287 4338
4287 5285
4288 6182
4289 6778
4289 7587
4290 5817
4292 6034
4294 4811
4295 4426
4295 4880
4295 7308
4296 5401
4296 6108
4296 6519
4297 5129
4297 6194
4298 4387
4298 4452
4298 4536
4298 4726
4298 5127
4298 5794
4298 5920
4298 6063
4298 7400
4298 7448
4298 7569
4298 7618
4299 5917
4301 5580
4301 6241
4301 6668
4302 6873
4303 4935
4303 5063
4303 6146
4304 4324
4305 7583
4307 6368
4308 4594
4309 4961
4309 5526
4309 5901
4309 5905
4309 6519
4309 7090
4309 7108
4309 7224
4310 6769
4311 4611
4312 4479
4312 5079
4312 6633
4312 7436
4313 5006
4315 5893
4316 6415
4316 6421
4316 6920
4317 5503
4318 4447
4318 5106
4318 6911
4319 4323
4319 4450
4319 4868
4319 4876
4319 4880
4319 4895
4319 4941
4319 5245
4319 5410
4319 5949
4319 6724
4319 7178
4319 7497
4319 7602
4321 4970
4321 6865
4321 7129
4321 7236
4321 7300
4323 5410
4323 5534
4324 4338
4324 6515
4324 7232
4327 5292
4327 5810
4327 6827
4327 6990
4327 7080
4328 5745
4328 6269
4328 6323
4328 6392
4329 5443
4330 5500
4330 5610
4330 5815
4330 6187
4332 4982
4335 4351
4335 4620
4335 5090
4335 5269
4335 5703
4335 5959
4335 6361
4335 6388
4335 6398
4335 6496
4335 6639
4335 7075
4335 7181
4335 7282
4335 7507
4336 5465
4337 4561
4337 4747
4337 7224
4337 7608
4338 4621
4338 4671
4338 4779
4338 4823
4338 4831
4338 4873
4338 5031
4338 5060
4338 5370
4338 5715
4338 5791
4338 5793
4338 5918
4338 5980
4338 6212
4338 6515
4338 6520
4338 6887
4338 7545
4340 4561
4341 4541
4341 4764
4341 5196
4341 5305
4341 7163
4343 5767
4344 6088
4344 6905
4345 6676
4348 4959
4348 5150
4348 5263
4348 6084
4348 6513
4348 7071
4349 6016
4350 5454
4350 5475
4351 6496
4353 4851
4353 5269
4353 6639
4353 7107
4353 7226
4353 7237
4355 4947
4355 5095
4355 6396
4355 6567
4355 7225
4356 4401
4356 4423
4356 4447
4356 4888
4356 4924
4356 5039
4356 5366
4356 5400
4356 5441
4356 5454
4356 5612
4356 6033
4356 6264
4356 6647
4356 7076
4356 7155
4356 7219
4356 7237
4356 7351
4356 7426
4356 7452
4357 5278
4357 5604
4357 6011
4357 7029
4357 7032
4359 4511
4359 4657
4359 5206
4359 5736
4359 6240
4359 6407
4359 6412
4359 6427
4359 6687
4359 6735
4359 6876
4359 7595
4360 6553
4360 7490
4363 4811
4364 4602
4364 4847
4364 5126
4364 5198
4364 5287
4364 5476
4364 5547
4364 5727
4364 5754
4364 6668
4364 7280
4365 4575
4365 4894
4366 6477
4366 7116
4368 4397
4368 6564
4372 6111
4373 5582
4373 5817
4373 6361
4374 5927
4374 7255
4375 5274
4375 5919
4375 7336
4375 7538
4376 5095
4376 5359
4376 6101
4376 7553
4377 5556
4377 6105
4377 7237
4378 5334
4378 7224
4380 4988
4381 5875
4381 5962
4384 6109
4384 7199
4385 5127
4385 7251
4387 5655
4387 7400
4387 7487
4389 5756
4391 6321
4392 4543
4393 4622
4393 4763
4393 5220
4393 5342
4393 5454
4393 5526
4393 6316
4393 6742
4393 6762
4393 6787
4393 7544
4394 5308
4394 5485
4395 4972
4395 7024
4397 6564
4398 7237
4399 6101
4399 6446
4400 4785
4402 6536
4404 4917
4404 5564
4404 6376
4408 4503
4408 6101
4408 6497
4408 6516
4408 7100
4411 5918
4412 5523
4413 5885
4414 4662
4414 5667
4414 6499
4414 6893
4414 7233
4415 6272
4415 7265
4416 6234
4416 6369
4418 7141
4419 4602
4420 6745
4422 4536
4422 5245
4423 5095
4426 4868
4426 5535
4426 5646
4426 5706
4426 5894
4427 5856
4428 4937
4429 5461
4430 6859
4430 7450
4431 6476
4431 7604
4432 4601
4432 5867
4432 6517
4433 4560
4433 5127
4433 5410
4433 5687
4433 5704
4433 5720
4433 5734
4433 6046
4433 6267
4433 6503
4433 6684
4433 6724
4433 7395
4434 4606
4434 4860
4434 5857
4435 5414
4437 6283
4437 6892
4438 7256
4439 5414
4440 5635
4440 7339
4441 7567
4443 4978
4443 6175
4443 6802
4443 7122
4444 4721
4444 6295
4447 5764
4447 5851
4447 6811
4448 7248
4449 6906
4450 7178
4451 4636
4451 5454
4452 4678
4452 4912
4452 5127
4452 5274
4452 5454
4452 5883
4452 5948
4452 6112
4452 6648
4452 6673
4452 7093
4452 7488
4452 7587
4453 4632
4453 5044
4453 5966
4453 6805
4453 7537
4454 7282
4455 4756
4455 5047
4455 5463
4455 5974
4455 6273
4455 6446
4455 6800
4457 5251
4457 7221
4458 4711
4459 6764
4460 5578
4460 6200
4462 4955
4462 7523
4463 6384
4464 4844
4464 7046
4465 4548
4466 4762
4466 5278
4466 5394
4466 5435
4467 4754
4467 6583
4468 6296
4469 4708
4469 5817
4469 6032
4470 5490
4470 5491
4472 5455
4472 5916
4473 5331
4476 6116
4476 6160
4478 4636
4479 5370
4479 7218
4479 7409
4480 5466
4480 5532
4480 5629
4480 6175
4480 7002
4480 7122
4483 7262
4484 5538
4485 6220
4487 5831
4487 6912
4488 6365
4489 4814
4489 4947
4490 5274
4491 6016
4492 5443
4495 6348
4502 4870
4502 5127
4502 5862
4502 6054
4502 7488
4503 5485
4503 6067
4503 6151
4505 5268
4506 4527
4506 4785
4506 5159
4506 6519
4506 7301
4506 7356
4507 7237
4509 7199
4510 5986
4511 4657
4511 4701
4511 4842
4511 5430
4512 7534
4513 4911
4513 5223
4515 5274
4516 4560
4517 4572
4517 5381
4517 6101
4517 7383
4518 6564
4518 7136
4519 7224
4520 5369
4520 6236
4520 7237
4522 5258
4524 4647
4524 4900
4524 6039
4525 4549
4525 4774
4525 5168
4525 5417
4525 6542
4525 7339
4527 4986
4527 5011
4527 5067
4527 5159
4527 5593
4527 6280
4527 6621
4527 6860
4528 5370
4528 6219
4528 6633
4529 4811
4530 6709
4531 4607
4531 5104
4531 5898
4532 5343
4534 6813
4535 6478
4536 5687
4539 5857
4539 6958
4540 6666
4540 7532
4543 4940
4543 6022
4543 6041
4543 6186
4544 4612
4544 5654
4544 6155
4544 6545
4544 6757
4544 7230
4544 7334
4545 7525
4546 6194
4547 7605
4549 4934
4549 7498
4550 6445
4550 6883
4551 6621
4553 4941
4553 6310
4554 5526
4554 6925
4554 7123
4554 7498
4554 7563
4554 7608
4555 5352
4555 6235
4555 7086
4556 5679
4556 7284
4557 5222
4559 5265
4560 5221
4560 7576
4561 4785
4561 5606
4561 5768
4561 6445
4561 6883
4561 7608
4562 7415
4563 5556
4563 5944
4563 5953
4563 6295
4563 6452
4563 6870
4563 6960
4563 7237
4563 7460
4564 5437
4566 6981
4568 4704
4570 4589
4570 5757
4570 7095
4570 7216
4571 5600
4572 4973
4572 5457
4572 6074
4572 6882
4572 7516
4573 4979
4574 6891
4574 7353
4575 4894
4575 6683
4578 5176
4578 6912
4579 6247
4579 7098
4580 7555
4581 4647
4583 4842
4584 6821
4585 5461
4589 5725
4589 7359
4589 7584
4593 4785
4593 5297
4593 5829
4593 6519
4593 7170
4594 7013
4595 5242
4595 5505
4595 6831
4595 6908
4595 7077
4595 7416
4596 4728
4597 5753
4598 6409
4599 7216
4601 6304
4602 4963
4602 5727
4602 5766
4602 6241
4603 6887
4604 5493
4604 5525
4604 7165
4606 4860
4606 5988
4607 5748
4607 6330
4607 6597
4607 6860
4608 5200
4608 7025
4608 7224
4609 4800
4609 6145
4609 7620
4611 6239
4612 5872
4612 5875
4612 6379
4612 6500
4612 6623
4612 7334
4612 7623
4613 7228
4614 7224
4614 7498
4615 5984
4616 5989
4617 7112
4617 7217
4617 7415
4621 4871
4622 5168
4622 6614
4624 5725
4625 6741
4625 6817
4626 7287
4627 6256
4629 7517
4632 4925
4632 5099
4632 6860
4632 7537
4633 4855
4635 6016
4635 7115
4636 5420
4636 5909
4636 6268
4636 6427
4637 5046
4637 7593
4638 5677
4638 6369
4638 7237
4639 6220
4640 5584
4641 4811
4643 7383
4646 6476
4647 6600
4648 5854
4648 6483
4648 7074
4649 6179
4651 5935
4651 6063
4651 7028
4652 6791
4653 4676
4653 6408
4656 5061
4656 6307
4656 6617
4657 4676
4657 5314
4657 5378
4657 6207
4657 6412
4657 6427
4657 6991
4657 7256
4657 7294
4657 7489
4659 4811
4659 5441
4660 5752
4660 7352
4661 5859
4662 7467
4666 4716
4666 4931
4666 5857
4666 6616
4666 7536
4667 5115
4667 7579
4670 7188
4671 5075
4671 5587
4671 5715
4671 5781
4671 5791
4671 6022
4671 6228
4672 7316
4673 6844
4673 7079
4674 5664
4675 6370
4676 4720
4676 5843
4676 5993
4676 6202
4676 6408
4676 6419
4676 6427
4676 6967
4676 7489
4678 7569
4679 6677
4681 6205
4681 7023
4682 5319
4684 6163
4685 7610
4686 4908
4688 4719
4691 4786
4691 5095
4691 6012
4691 6511
4691 6972
4691 7216
4691 7364
4691 7586
4692 5274
4692 5581
4694 5813
4695 4798
4695 7605
4699 7279
4700 6842
4701 4842
4701 6207
4702 4925
4703 6279
4703 7078
4704 4934
4704 5036
4704 6222
4705 4744
4705 5787
4705 6021
4705 6632
4705 7318
4705 7348
4705 7439
4707 5353
4707 5894
4707 6431
4707 6572
4709 5663
4709 5940
4709 7569
4710 6153
4710 6175
4710 6191
4710 7296
4711 6065
4711 6642
4711 7352
4716 6752
4716 7536
4717 4973
4718 5159
4719 5856
4719 6325
4719 7157
4720 4898
4720 5378
4720 5993
4720 6408
4720 6427
4720 6770
4720 6991
4720 7294
4720 7489
4721 4910
4721 5111
4722 4811
4723 7565
4725 5706
4725 6885
4725 7166
4725 7486
4726 5227
4726 6938
4726 7448
4727 4985
4728 4931
4728 5612
4728 6073
4728 6712
4728 6812
4728 6959
4728 7059
4729 4730
4729 6241
4730 6481
4731 5641
4732 5388
4733 5386
4733 6341
4733 6570
4733 7022
4734 6878
4735 5441
4735 6258
4735 6843
4735 6896
4736 6509
4737 6194
4738 6794
4738 7204
4738 7601
4739 4785
4741 5274
4741 6022
4742 6399
4742 7486
4743 5725
4743 6101
4744 5887
4747 4990
4747 6787
4748 7270
4749 5857
4753 7111
4754 4809
4754 4900
4754 4919
4754 5388
4754 5703
4754 5854
4754 6014
4754 6473
4754 6792
4754 7237
4754 7548
4754 7575
4755 5277
4756 5449
4756 5463
4756 6800
4756 7029
4757 6960
4757 7282
4758 6490
4758 7224
4759 4967
4759 5462
4759 5854
4760 7322
4760 7557
4762 5128
4762 5527
4762 5632
4765 5274
4765 7618
4767 5454
4769 4785
4769 6166
4770 6073
4770 6217
4771 5534
4771 5550
4771 7595
4773 5845
4774 7563
4775 5535
4775 5746
4775 6562
4776 4975
4777 7585
4778 4978
4778 5972
4778 7403
4779 6520
4779 7545
4780 6101
4780 6983
4780 7452
4782 7087
4783 4785
4783 4986
4783 5493
4785 4971
4785 4999
4785 5011
4785 5030
4785 5091
4785 5100
4785 5159
4785 5310
4785 5313
4785 5335
4785 5343
4785 5357
4785 5401
4785 5419
4785 5480
4785 5650
4785 5709
4785 5724
4785 5728
4785 5748
4785 5903
4785 5905
4785 6013
4785 6144
4785 6208
4785 6280
4785 6364
4785 6484
4785 6519
4785 6583
4785 6585
4785 6597
4785 6621
4785 6625
4785 6711
4785 6713
4785 6801
4785 6832
4785 6837
4785 6865
4785 6871
4785 6923
4785 6945
4785 6992
4785 7011
4785 7224
4785 7271
4785 7352
4785 7451
4785 7499
4785 7514
4785 7535
4786 7485
4787 5213
4787 6432
4788 4880
4788 5274
4788 5626
4788 6577
4788 6946
4788 6962
4789 6977
4790 4944
4790 7188
4790 7199
4790 7424
4791 7126
4792 4795
4792 6876
4792 7237
4793 6972
4793 7100
4793 7372
4795 6591
4796 5285
4796 6887
4797 6666
4798 7605
4799 6195
4801 7199
4802 5207
4804 5597
4805 6246
4807 7279
4808 6494
4809 4900
4809 5090
4809 5111
4809 5556
4809 5703
4809 6391
4809 6403
4809 6789
4809 7072
4809 7075
4809 7226
4809 7237
4809 7575
4810 5036
4810 5240
4811 4864
4811 4867
4811 4892
4811 5175
4811 5194
4811 5273
4811 5406
4811 5422
4811 5441
4811 5504
4811 5557
4811 5558
4811 5619
4811 5631
4811 5740
4811 5782
4811 5914
4811 6177
4811 6189
4811 6203
4811 6257
4811 6368
4811 6478
4811 6493
4811 6526
4811 6576
4811 6588
4811 6594
4811 6596
4811 6966
4811 7053
4811 7197
4811 7241
4811 7378
4811 7419
4811 7446
4811 7603
4812 6467
4812 7541
4814 4942
4814 5955
4814 6101
4816 4881
4818 6181
4818 7595
4819 4846
4819 7390
4819 7616
4820 5161
4820 6405
4822 7456
4824 5808
4824 7049
4825 5256
4825 6238
4825 7100
4826 7491
4827 5992
4827 7162
4829 5755
4830 6361
4836 7595
4838 5539
4840 5183
4840 5806
4842 5454
4842 6876
4843 5854
4843 6105
4843 6108
4843 6891
4844 7061
4845 5206
4846 7240
4849 6367
4849 6464
4851 4901
4851 5854
4851 6105
4851 6291
4852 7492
4853 5988
4853 6442
4854 7237
4855 4886
4855 5628
4857 4876
4858 7154
4859 6016
4860 4904
4860 4931
4860 5414
4860 5756
4860 5988
4860 6217
4860 6565
4860 6958
4860 7001
4860 7141
4861 7330
4863 5967
4863 6393
4864 5230
4864 5275
4864 6436
4864 7614
4865 6070
4865 6207
4865 7016
4868 5538
4869 6565
4869 6972
4870 6527
4873 6228
4873 6778
4875 5712
4875 5893
4876 4880
4876 4900
4876 6125
4876 7497
4876 7595
4879 6341
4879 6907
4880 4950
4880 5060
4880 5245
4880 5404
4880 6847
4880 6935
4880 6940
4881 5454
4882 5725
4882 6446
4882 6877
4882 7013
4883 5556
4883 5694
4883 5769
4883 5831
4883 5904
4883 6789
4883 6870
4883 6891
4883 7237
4883 7398
4883 7548
4884 5461
4885 5127
4885 6006
4886 5251
4886 5623
4886 5807
4886 6194
4886 6970
4887 6637
4887 7552
4888 5115
4888 5130
4888 6308
4888 6640
4889 5637
4890 6292
4892 6431
4892 6647
4893 5988
4895 5534
4895 6135
4895 6315
4895 6973
4896 4922
4897 6282
4898 6408
4898 7256
4899 4931
4899 5857
4899 5988
4899 6565
4899 6712
4900 5011
4900 5020
4900 5090
4900 5121
4900 5238
4900 5285
4900 5479
4900 5530
4900 5703
4900 5785
4900 5854
4900 5943
4900 5953
4900 6108
4900 6219
4900 6391
4900 6403
4900 6554
4900 6595
4900 6639
4900 6832
4900 6849
4900 6857
4900 7075
4900 7202
4900 7391
4900 7592
4901 6168
4901 6291
4903 6323
4904 4931
4904 5756
4904 6546
4904 6958
4904 7001
4904 7141
4905 5690
4905 7502
4906 5722
4907 6016
4908 5111
4908 5114
4908 5416
4908 5564
4908 5703
4908 5915
4908 6403
4908 7213
4908 7414
4909 6016
4909 6734
4910 6023
4911 5103
4911 5465
4911 6569
4912 5557
4914 6278
4914 7325
4916 5391
4916 6441
4916 7488
4917 5568
4917 6457
4917 7375
4918 5362
4918 6728
4919 5392
4919 5694
4919 6326
4919 6552
4919 6910
4919 7237
4920 5294
4921 6534
4922 7432
4923 5740
4924 6757
4925 5048
4925 5100
4925 5493
4928 7224
4929 5371
4929 6836
4929 7110
4929 7515
4930 5274
4931 5047
4931 5584
4931 5612
4931 5761
4931 5879
4931 5988
4931 6217
4931 6321
4931 6785
4931 7141
4931 7406
4931 7533
4931 7536
4933 6941
4934 5790
4934 6411
4934 6419
4934 6845
4934 7162
4935 5082
4935 5479
4935 7174
4936 5578
4936 5908
4938 5094
4938 5441
4938 7570
4939 6899
4940 5447
4941 4956
4941 5933
4941 6310
4941 6634
4941 6793
4941 6868
4941 7009
4942 7074
4942 7383
4943 7301
4944 5299
4946 5254
4946 6010
4947 6175
4947 7126
4949 6946
4949 7078
4951 6129
4951 6238
4951 7100
4952 6383
4952 7397
4955 5342
4955 5526
4955 7123
4956 5516
4957 5539
4957 6083
4957 6336
4957 6617
4957 7386
4959 6116
4960 6267
4961 5200
4961 5526
4961 5597
4961 7224
4961 7498
4962 5016
4963 6241
4966 5935
4967 5370
4968 6175
4968 6339
4968 7002
4969 5658
4969 6446
4969 7296
4970 5454
4974 7587
4977 6954
4978 6877
4979 5269
4979 6234
4979 6792
4979 7203
4981 5162
4981 6126
4981 6544
4983 5778
4985 5373
4985 6117
4986 5710
4986 6891
4986 7613
4987 7608
4989 5663
4989 6888
4990 7608
4992 6160
4993 5068
4994 6002
4994 6101
4994 6323
4994 6446
4994 6567
4994 7245
4994 7383
4995 5660
4995 5737
4995 6337
4996 6382
4996 6451
4997 6519
4998 6586
4999 6860
4999 7464
5002 5485
5006 7100
5007 6436
5007 7030
5007 7418
5008 6769
5008 7061
5009 7353
5010 6134
5011 5335
5011 5461
5011 6470
5011 6519
5011 6879
5014 5065
5015 5597
5015 6094
5018 6022
5018 7178
5020 6979
5020 7592
5021 5746
5022 6021
5022 6132
5024 6361
5027 5463
5028 7482
5032 5127
5033 5257
5033 7237
5035 6091
5038 5479
5038 6912
5040 5162
5041 5107
5041 5159
5041 5748
5043 6855
5043 6985
5047 5463
5047 5686
5047 6047
5047 6074
5047 6374
5047 7406
5051 5103
5052 5287
5052 5510
5053 7015
5053 7162
5054 7537
5057 5619
5058 5999
5058 6508
5058 7449
5059 5955
5060 5439
5060 5715
5060 5819
5060 5978
5060 6198
5060 6301
5060 7338
5061 5481
5062 6633
5062 6891
5063 5582
5063 5944
5063 6633
5063 7237
5065 5676
5065 5876
5065 6346
5065 6378
5065 6964
5065 7162
5065 7607
5068 5463
5071 5854
5072 5604
5072 5951
5072 7358
5073 5720
5074 7162
5076 6506
5076 6874
5078 5570
5079 5082
5079 5370
5079 5402
5079 7237
5079 7380
5080 5455
5083 6209
5084 6861
5086 7405
5087 5909
5089 5508
5089 5764
5090 5121
5090 5124
5090 5530
5090 5854
5090 5944
5090 6105
5090 6789
5090 6792
5090 6891
5090 7118
5090 7127
5091 6803
5092 6135
5094 6478
5095 5162
5095 5396
5095 5848
5095 5938
5095 6101
5095 6110
5095 6339
5095 6567
5095 7074
5095 7080
5095 7100
5095 7565
5097 5252
5098 6274
5099 5159
5099 5343
5099 7151
5099 7302
5102 5909
5102 7015
5104 6487
5106 5851
5106 6416
5106 6811
5108 5468
5108 5578
5108 7296
5108 7416
5109 7098
5109 7233
5110 5454
5110 5478
5110 6020
5110 6274
5110 6441
5110 7112
5111 5703
5111 5854
5111 6265
5111 6639
5111 6689
5111 6750
5111 7226
5113 5447
5114 6403
5115 6348
5115 6640
5116 5117
5117 7566
5119 7135
5120 6528
5120 7389
5122 5698
5124 5363
5124 5402
5124 5831
5124 6789
5124 6870
5126 5198
5126 5680
5126 5836
5126 6241
5126 6668
5126 7351
5126 7412
5126 7502
5127 5245
5127 5274
5127 5469
5127 5632
5127 5720
5127 5919
5127 5969
5127 5991
5127 6046
5127 6064
5127 6181
5127 6267
5127 6272
5127 6503
5127 6673
5127 6774
5127 6921
5127 6940
5127 6946
5127 6951
5127 6955
5127 6987
5127 7030
5127 7089
5127 7093
5127 7228
5127 7400
5127 7526
5127 7587
5127 7595
5127 7618
5128 5394
5128 5512
5128 5632
5128 5638
5128 5646
5128 5706
5128 6125
5128 6919
5128 6935
5128 7110
5128 7573
5128 7600
5129 6194
5130 6640
5132 5178
5132 6757
5132 7334
5134 7009
5134 7081
5134 7086
5136 6477
5137 6954
5139 6135
5139 6786
5139 6934
5139 7103
5140 7199
5141 6997
5142 6350
5143 6688
5144 5663
5145 5174
5147 5370
5147 7444
5148 5390
5153 7415
5155 5197
5156 6408
5156 7489
5157 5304
5158 6692
5159 5343
5159 5748
5159 6330
5159 7151
5161 6897
5167 6478
5167 6572
5168 5526
5168 6414
5169 5454
5173 6259
5174 5988
5174 7001
5174 7371
5176 5568
5176 5793
5176 5854
5176 6680
5176 6912
5178 5962
5178 6155
5182 7162
5183 7470
5184 6502
5184 6795
5185 5260
5187 6644
5190 5274
5192 6101
5192 6776
5192 6976
5193 6382
5194 5625
5196 5450
5197 5578
5198 6241
5200 5313
5200 7498
5200 7517
5201 5595
5201 5835
5203 6495
5203 6887
5203 7213
5204 5425
5206 6726
5207 6129
5207 6323
5207 6672
5208 6784
5210 7090
5212 5985
5214 6865
5216 5687
5216 6213
5216 7368
5217 7423
5218 6477
5218 7083
5218 7339
5220 6096
5220 6514
5222 5252
5222 5519
5222 5854
5222 6403
5223 6472
5223 7157
5224 6755
5226 6088
5226 6556
5227 5534
5227 7448
5228 6173
5231 5578
5232 5463
5232 6252
5236 5324
5236 7015
5237 6101
5240 6523
5242 5432
5242 5578
5245 5274
5245 5823
5245 5964
5246 5836
5246 6241
5247 7350
5250 7026
5250 7100
5251 5623
5252 6391
5252 6618
5253 5708
5253 6461
5253 7098
5254 6190
5254 6836
5255 7378
5256 6242
5256 6701
5256 7100
5257 6105
5257 6792
5260 6453
5261 5626
5261 6840
5261 7310
5261 7580
5267 5723
5267 7060
5267 7512
5268 6008
5269 6391
5269 7226
5269 7414
5269 7507
5271 5854
5274 5404
5274 5411
5274 5528
5274 5534
5274 5776
5274 5864
5274 5940
5274 6049
5274 6170
5274 6195
5274 6309
5274 6749
5274 6840
5274 6899
5274 6946
5274 6955
5274 7199
5274 7228
5274 7332
5274 7400
5274 7488
5274 7564
5274 7580
5274 7595
5274 7610
5277 5324
5277 6299
5277 6378
5277 6411
5277 6566
5277 6593
5277 6755
5277 7046
5277 7162
5278 5638
5278 5646
5278 6919
5279 5854
5279 6296
5279 6391
5281 7264
5282 6361
5282 7284
5283 6887
5285 5715
5285 6887
5285 7018
5285 7232
5287 5580
5287 5949
5287 6241
5287 6668
5288 7057
5290 5894
5291 5428
5291 5593
5291 6519
5292 6813
5292 7080
5293 6022
5293 7335
5294 6102
5294 7589
5296 6653
5296 6803
5300 7001
5300 7199
5301 5586
5301 6466
5301 7554
5303 5368
5303 5498
5303 5529
5303 5856
5303 7340
5303 7549
5304 6256
5305 7248
5306 6463
5307 6072
5308 5397
5308 5457
5308 5783
5308 5867
5308 6446
5308 6544
5308 7383
5309 5539
5309 5900
5310 5428
5312 5370
5314 5892
5314 5993
5314 6148
5314 6408
5314 6427
5314 6648
5314 6852
5314 6876
5314 7016
5314 7489
5315 5459
5315 5534
5315 6095
5315 6888
5315 7602
5317 6205
5318 7579
5319 6022
5321 6275
5322 7600
5323 6049
5324 5610
5324 7162
5326 5597
5326 6089
5326 6519
5327 5664
5327 6361
5332 7284
5333 7104
5334 5606
5334 5768
5334 6445
5334 6519
5334 6883
5334 7083
5334 7224
5335 5966
5335 6277
5335 6330
5335 6443
5335 6519
5335 6851
5337 7170
5339 7089
5343 5551
5343 5673
5343 5896
5343 6597
5343 6621
5345 7104
5347 5872
5347 6476
5349 5608
5349 5628
5349 6341
5350 5543
5350 7500
5353 5735
5353 6617
5353 6935
5355 5857
5355 6217
5355 6712
5356 6709
5358 5653
5359 5758
5359 6101
5360 5630
5360 6972
5362 6728
5364 6323
5364 7296
5365 5408
5365 7577
5368 6256
5369 5370
5369 6142
5369 6654
5369 6891
5369 6917
5369 7541
5370 5461
5370 5688
5370 5713
5370 5822
5370 6187
5370 6236
5370 6456
5370 6478
5370 6529
5370 6607
5370 6633
5370 6654
5370 6695
5370 6808
5370 6891
5370 7237
5370 7293
5370 7347
5370 7380
5370 7444
5371 5375
5371 7163
5372 7101
5374 5640
5376 5578
5377 7279
5378 5892
5378 6408
5378 6419
5378 6876
5378 6991
5378 7489
5380 6860
5381 6501
5382 6176
5384 6477
5386 7004
5387 6633
5388 6219
5390 5456
5390 7024
5390 7243
5394 5476
5394 5663
5394 5907
5394 6278
5394 6530
5394 7165
5394 7412
5394 7587
5394 7622
5397 6126
5399 5703
5399 5717
5399 6234
5399 6792
5401 6519
5402 5479
5402 6695
5402 7237
5402 7547
5405 6490
5405 7224
5405 7498
5405 7520
5406 6286
5407 7580
5409 7188
5410 5534
5410 6125
5410 6267
5410 6888
5410 6943
5410 7316
5411 5557
5411 5935
5411 6315
5412 5747
5412 6301
5412 6607
5412 6789
5414 6958
5414 7192
5415 6252
5417 7599
5418 5842
5419 6519
5421 7421
5422 5555
5423 6241
5424 6884
5425 6044
5426 5984
5426 6954
5427 5677
5427 6536
5427 7585
5428 6280
5429 5699
5430 6876
5431 5866
5431 6697
5433 5978
5436 7314
5437 5858
5439 6363
5440 7403
5443 5561
5443 6074
5443 6339
5443 6663
5443 7223
5445 6016
5445 6672
5446 6378
5446 6529
5446 6593
5446 7352
5449 6800
5449 7029
5450 5516
5452 6425
5454 5534
5454 5543
5454 5890
5454 5933
5454 6082
5454 6174
5454 6244
5454 6359
5454 6427
5454 6432
5454 6441
5454 6782
5454 6852
5454 6876
5454 7339
5454 7394
5454 7395
5454 7482
5454 7558
5454 7615
5455 5578
5455 5615
5455 5828
5455 5906
5455 6056
5455 6101
5455 6367
5455 6424
5455 6544
5455 7244
5455 7416
5456 7024
5457 6424
5457 6544
5457 6983
5458 6241
5459 6888
5460 7565
5461 6478
5461 6529
5461 7285
5462 6797
5463 6101
5463 6217
5463 6800
5463 7176
5465 6632
5466 5578
5466 5658
5468 5578
5468 6323
5468 6446
5468 6672
5471 6475
5471 6887
5472 7222
5476 5727
5477 5534
5478 7051
5479 6146
5479 6236
5479 6797
5481 6422
5482 6446
5483 6211
5485 6126
5485 6424
5485 6509
5485 6544
5486 6995
5488 5856
5488 7133
5491 5924
5495 6160
5497 7123
5498 6564
5498 7148
5499 5538
5499 6324
5501 6621
5502 5653
5505 6323
5506 7032
5508 5764
5510 6785
5510 7123
5514 6101
5514 7022
5514 7357
5515 5646
5517 5646
5521 5581
5522 7465
5526 6969
5526 7123
5526 7224
5526 7264
5526 7498
5526 7563
5527 5682
5527 5751
5527 5894
5527 7600
5529 6160
5529 7128
5530 6105
5530 6296
5530 6789
5530 7237
5531 7292
5532 6047
5532 7403
5533 5658
5533 6842
5534 5555
5534 6315
5534 6505
5534 6620
5534 6856
5534 6888
5534 7497
5534 7591
5536 5831
5536 5854
5536 6105
5536 6389
5536 7152
5536 7226
5536 7237
5537 6891
5538 6577
5540 6339
5542 5921
5543 5726
5543 6648
5543 7488
5543 7500
5543 7545
5543 7595
5544 6174
5546 6741
5548 7226
5550 5706
5550 6562
5552 6069
5553 6101
5555 5823
5555 6724
5556 6105
5556 7237
5556 7284
5556 7391
5557 6370
5557 7120
5559 7075
5559 7284
5559 7414
5560 5720
5561 5630
5561 5848
5564 5854
5564 6108
5564 6296
5564 6369
5564 6529
5564 6553
5564 7237
5564 7425
5565 6408
5566 6408
5568 5854
5568 5944
5568 7042
5568 7237
5569 7093
5569 7488
5573 6330
5575 5584
5575 5857
5576 5687
5577 5610
5577 6378
5577 6903
5578 5616
5578 5658
5578 5683
5578 5711
5578 5906
5578 6101
5578 6339
5578 6367
5578 6383
5578 6459
5578 6544
5578 6622
5578 6672
5578 6715
5578 6802
5578 6818
5578 6823
5578 6971
5578 7068
5578 7085
5578 7088
5578 7113
5578 7126
5578 7331
5578 7416
5578 7435
5578 7522
5580 6241
5580 6668
5580 7502
5582 5769
5582 7237
5586 6617
5586 7554
5588 6562
5590 5960
5592 5942
5593 6621
5595 5835
5595 6617
5595 6919
5597 6514
5597 7224
5597 7289
5597 7498
5597 7608
5598 6046
5598 6638
5600 5916
5600 6323
5600 7100
5600 7565
5602 5640
5602 7225
5603 5989
5603 6101
5604 6020
5604 6110
5604 7566
5606 7224
5607 5992
5608 6341
5610 6065
5610 6312
5610 6419
5610 6709
5610 7109
5612 6073
5612 6217
5612 6712
5612 6875
5612 7257
5613 6671
5613 7331
5615 6056
5615 6424
5615 6544
5616 7416
5621 6101
5622 6288
5623 6085
5624 5692
5625 5735
5625 7413
5627 6524
5629 5848
5630 5881
5632 5638
5632 5646
5632 6935
5632 7600
5636 5859
5637 5682
5638 5646
5638 5894
5638 6889
5638 7607
5639 5657
5639 6477
5640 5908
5640 5951
5640 6544
5643 6101
5643 6743
5643 6866
5643 7327
5645 7403
5646 5706
5646 6415
5646 6617
5646 6855
5646 6920
5646 6973
5646 7079
5646 7365
5646 7600
5647 6652
5648 7268
5650 6013
5653 6459
5653 7001
5653 7199
5654 5675
5657 6477
5657 7601
5658 6104
5658 6446
5658 6823
5663 5940
5663 6673
5663 7089
5664 7472
5665 7021
5667 7233
5668 7571
5670 7123
5671 6190
5671 6235
5671 7132
5673 7302
5674 5822
5674 7237
5674 7414
5674 7521
5675 6255
5675 7215
5676 7350
5676 7374
5677 7585
5680 5863
5680 6230
5680 7278
5681 7159
5682 7110
5683 6217
5683 6818
5683 7033
5687 5734
5693 6338
5694 6326
5694 7460
5697 6127
5700 5913
5701 7577
5701 7595
5702 6692
5703 6105
5703 6296
5703 6398
5703 6403
5703 6639
5703 6689
5703 7237
5706 6262
5706 6617
5706 6683
5706 7028
5706 7079
5708 5714
5708 6461
5710 6519
5711 6425
5712 5761
5713 6695
5714 6461
5715 5791
5717 6695
5717 6789
5717 7171
5719 6449
5719 7041
5720 6463
5720 7395
5720 7580
5724 6418
5724 6621
5725 6016
5725 6339
5725 6377
5725 6734
5725 6859
5725 7326
5725 7565
5727 6241
5732 6298
5734 6267
5734 6503
5738 7017
5739 5927
5741 7034
5743 6888
5743 7316
5745 6074
5751 5894
5751 5949
5751 6262
5751 6935
5751 7028
5753 5973
5753 6630
5754 6139
5754 6241
5755 5851
5755 6519
5758 7088
5758 7565
5760 7549
5763 6493
5764 5851
5764 6768
5764 6911
5764 7076
5766 7432
5769 6841
5769 7548
5770 6890
5770 7213
5770 7519
5772 7028
5773 6241
5774 6912
5776 6946
5777 7580
5778 7592
5781 5918
5781 6887
5783 6016
5784 6974
5785 5948
5785 6125
5786 7021
5787 6922
5788 6343
5788 6891
5790 5832
5790 6222
5790 6408
5790 7352
5793 5945
5793 7007
5793 7409
5793 7463
5793 7562
5794 6118
5795 7082
5800 6617
5800 7311
5802 6037
5802 6644
5803 6961
5807 6784
5809 7555
5810 6078
5811 7224
5811 7290
5814 6005
5815 5876
5815 6575
5816 7248
5817 7252
5817 7269
5822 5854
5822 6219
5822 7237
5823 6046
5823 6058
5823 6112
5823 6418
5823 6940
5823 6955
5823 7401
5826 7484
5828 6424
5828 7235
5829 6803
5831 6695
5831 6912
5831 7237
5832 6196
5835 6478
5835 6547
5835 6562
5836 6241
5836 6272
5837 6617
5840 6274
5841 7172
5844 6241
5844 6506
5844 7308
5844 7351
5848 6047
5848 6175
5851 6416
5851 6626
5851 6768
5851 6811
5851 6911
5854 6077
5854 6108
5854 6130
5854 6168
5854 6219
5854 6296
5854 6361
5854 6552
5854 6789
5854 6891
5854 6931
5854 7075
5854 7127
5854 7202
5854 7226
5854 7284
5854 7414
5854 7466
5854 7490
5854 7507
5854 7575
5856 6691
5856 6799
5857 6001
5857 6073
5857 6076
5857 6217
5857 6321
5857 6455
5857 6712
5857 6752
5857 6958
5857 7001
5857 7141
5857 7371
5857 7452
5857 7533
5859 6635
5859 6955
5861 6519
5862 6054
5862 6438
5862 6999
5862 7026
5862 7602
5866 5990
5866 7237
5866 7606
5870 6539
5872 5962
5872 6476
5872 7215
5872 7227
5872 7334
5874 6642
5874 6658
5875 5962
5876 6187
5876 6378
5876 6529
5876 6969
5876 7162
5876 7350
5876 7352
5876 7607
5877 7301
5878 6564
5883 6648
5886 6179
5890 7580
5892 6148
5892 6427
5892 7256
5893 7239
5894 6617
5899 7080
5900 6880
5900 7381
5902 6642
5902 7307
5904 6789
5904 7237
5904 7398
5906 7244
5907 5952
5908 7002
5909 6419
5909 7027
5909 7162
5911 7160
5915 6405
5915 6666
5918 6890
5920 6673
5921 6207
5921 7182
5922 6137
5922 6180
5922 7534
5923 7188
5925 7162
5926 6675
5929 6544
5930 6192
5932 6672
5933 7172
5935 6724
5936 6426
5939 7031
5942 7199
5943 6095
5944 6644
5944 6857
5944 6870
5944 6931
5944 7091
5944 7284
5947 6428
5948 6112
5953 7237
5955 6101
5956 7201
5958 7199
5962 6167
5962 6757
5962 6916
5962 7014
5962 7334
5962 7604
5963 6081
5963 6597
5963 7226
5966 7301
5968 6180
5968 6341
5968 7128
5969 6791
5971 6212
5972 6200
5972 7403
5976 7272
5978 6146
5978 7055
5979 6166
5979 6519
5981 6564
5982 6960
5984 6466
5984 6954
5986 6580
5987 6408
5988 6001
5988 6152
5988 6161
5988 6217
5988 6546
5988 6712
5988 6958
5988 6993
5988 7001
5988 7064
5988 7141
5988 7315
5988 7536
5990 7237
5993 6202
5993 6427
5993 7256
5993 7489
5995 7162
6000 7579
6001 6184
6001 6712
6001 7536
6002 6641
6002 6968
6003 7224
6004 6378
6004 6529
6004 7015
6005 7365
6007 6707
6011 6435
6012 7158
6013 6081
6013 6519
6016 6188
6016 6734
6016 6776
6021 6970
6022 7229
6022 7542
6023 6182
6023 6519
6023 6689
6024 6508
6031 6146
6031 7507
6032 7548
6033 7205
6036 6142
6037 6381
6040 6550
6040 7579
6041 6294
6045 6415
6046 6503
6046 7395
6047 6074
6049 6463
6051 7270
6052 7199
6054 7087
6054 7488
6055 6524
6056 6126
6056 6424
6062 6126
6063 7487
6065 7015
6065 7162
6065 7374
6069 7088
6069 7399
6073 6616
6073 6712
6074 7476
6074 7516
6074 7565
6077 6318
6077 7237
6078 6990
6078 7080
6079 7618
6084 6160
6085 7104
6086 6785
6086 7141
6088 6617
6088 6905
6089 6787
6094 7123
6094 7339
6094 7498
6094 7525
6095 6888
6095 7304
6095 7595
6099 6946
6101 6126
6101 6323
6101 6491
6101 6509
6101 6567
6101 6763
6101 6850
6101 7062
6101 7074
6101 7088
6101 7100
6101 7105
6101 7225
6101 7235
6101 7399
6101 7481
6104 6377
6105 6108
6105 6403
6105 6792
6105 6870
6105 7187
6105 7203
6105 7237
6108 6391
6108 7075
6108 7226
6108 7237
6108 7425
6108 7507
6108 7575
6110 6434
6110 6446
6110 6567
6110 6924
6110 7100
6110 7612
6111 6446
6111 7225
6115 7085
6116 7071
6117 6641
6118 7400
6120 6504
6120 6578
6120 6905
6120 7132
6126 6424
6126 6446
6126 6544
6127 6241
6128 6160
6129 6990
6130 7237
6134 6207
6134 6408
6140 6797
6140 6891
6140 7237
6141 7237
6142 6359
6142 7171
6143 6403
6144 6583
6144 7472
6146 6654
6146 7621
6147 6398
6147 6618
6148 7256
6150 7335
6152 7043
6153 6194
6155 6201
6156 6369
6159 7199
6160 6937
6160 7150
6160 7286
6163 6692
6163 6816
6167 6757
6167 7334
6168 6695
6168 7398
6175 6347
6175 6367
6180 7279
6180 7534
6182 6296
6185 7580
6186 7306
6190 6235
6190 6259
6190 7086
6193 6891
6193 7237
6193 7344
6194 6349
6196 7352
6200 6252
6200 7411
6201 6233
6201 6799
6201 7334
6206 7098
6207 6687
6207 6852
6207 6876
6207 7256
6208 6519
6210 6854
6214 6293
6214 7178
6217 6298
6217 6446
6217 6712
6217 6785
6217 6818
6219 6695
6219 7490
6225 6393
6226 6258
6227 6407
6227 6535
6229 6441
6233 6799
6233 7604
6234 6507
6234 6697
6234 6751
6234 6789
6234 7179
6234 7237
6234 7409
6235 7009
6235 7086
6236 6607
6236 6654
6236 7237
6236 7558
6237 7003
6238 6242
6238 7100
6241 6471
6241 6481
6241 6740
6241 7387
6241 7432
6241 7483
6245 6888
6245 7602
6246 6256
6250 6939
6251 6357
6252 6669
6252 7106
6252 7170
6252 7358
6256 6612
6256 6636
6256 7291
6256 7534
6256 7550
6259 7009
6259 7086
6261 6514
6262 7032
6263 6532
6267 6744
6267 6888
6267 7602
6269 6339
6270 7334
6270 7405
6272 6340
6272 6514
6272 7265
6274 6958
6275 7199
6276 6539
6280 6621
6280 6860
6281 7510
6283 7000
6283 7549
6286 6786
6290 6810
6291 7226
6291 7237
6296 6519
6300 7369
6301 7237
6302 6719
6302 6925
6304 6859
6306 7177
6312 7194
6313 7537
6316 6432
6317 6461
6317 6462
6317 6479
6317 7186
6317 7435
6320 7411
6321 6712
6321 7533
6321 7536
6323 6339
6323 6446
6323 6544
6323 6586
6323 7068
6326 6707
6327 6432
6329 7193
6330 6373
6330 6482
6331 7111
6337 7199
6337 7366
6338 7099
6339 6567
6339 6926
6339 7088
6339 7416
6343 6841
6343 7237
6343 7293
6345 6848
6347 7002
6348 7579
6351 7237
6352 7162
6353 6460
6356 6633
6357 6419
6358 6617
6359 7456
6361 6496
6361 6667
6361 7202
6361 7247
6365 6982
6365 7001
6366 6460
6367 7384
6367 7416
6369 6553
6369 7226
6369 7237
6371 7329
6373 6519
6374 6442
6378 6529
6378 7015
6378 7162
6378 7350
6378 7352
6378 7552
6379 7604
6380 7059
6383 7068
6383 7297
6383 7397
6386 6685
6387 7091
6391 6409
6391 6525
6391 6639
6391 6792
6391 7226
6391 7237
6393 7180
6396 7411
6398 7284
6399 6530
6399 7622
6401 7311
6403 7237
6406 6814
6408 6419
6408 6820
6408 6991
6408 7256
6408 7294
6408 7489
6413 6913
6417 6538
6417 6592
6419 6755
6419 6967
6419 7256
6419 7489
6421 6547
6421 6920
6421 7205
6423 7315
6424 6446
6424 6544
6424 7275
6427 6770
6427 7294
6427 7489
6436 6562
6437 6753
6439 6461
6439 7598
6442 6712
6443 7129
6445 6514
6446 6544
6446 7184
6446 7435
6448 7580
6452 7012
6457 6521
6457 6960
6458 6876
6458 6967
6458 7256
6459 6492
6459 6944
6460 6477
6460 6522
6461 7598
6463 7214
6466 6617
6466 7580
6466 7600
6467 6797
6468 6884
6468 7228
6472 7199
6475 6606
6476 6799
6476 7227
6476 7334
6476 7405
6476 7410
6476 7604
6478 6529
6478 6919
6481 7483
6483 7158
6485 6927
6487 6518
6487 6519
6489 6655
6490 7237
6490 7520
6493 7053
6494 6519
6496 7141
6496 7181
6496 7414
6500 7227
6500 7604
6502 7237
6503 7089
6503 7395
6505 7587
6506 7595
6507 7179
6508 7249
6509 6586
6510 7334
6512 6729
6514 7224
6515 7232
6519 6621
6519 6653
6519 6803
6519 6860
6519 6891
6519 7224
6519 7245
6519 7266
6519 7535
6528 6538
6528 6563
6529 6633
6530 6919
6530 7107
6530 7622
6531 6704
6536 7585
6538 7035
6538 7054
6538 7504
6538 7551
6541 6884
6546 6812
6546 6958
6549 7432
6552 7237
6553 7237
6554 7226
6554 7284
6556 7513
6558 6797
6561 6905
6562 6986
6562 7019
6564 6761
6564 7449
6564 7561
6566 7016
6567 6776
6567 7612
6568 6656
6568 6956
6568 7266
6573 6892
6575 7162
6576 7166
6579 6792
6585 7237
6595 6904
6598 7579
6600 6963
6607 7511
6610 7237
6613 7284
6616 6712
6616 7536
6617 7028
6617 7386
6617 7600
6618 6950
6621 7224
6621 7339
6622 7244
6630 7225
6631 7482
6632 6775
6633 6707
6633 6891
6633 7436
6635 6888
6636 6775
6636 7506
6637 6991
6639 6689
6639 7202
6641 7330
6642 6863
6642 6912
6642 7171
6642 7237
6642 7375
6642 7429
6642 7590
6643 6853
6645 6687
6648 6955
6649 6891
6650 7019
6652 7579
6654 7621
6656 6944
6656 7295
6663 7223
6666 7484
6668 7617
6672 7235
6672 7416
6673 6938
6673 7569
6674 6935
6682 7224
6684 7030
6684 7587
6686 7593
6695 6789
6695 7547
6697 7237
6700 7545
6701 7100
6703 6825
6705 7200
6706 7353
6710 6859
6712 6725
6712 6812
6712 6862
6712 7533
6712 7536
6715 7296
6717 7256
6720 6734
6724 6985
6724 7308
6724 7587
6725 7139
6728 7226
6728 7363
6743 7324
6746 7478
6752 7512
6752 7560
6757 7334
6757 7405
6757 7477
6765 7098
6769 7061
6770 6991
6772 7001
6772 7199
6779 7417
6785 7225
6787 7498
6789 7237
6790 7600
6792 6857
6792 6870
6792 7226
6792 7237
6792 7322
6794 7123
6797 7237
6797 7621
6800 7029
6805 7011
6806 7343
6812 7225
6813 6990
6813 7080
6815 7382
6818 7141
6819 7199
6823 7296
6824 7199
6826 6947
6827 6990
6827 7080
6828 7156
6831 6908
6834 7213
6842 7122
6845 7352
6846 7237
6846 7433
6852 7558
6853 7052
6859 7530
6869 7067
6870 7237
6872 6954
6874 7593
6884 6887
6887 7220
6887 7393
6888 6987
6890 7213
6890 7519
6891 7075
6891 7398
6891 7548
6891 7558
6893 7124
6893 7219
6899 7595
6903 7162
6907 7199
6915 7341
6919 7308
6924 7427
6925 7036
6930 7134
6931 7091
6931 7237
6931 7460
6936 7340
6938 7448
6941 7279
6941 7534
6942 7604
6948 7129
6955 7165
6955 7457
6955 7488
6958 7141
6960 7524
6965 7340
6969 7162
6970 7348
6972 7080
6972 7100
6974 7140
6981 7211
6987 7602
6990 7080
6996 7119
6999 7160
7001 7199
7005 7170
7012 7237
7013 7609
7014 7334
7017 7284
7022 7071
7024 7216
7028 7361
7030 7488
7032 7079
7042 7226
7050 7581
7056 7196
7068 7397
7072 7237
7075 7490
7080 7359
7080 7584
7087 7526
7088 7565
7100 7234
7100 7346
7100 7372
7100 7470
7102 7141
7104 7315
7106 7188
7107 7226
7118 7199
7122 7403
7123 7224
7123 7563
7126 7556
7127 7237
7127 7578
7128 7188
7141 7452
7141 7533
7141 7536
7149 7287
7153 7258
7162 7350
7162 7352
7162 7374
7166 7486
7170 7302
7178 7422
7184 7435
7188 7445
7195 7407
7199 7339
7202 7226
7213 7519
7215 7227
7215 7334
7217 7415
7224 7289
7224 7339
7226 7349
7226 7391
7226 7606
7227 7334
7237 7282
7237 7305
7237 7344
7237 7349
7237 7353
7237 7398
7237 7460
7237 7490
7237 7547
7237 7548
7237 7575
7237 7578
7237 7589
7245 7535
7256 7489
7265 7594
7268 7298
7270 7339
7276 7381
7277 7398
7292 7316
7313 7573
7333 7592
7334 7604
7334 7623
7351 7412
7352 7552
7364 7586
7366 7600
7385 7395
7385 7457
7400 7618
7402 7601
7403 7522
7409 7621
7420 7545
7468 7579
7475 7579
7482 7615
7488 7564
7505 7579
7533 7536
7569 7587
7580 7595
