0 812
0 2051
0 6341
1 3809
2 93
2 258
2 361
2 1548
2 1745
2 3544
2 3971
2 5026
2 5792
2 5837
2 7571
3 2151
3 3584
4 121
4 663
4 5260
4 5956
4 6378
4 7485
5 432
5 3458
5 4070
5 6416
6 228
6 448
6 2062
6 2280
6 2582
6 4388
6 4809
6 4864
6 7082
6 7116
6 7326
7 975
7 4883
7 5933
7 6093
7 6121
8 3943
9 1266
9 1731
10 186
10 419
10 581
10 860
10 887
10 997
10 1064
10 1071
10 1261
10 1318
10 1384
10 1487
10 1534
10 1747
10 2019
10 2187
10 2198
10 2235
10 2330
10 2684
10 2708
10 2731
10 2749
10 2801
10 3046
10 3439
10 3488
10 3641
10 4182
10 4236
10 4238
10 4497
10 4584
10 4638
10 4781
10 4799
10 5006
10 5107
10 5379
10 5472
10 5751
10 6220
10 6755
10 6812
10 7205
10 7459
10 7485
10 7542
10 7547
11 298
11 2358
11 5486
11 5630
11 5712
11 5845
11 6230
11 6371
11 6851
11 7263
12 4598
13 895
13 1566
13 1906
13 4414
13 5882
13 6509
13 6703
14 2081
14 3469
14 5813
14 6321
14 6776
15 3257
16 31
16 1234
16 2443
16 2726
16 4422
16 5310
16 6343
16 6359
17 614
17 1013
17 2501
17 5331
18 6923
19 972
19 3809
20 3809
21 1663
21 2826
22 93
22 127
22 1148
22 1309
22 2411
22 3971
22 4430
22 4845
22 4886
22 5338
23 161
23 1702
23 2684
23 3763
23 4650
23 4980
24 820
24 3108
24 6458
24 6676
25 3809
26 979
26 1907
26 2744
26 3153
26 5792
26 5872
26 6037
26 6090
26 7427
27 1330
27 3809
27 4058
27 6807
28 4396
29 1350
30 2060
30 2238
30 2446
30 2524
30 2530
30 3647
30 5107
30 6220
30 7000
31 37
31 161
31 258
31 709
31 785
31 853
31 1071
31 1072
31 1391
31 1480
31 1630
31 1819
31 1931
31 1950
31 2179
31 2216
31 2524
31 2560
31 2753
31 2942
31 3150
31 3647
31 3775
31 3781
31 4004
31 4185
31 4337
31 4427
31 4724
31 4973
31 5211
31 5463
31 5598
31 5921
31 6012
31 6071
31 6167
31 6184
31 6308
31 6343
31 6395
31 7028
31 7241
31 7258
31 7332
31 7419
31 7496
32 97
32 946
32 1431
32 1548
32 1662
32 1699
32 1821
32 1923
32 2013
32 2089
32 2145
32 2168
32 3034
32 3839
32 3976
32 4046
32 4263
32 4463
32 6343
32 6521
32 7058
32 7151
32 7474
32 7578
33 1514
33 2985
33 3809
33 4159
33 4710
33 4791
33 5331
33 5840
33 5870
34 2116
35 3809
36 127
36 2409
36 3594
36 5016
36 5054
37 161
37 1466
37 1513
37 1775
37 2359
37 3124
37 3780
37 4316
37 4661
37 5016
37 5041
37 5800
37 7366
38 568
38 614
38 2456
38 3224
38 3809
38 5497
38 5762
38 5882
39 4202
40 857
40 1032
40 2058
40 2083
40 7283
41 4345
42 6305
43 1039
44 223
44 5782
44 6942
45 6070
45 6634
46 915
46 1196
47 230
47 4635
48 1195
49 1052
49 1554
49 1858
49 2020
49 2052
49 3131
49 3366
49 3419
49 3809
49 4687
50 3638
50 7477
51 1422
52 947
52 3247
52 3647
52 4032
52 5183
52 5274
52 6184
52 7263
53 213
53 4011
53 4670
54 77
54 4170
54 4286
55 273
55 2547
55 3809
55 4797
55 5673
56 599
56 1256
56 2098
56 2579
56 5486
56 7382
57 652
57 3043
57 3546
58 1920
58 5463
59 725
60 592
60 3809
60 4094
60 5169
60 6805
61 3809
62 247
62 2046
63 332
63 2256
64 741
64 960
64 1094
64 3160
64 3257
64 3751
65 1594
65 4646
66 885
66 887
66 1151
66 1256
66 1316
66 1350
66 1528
66 2468
66 2515
66 3096
66 3166
66 3555
66 3847
66 4008
66 4746
66 5294
66 5492
66 5544
66 5722
66 5741
66 5924
66 6230
66 6284
66 6422
66 6518
66 6976
66 7030
66 7121
67 1614
67 3574
67 4146
67 5107
67 6053
67 6217
68 610
69 93
69 467
69 702
70 4674
70 6168
70 7325
71 3045
72 1497
72 2529
72 3314
72 3926
72 4512
72 4664
72 5059
72 7272
73 948
73 2446
73 4786
74 595
74 2535
74 2827
74 3809
74 4711
75 5132
76 479
77 4319
78 525
78 5195
79 466
79 2417
79 5026
79 5478
80 1870
81 2151
81 6347
82 1216
82 3050
82 3246
82 3641
82 3789
82 5763
82 6201
83 449
83 6036
84 517
84 633
84 1013
84 1932
84 1969
84 2058
84 2095
84 2327
84 3341
84 3557
84 3906
84 4031
84 4427
84 4506
84 6181
84 6389
84 7088
84 7326
85 3456
85 3749
85 7326
86 2208
86 2864
87 408
87 454
87 502
87 856
87 1315
87 1550
87 1709
87 1711
87 2553
87 2607
87 3131
87 3538
87 3809
87 3829
87 4156
87 4265
87 4275
87 6110
87 7124
88 3172
88 4491
88 6416
88 6551
88 7518
89 4766
89 7388
90 3809
90 4099
90 4396
91 1194
91 1309
91 2727
91 4276
91 4577
91 5259
91 5763
91 6616
91 7315
92 842
92 2005
93 562
93 683
93 1045
93 1076
93 1421
93 2693
93 4015
93 4390
93 4469
93 4620
93 4845
93 4886
93 5338
93 7285
94 2706
94 3017
95 3503
96 7470
97 2797
97 2980
97 3117
97 3906
97 6140
97 6231
97 6416
97 6883
97 7426
98 664
98 1022
98 1089
98 1107
98 1313
98 1518
98 1713
98 1792
98 2240
98 2411
98 3783
98 4539
98 5673
98 5857
98 6408
98 6489
98 6708
98 7112
99 324
99 426
99 1819
99 2905
99 3787
99 3830
99 4076
99 4939
99 5399
99 6551
100 1215
100 3314
101 1914
101 2721
101 4942
102 2593
102 5157
103 3430
103 3847
103 6888
104 230
104 1125
104 1354
104 3809
105 3809
106 970
106 2458
106 6222
107 1458
107 1728
107 2290
107 4909
107 7231
107 7526
108 3934
108 6164
108 7115
109 485
109 692
109 1539
109 2770
109 2863
109 4650
109 5712
110 551
110 1705
110 2179
110 2624
110 5002
111 4127
111 5903
112 1488
112 2942
112 4296
112 4938
112 7093
112 7326
112 7558
113 493
113 504
113 1628
113 2980
113 3621
113 4079
113 5955
113 6950
113 7117
113 7235
114 258
114 1325
114 1749
114 1906
114 2048
114 2567
114 2644
114 2854
114 3656
114 5802
114 6222
114 7468
115 6076
116 3696
117 432
117 1526
117 2320
117 3905
117 6693
118 3809
119 3314
119 7088
119 7326
120 660
120 1704
120 2221
120 3681
120 5016
121 520
121 1152
121 1268
121 1774
121 2171
121 2330
121 2980
121 3133
121 3213
121 4202
121 5758
121 5854
121 7082
121 7445
121 7453
122 1334
122 2000
122 3878
123 1629
123 3187
123 3295
123 3971
123 5063
123 5292
124 174
125 1731
125 3087
125 6048
126 806
126 1576
126 1635
126 3633
126 5142
127 137
127 370
127 422
127 432
127 462
127 674
127 852
127 1017
127 1030
127 1038
127 1605
127 1655
127 1782
127 1811
127 1908
127 2823
127 2834
127 2999
127 3313
127 3773
127 3905
127 4115
127 4300
127 4372
127 4507
127 4583
127 4848
127 5178
127 5192
127 5277
127 5614
127 5636
127 5646
127 5678
127 5862
127 6082
127 6098
127 6260
127 6951
127 7564
128 164
128 1900
129 2205
129 2290
130 3469
130 6560
130 6703
131 2109
132 605
132 2692
132 3601
132 3740
132 3809
132 3971
132 3974
132 4765
133 265
133 360
133 812
133 1621
133 1819
133 2055
133 2187
133 2901
133 3556
133 3598
133 3974
133 4459
133 4598
133 5019
133 5224
133 5340
133 6034
133 6191
133 6377
133 7290
134 4370
135 5026
136 663
137 422
137 3810
137 6046
138 614
138 3181
138 3662
139 264
139 3809
139 5026
140 3003
141 3769
142 1743
142 2681
142 3406
142 4024
142 5383
142 7326
143 3809
143 5647
143 6839
143 7548
144 1174
144 1734
144 3809
145 3809
146 536
146 740
146 1290
146 3186
146 3842
146 6635
147 1204
147 2640
147 2826
147 3274
147 4080
147 4217
147 5598
147 5738
147 6226
147 6378
147 7223
148 5016
148 6886
149 1476
149 6537
150 190
150 292
150 467
150 973
150 1062
150 1080
150 1323
150 1635
150 1888
150 2093
150 2572
150 2640
150 2864
150 3149
150 3767
150 4043
150 4539
150 4635
150 5026
150 5252
150 5679
150 5792
150 6563
150 6769
150 6983
150 7180
150 7316
151 3809
152 7397
153 4296
153 5448
154 1423
154 1450
154 3180
154 5699
154 6400
155 506
155 2482
155 7073
156 2735
156 5262
156 6577
156 7124
157 2441
157 6812
158 3612
158 3908
158 4396
158 5132
158 5300
158 5715
158 6724
159 1908
160 3809
160 3849
160 6881
161 279
161 342
161 2566
161 2816
161 3453
161 5751
161 6784
161 6978
161 7082
162 857
162 4396
162 4428
162 5861
163 1862
164 485
164 806
164 2631
164 3121
164 4724
164 4952
164 7489
165 884
165 6869
166 3809
166 3906
166 4682
166 7283
167 628
167 836
167 3847
167 4792
167 5011
167 5028
167 5623
167 5917
167 6769
167 7023
168 1309
168 2590
168 3809
168 4635
168 5028
168 6476
169 3809
170 4702
171 3332
172 1076
172 2980
172 3809
172 5262
172 6882
173 3809
173 4244
173 6051
174 685
174 779
174 1046
174 1192
174 1418
174 1491
174 1789
174 1898
174 1963
174 2245
174 2508
174 2980
174 3136
174 3358
174 4660
174 4720
174 4757
174 4905
174 4997
174 5470
174 5784
174 5907
174 6019
174 6416
174 6588
174 6713
174 6798
174 6885
174 7021
174 7148
174 7312
174 7581
175 4422
175 4618
176 7041
177 3491
177 3544
177 3765
177 6415
177 6567
177 6717
178 1724
178 2330
179 837
179 2352
179 2428
179 3373
179 3809
179 5634
180 439
180 3809
181 1731
182 591
182 1711
182 4127
182 6063
182 6378
182 6468
182 6551
183 2213
184 2681
184 2936
185 1021
185 1829
185 2684
185 3516
185 3809
185 3895
185 6243
186 610
186 4310
186 5075
186 5099
186 5142
186 6430
187 709
187 1803
188 366
188 1224
188 1491
188 3567
188 3705
188 3870
188 3959
188 5178
188 5350
188 7153
188 7164
188 7283
188 7518
189 3586
189 3809
189 4031
189 6365
190 888
190 1972
190 3463
190 4201
190 5347
190 6802
190 7068
190 7571
191 2134
191 3298
192 6646
193 595
193 1279
193 4239
194 5302
194 5975
195 902
195 1527
195 1923
195 2750
195 3597
195 4252
195 5430
195 5878
195 6135
195 6596
195 7126
195 7561
196 898
196 1938
196 2051
196 3809
196 4029
197 4426
197 7082
198 3809
198 4648
199 2826
200 2602
200 6563
201 3291
201 5257
202 2058
203 2113
203 3273
203 3350
203 3874
203 4297
203 5011
203 7560
204 5712
205 491
206 1355
206 5019
207 4226
207 5466
208 3809
209 1350
209 3696
209 5266
210 3334
210 3494
210 3583
210 7478
211 6167
211 6508
211 6877
212 1678
212 6231
212 6416
212 6672
212 7021
213 270
213 3915
213 5651
213 6287
213 6502
213 6782
213 7599
214 1843
214 5925
215 3468
215 5590
215 6608
216 946
216 3420
216 3971
216 6464
217 782
217 3374
217 7450
218 6206
219 264
219 687
219 3616
219 3971
219 5877
220 455
220 1030
220 1781
220 2111
220 3381
220 3809
220 5704
220 6774
220 7023
220 7283
221 2275
221 5624
221 5877
222 342
222 503
222 579
222 672
222 1016
222 2564
222 2604
222 3449
222 3823
222 6312
222 7332
222 7477
223 3142
223 5463
224 2969
224 3840
225 533
225 1357
225 4787
225 5654
226 3225
227 4213
227 5724
228 2718
228 3488
228 4541
228 4781
228 5271
228 6232
228 6938
229 6879
230 1913
230 2001
230 2141
230 3921
230 4431
230 5128
230 5144
230 5147
230 6064
230 6987
231 500
231 1510
231 2233
231 5140
231 5499
231 5880
231 6648
232 306
232 3273
232 3760
233 1745
234 3531
235 3601
235 4969
235 7393
236 427
236 619
236 887
236 1363
236 1451
236 1902
236 3702
236 6224
236 6250
236 6693
237 616
237 3737
237 4996
237 7426
238 6961
239 2556
240 1472
240 2093
240 3332
240 3681
240 3776
240 3809
240 4201
240 6869
241 3809
242 3809
242 3971
242 4471
243 3809
244 390
244 1220
244 3809
245 332
245 1325
245 1883
245 1904
245 2793
245 3939
245 4200
245 6146
245 6410
245 6542
245 6870
245 7045
246 3809
247 450
247 3482
248 2982
248 3427
248 4803
248 6828
249 5278
250 694
250 1648
250 3305
250 6352
250 7412
251 801
251 1179
251 2270
251 3445
252 4461
253 4690
254 405
254 6728
255 258
255 993
255 1999
255 2240
255 2274
255 2288
255 2857
255 2928
255 3313
255 3550
255 3906
255 4168
255 4299
255 5479
255 5697
255 6140
255 6208
255 7316
255 7571
256 3162
257 824
257 1550
257 2901
257 2999
257 3585
258 415
258 516
258 1155
258 1199
258 1309
258 1431
258 1447
258 1713
258 1761
258 1800
258 1920
258 2084
258 2100
258 2321
258 2385
258 2532
258 2615
258 2671
258 2834
258 2887
258 2928
258 3034
258 3123
258 3308
258 3332
258 3525
258 3905
258 3974
258 3975
258 4187
258 4201
258 4219
258 4426
258 4509
258 4693
258 5026
258 5028
258 5139
258 5175
258 5475
258 5862
258 5980
258 6048
258 6208
258 6209
258 6298
258 6415
258 6476
258 6643
258 6693
258 6862
258 7117
258 7164
258 7174
258 7338
258 7404
258 7575
259 3809
259 5315
260 5603
260 5956
261 811
261 2721
261 3034
261 7406
262 1647
262 2515
262 5342
262 6605
263 6160
263 7174
264 361
264 654
264 1444
264 1489
264 1920
264 2093
264 2145
264 2212
264 2959
264 3032
264 3427
264 3449
264 3581
264 3737
264 3809
264 4532
264 5458
264 5569
264 5596
264 5767
264 6381
264 6990
264 7049
264 7578
265 3598
265 5976
265 6598
265 7290
266 2447
266 3809
267 1383
268 879
268 5546
269 3729
270 282
270 454
270 509
270 812
270 1093
270 1328
270 1580
270 1589
270 1597
270 1944
270 1951
270 2303
270 2510
270 2554
270 3014
270 3096
270 3430
270 3603
270 3696
270 3875
270 3914
270 4314
270 4370
270 4745
270 4852
270 5074
270 5517
270 5630
270 5651
270 5699
270 5753
270 6139
270 6227
270 6377
270 6433
270 6782
270 7173
270 7197
270 7416
270 7439
271 814
271 3261
271 3959
271 4307
271 4971
271 5854
271 5862
271 5967
271 6349
272 652
272 889
272 2788
272 7593
273 4539
274 1867
274 1935
274 5070
274 5116
274 6567
274 6719
274 6898
274 7562
275 1439
276 4660
277 1593
278 3809
278 3896
280 4015
280 4217
280 4384
280 4943
280 5679
280 5699
280 6802
281 5962
281 6041
281 6113
281 7408
281 7485
282 597
282 599
282 1444
282 2151
282 2988
282 3544
282 3922
282 4337
282 4570
282 5780
282 6377
282 6815
283 4859
283 6164
284 4380
284 7271
285 7493
286 607
286 851
286 1553
286 2743
286 3159
286 3543
286 3952
286 4336
286 4397
286 4635
286 5636
286 5658
286 6001
286 6043
286 6387
286 6700
286 6937
286 7111
286 7309
286 7571
287 2088
287 2807
287 6378
287 7571
288 4109
288 4787
288 5626
288 5687
289 471
289 1194
289 4496
289 5728
289 6440
290 381
291 2041
291 2652
291 2753
291 4056
291 6491
291 6870
291 7377
292 1925
292 3362
292 3809
292 5016
292 5456
292 6485
292 7313
292 7346
293 4444
294 1198
294 1258
294 1380
294 1433
294 1828
294 2660
294 2905
294 3078
294 3647
294 3669
294 3801
294 3809
294 3812
294 4231
294 4809
294 4961
294 4993
294 5790
294 6271
294 6560
294 7127
295 1393
295 1557
295 2826
295 5720
296 6993
297 740
297 1732
297 2478
297 4781
297 6220
297 7065
297 7571
298 1020
298 1149
298 1856
298 2549
298 6090
298 6153
298 6518
298 6766
298 6774
298 7260
299 3809
300 2286
300 5624
300 5975
301 662
301 3273
301 4126
301 4534
301 7116
302 3103
302 4510
303 1389
303 3809
304 493
304 1413
304 1433
304 3971
304 3975
304 5158
304 6951
304 7174
305 2412
305 2603
305 3737
305 5757
306 1138
306 3089
306 3110
306 3830
306 4427
306 5541
306 7108
306 7272
306 7449
307 2330
308 513
309 674
310 2813
310 3651
311 797
311 1206
311 2047
311 2423
311 2991
311 2999
311 3047
311 3621
311 4701
311 4811
311 7023
312 1459
312 3576
312 6337
313 777
313 2826
313 4015
314 1319
314 1520
314 3847
314 4721
315 3119
315 6260
316 3809
317 1261
317 3181
317 5869
318 1920
318 4515
318 5910
319 1217
319 2253
319 2367
319 4939
320 686
320 812
320 1875
320 1952
320 3809
320 4284
320 4473
320 4564
320 5271
320 5571
320 6074
320 6239
320 6258
320 6705
320 7179
320 7326
321 2253
322 1776
322 3809
322 4351
323 3809
323 4373
324 2846
324 3250
324 4008
325 522
325 812
325 3362
325 3923
325 5259
326 848
326 1424
326 2560
326 3636
326 5651
326 6301
326 6763
326 6965
326 7146
327 5246
328 467
328 710
328 851
328 1125
328 1174
328 1199
328 1766
328 2170
328 2219
328 2414
328 2420
328 2726
328 2845
328 3039
328 3384
328 3802
328 4097
328 5374
328 5812
328 5852
328 5956
328 6224
328 6282
328 6377
328 6392
328 7010
328 7223
328 7423
329 1290
330 1062
330 5651
330 6370
330 6917
331 361
331 595
331 993
331 1527
331 1943
331 2629
331 2706
331 2735
331 2818
331 3604
331 3617
331 3702
331 3705
331 3934
331 4687
331 5167
331 5494
331 6250
331 6416
331 7283
332 447
332 473
332 725
332 830
332 841
332 1415
332 1717
332 1736
332 1763
332 1982
332 2429
332 2446
332 2556
332 2603
332 3305
332 3314
332 3333
332 3471
332 3547
332 3809
332 4045
332 4053
332 5039
332 5193
332 5322
332 5900
332 6108
332 6121
332 6469
332 6571
332 6969
332 7179
332 7247
332 7332
332 7343
332 7373
332 7477
333 2552
333 6104
334 2702
334 6943
335 2111
335 5976
335 6804
336 1644
336 3005
336 3254
336 3971
336 5986
336 7124
337 4716
338 628
338 677
338 2093
338 3153
338 3737
338 3906
338 5030
338 5884
338 6888
339 2614
339 6176
340 1339
340 1911
340 2119
340 2816
340 2962
340 3273
340 3392
340 3726
340 4487
340 5477
340 5576
340 5659
340 6812
341 538
341 568
341 912
341 1071
341 1378
341 2409
341 4182
341 5409
341 5570
341 6099
341 6434
342 4493
343 894
343 1920
343 3608
343 3809
344 1444
344 3809
344 4135
344 4352
344 5221
344 6275
345 2345
345 3809
345 3971
345 6924
346 1263
346 4567
346 5041
346 5846
346 7130
347 6879
348 4718
348 7396
349 891
349 5968
349 6510
350 3809
351 2708
351 3392
352 2711
352 6933
352 7363
353 4028
353 6037
354 591
354 3711
354 3971
354 7423
355 3550
355 5801
356 2501
357 2827
357 7154
358 3809
359 3785
359 3809
359 6104
359 6763
360 456
360 482
360 494
360 958
360 1828
360 2652
360 2865
360 2934
360 3194
360 3549
360 4004
360 4310
360 5002
360 5482
360 5759
360 5858
360 6032
360 6359
360 7334
360 7560
361 366
361 432
361 439
361 462
361 557
361 648
361 677
361 703
361 837
361 867
361 915
361 1224
361 1285
361 1305
361 1322
361 1418
361 1475
361 1549
361 1605
361 1638
361 1666
361 1811
361 1902
361 1908
361 2020
361 2071
361 2088
361 2249
361 2250
361 2268
361 2366
361 2378
361 2414
361 2629
361 2741
361 2880
361 3427
361 3502
361 3526
361 3702
361 3713
361 3809
361 3908
361 3959
361 4166
361 4257
361 4279
361 4289
361 4296
361 4358
361 4513
361 4844
361 4879
361 5132
361 5135
361 5175
361 5184
361 5350
361 5434
361 5861
361 6019
361 6125
361 6266
361 6426
361 6551
361 6799
361 6882
361 6886
361 6888
361 7250
361 7272
361 7309
361 7403
361 7518
361 7544
362 1099
362 2720
362 3314
362 7088
363 3809
364 3809
364 7283
365 398
365 428
365 2163
365 4227
365 6166
366 1621
366 3951
366 6393
366 7196
367 3639
368 1322
368 1404
368 1666
368 2706
368 2827
368 2980
368 3809
368 3971
368 5299
368 5400
368 6225
369 891
369 1614
369 4771
369 7146
370 796
370 1204
370 2366
370 2980
370 6769
370 7190
370 7426
371 948
371 1320
371 2856
371 3393
371 6605
372 843
372 3158
372 3827
372 5675
373 934
373 3971
374 1389
375 632
375 3634
375 4325
375 4413
375 6630
375 7445
375 7571
376 3709
376 5466
376 6914
376 7326
377 6551
377 6693
378 496
379 3117
379 7250
380 914
380 997
380 1909
380 2127
380 3013
380 4346
380 5876
380 6091
381 2019
381 3351
381 4018
381 5349
381 5455
381 6247
381 6432
382 3809
382 4135
382 4279
382 6386
383 646
383 1488
383 3757
383 4618
384 5486
385 568
385 628
385 652
385 954
385 1050
385 1601
385 2739
385 2806
385 3099
385 3923
385 4054
385 4570
385 5274
385 6323
385 6896
385 7447
385 7534
386 3809
387 922
388 2735
388 3934
388 5350
388 6076
388 7283
389 587
389 1459
389 5939
390 606
390 5861
390 6196
391 1467
391 1580
391 1822
391 2198
391 3613
391 4863
391 5118
391 5271
392 499
392 5255
393 5311
394 5127
394 5995
394 6253
394 6317
394 7337
395 2330
395 4164
395 4506
395 5651
395 7082
396 2286
396 3824
396 5624
397 3809
397 6961
398 1270
398 2600
398 4266
399 2238
399 4626
400 2524
401 3809
402 5297
403 699
404 668
404 2186
404 2738
404 2803
404 3706
405 1136
405 4756
405 4915
405 6560
405 6838
406 997
406 1524
406 3915
406 6175
406 6508
406 7163
406 7177
406 7497
407 1032
407 2099
407 4161
407 6551
407 7174
407 7272
408 504
408 2857
408 3544
408 3621
408 4447
409 1995
410 2777
410 4279
410 6300
411 948
411 1893
411 2524
411 5052
411 6313
412 3809
413 6847
414 3809
414 6945
414 7390
415 640
416 1557
417 887
417 946
417 954
417 1826
417 2170
417 2494
417 3153
417 3906
417 5740
417 6717
417 6961
418 1049
418 2556
418 5019
419 801
419 1712
419 3808
419 3929
419 4172
419 6329
420 1557
421 6091
422 1247
422 1322
422 1699
422 2258
422 2268
422 2706
422 2935
422 3034
422 3905
422 4088
422 5878
422 5915
422 6374
422 6416
422 6548
422 6551
422 7102
422 7250
422 7426
423 3158
423 3809
423 4036
423 7272
424 1699
424 2234
424 2517
424 3316
424 3809
424 4324
424 5119
425 1940
425 3809
425 5778
425 6377
426 4269
426 5534
427 1128
427 1853
427 3677
427 3809
427 6416
427 7561
428 2815
428 6583
429 3809
430 1389
430 3800
431 3018
431 6624
432 747
432 916
432 1169
432 1199
432 1363
432 1731
432 2547
432 3063
432 3138
432 3484
432 3681
432 3966
432 4279
432 4299
432 4409
432 4515
432 5178
432 5548
432 5673
432 5953
432 6224
432 6260
432 6386
432 6409
432 7277
432 7444
432 7475
433 2708
433 5039
433 6154
434 2980
434 3682
434 3713
434 3809
434 5015
434 6378
435 3004
435 7379
436 5073
437 859
437 2629
437 3454
437 3705
437 3809
437 4720
437 5350
438 1974
439 3959
439 7190
440 671
440 831
440 1330
440 4611
440 5928
440 6686
441 7502
442 486
442 5103
442 5924
443 851
443 3562
443 3936
444 3830
444 4724
445 2245
445 2993
446 504
446 616
446 1268
446 2013
446 2093
446 2699
446 3213
446 3737
446 4422
448 1520
448 1945
448 2135
448 3115
448 3624
448 4718
448 5821
449 1557
450 2752
450 3314
450 3604
450 4568
450 6462
451 3906
451 5178
452 760
452 2613
452 3555
453 1614
453 5013
453 5331
454 715
454 812
454 1450
454 1662
454 1920
454 2212
454 2474
454 2505
454 2735
454 3089
454 3383
454 3598
454 3809
454 3971
454 4031
454 4573
454 4613
454 5560
454 5636
454 6048
454 6812
455 4859
456 1966
456 3453
457 7485
458 860
459 1306
459 1680
459 3880
459 5580
459 5854
459 6817
459 7082
460 2174
461 2815
462 2116
462 2188
462 3776
462 4983
462 6881
462 7289
463 699
463 1902
463 3810
463 7272
464 2238
464 2556
464 2622
464 3241
464 3421
464 3809
464 4283
464 5294
464 5354
464 5384
464 7462
465 5967
466 2280
466 2610
466 2612
466 2644
466 3480
466 3696
466 6312
466 6537
466 7397
467 902
467 1046
467 1285
467 1363
467 1386
467 1491
467 1695
467 2249
467 2851
467 3000
467 4135
467 4422
467 4434
467 4470
467 5864
467 6063
467 6715
467 7462
468 2612
468 6513
469 614
469 1822
469 2330
469 2348
469 2549
469 3314
469 5943
470 810
470 1987
470 2199
470 2280
470 2459
470 5739
471 1539
472 2625
473 1524
474 3809
475 1707
475 2095
475 4221
476 5631
476 7069
477 2693
477 7485
478 1510
478 4377
478 6812
479 2579
479 3341
479 4746
479 4961
479 6739
479 7072
479 7082
480 4725
481 3194
482 2817
482 3194
482 6377
482 6786
483 2627
483 3311
483 6562
483 6787
484 857
484 3543
484 4504
485 806
485 1159
485 2593
485 3785
485 4308
485 4809
485 4948
485 5162
485 5170
485 5349
485 5590
485 6153
485 6896
485 6975
486 2303
486 4141
486 4308
486 5924
486 6090
486 6406
486 6518
486 6756
487 764
487 3809
487 4501
487 4613
487 5914
488 687
488 843
488 1345
488 3971
488 6577
489 2515
489 3261
490 3787
491 2556
492 3316
492 4814
492 5387
493 946
493 1166
493 1237
493 1273
493 1422
493 1713
493 1745
493 1825
493 2721
493 3131
493 3233
493 6693
493 7180
493 7207
493 7393
493 7515
494 5482
494 6965
494 7479
495 6538
496 515
496 2256
496 2713
496 3124
496 4140
496 4581
496 5709
496 7120
496 7341
497 662
497 935
497 947
497 1032
497 1995
497 2405
497 4799
497 5176
497 5360
497 5463
497 5861
497 5865
497 5866
497 6379
497 7156
498 860
499 2510
500 887
500 960
500 1260
500 1620
500 3800
500 3954
500 5348
500 5542
500 7574
501 5972
502 1437
502 1557
502 3959
502 3971
502 6293
502 6704
504 1777
504 1837
504 2607
504 2999
504 3063
504 3314
504 3737
504 3809
504 3818
504 3908
504 4607
504 4811
504 5069
504 5786
504 6577
504 7084
504 7571
505 5659
506 2303
506 2470
506 3809
506 4910
506 5794
507 6146
508 1920
508 2088
508 2632
508 2671
508 3138
508 3809
508 5182
508 5985
508 7190
508 7571
509 1327
510 889
510 4881
510 5335
511 3469
511 3729
511 7284
512 3428
512 5107
513 1671
513 5016
514 1926
514 2097
514 4076
515 6120
516 1520
516 3635
516 3868
516 4031
516 4495
516 6958
517 1166
517 2330
517 4893
517 5813
517 6036
517 7258
518 3427
519 5398
520 677
520 1230
520 3809
520 4219
520 6831
520 7019
521 2687
521 4577
522 7505
523 1046
523 1460
523 2970
523 4078
523 4682
523 6015
523 6231
523 6625
523 6714
523 7096
523 7283
523 7581
524 1032
525 3257
525 3671
525 4809
525 6526
526 532
527 657
527 1708
528 2280
529 2942
530 5019
531 6043
532 3809
532 4624
532 5127
532 5237
532 7391
533 722
533 880
533 1627
533 1971
533 3087
533 3548
533 3809
533 3847
533 4119
533 4375
533 5347
533 5787
533 6664
533 6799
533 7575
534 1627
534 4840
535 3116
535 4337
535 4799
535 6350
535 6619
536 1920
536 2566
536 3895
536 5811
537 3809
538 1388
538 2105
538 2113
538 2923
538 6806
538 7045
538 7379
538 7584
539 946
540 1513
540 3500
540 5834
540 6162
540 7470
541 3579
542 7262
543 2961
543 4907
543 6300
543 6740
544 2706
544 6769
545 970
545 6622
545 7317
546 1009
546 2151
546 4127
546 6139
546 6177
547 1491
547 2414
547 2957
547 4571
548 1163
548 7029
549 3216
549 3417
549 7523
550 1868
550 2863
550 3056
550 3604
550 4959
551 1643
551 7587
552 7477
553 4859
553 5111
554 665
555 2632
555 3810
555 5518
555 6043
556 3260
556 6084
556 7146
557 630
557 3809
557 5139
557 6693
558 846
558 4046
558 7283
558 7484
559 959
559 1334
559 1856
559 6626
559 6979
560 1046
560 1066
560 1668
560 2970
560 3108
560 3358
560 4358
560 4528
560 6711
561 2603
562 4294
563 1596
563 1920
563 2320
563 2857
563 3030
563 3034
563 3332
563 3484
563 5458
563 5752
563 6476
563 6600
564 1712
564 4899
565 1313
565 1355
565 2403
565 3291
565 5107
565 5456
566 1580
566 2319
566 5803
567 2582
567 4121
568 710
568 914
568 2564
568 2702
568 3604
568 3809
568 4355
568 5606
568 5729
568 5934
568 6258
568 7545
569 2360
569 3893
569 4264
569 5370
570 3645
570 5030
571 5388
572 2829
572 3809
573 4157
574 1490
574 1915
574 4869
575 3809
576 3685
576 3809
576 5009
576 5039
577 2905
578 1055
578 3252
578 6462
578 6666
579 2960
579 3300
579 4053
579 4129
579 5573
579 5892
579 6230
579 6644
579 7082
579 7245
579 7555
580 1985
580 2428
580 4823
580 7283
581 3350
581 3809
581 4906
581 6108
581 6445
581 6508
582 1557
583 770
583 1939
583 2524
583 4032
583 5107
583 7007
583 7278
584 2186
585 3123
586 4859
586 5439
586 6714
587 1066
587 2857
587 3001
587 3567
587 3702
587 4358
587 4682
587 4945
587 5470
587 5504
587 5797
587 5926
587 6238
587 6404
587 6693
587 7096
587 7153
588 2777
589 674
589 4127
589 6424
590 675
591 3971
591 6924
591 7223
592 4094
592 4198
592 6805
592 7065
593 806
593 7121
593 7263
594 1274
594 3274
594 5944
595 2084
595 2212
595 2735
595 2957
595 2977
595 2997
595 3818
595 4135
595 4289
595 4561
595 6043
595 7578
596 3966
596 4819
597 1125
597 3604
597 3615
597 4702
597 4956
597 5047
597 5204
597 5464
597 7177
597 7245
597 7419
598 2970
598 3908
599 729
599 1189
599 1594
599 1743
599 1882
599 2026
599 2382
599 2556
599 3314
599 3669
599 3809
599 3937
599 3939
599 3996
599 4124
599 4192
599 4337
599 4360
599 4444
599 4658
599 4727
599 4820
599 5464
599 5846
599 6187
599 6334
599 6648
599 6707
599 6740
599 6812
599 6847
599 7174
599 7332
600 1628
600 2328
600 3115
600 5359
600 7315
601 1937
602 3809
603 7088
604 1583
604 2013
604 2026
604 2797
604 3809
604 4066
604 6563
604 7308
605 1917
605 3809
606 2374
606 3809
606 4846
606 4859
606 5566
606 5861
606 6196
606 6420
606 7154
607 1436
607 4474
607 7493
608 3809
608 4127
609 1511
609 1751
609 1793
609 2169
609 2961
609 4809
609 5431
609 5780
609 6626
609 6919
609 7093
609 7325
610 1235
610 2852
610 2886
610 5162
610 6444
610 6817
610 7569
611 4337
612 7379
613 1520
613 2006
613 3040
613 3395
613 3985
613 4121
613 4459
613 6764
614 896
614 1106
614 1325
614 1422
614 1753
614 1960
614 2058
614 2175
614 2342
614 3613
614 3671
614 3674
614 3752
614 3915
614 4192
614 4370
614 4738
614 4910
614 4938
614 5577
614 6560
615 2993
615 3567
615 6693
616 894
616 1066
616 1168
616 1209
616 1363
616 1735
616 1818
616 1920
616 1988
616 2607
616 2980
616 3737
616 3959
616 3971
616 3976
616 4020
616 4607
616 4635
616 4996
616 5016
616 5931
616 6112
616 6416
616 6827
616 7575
617 2171
618 2267
619 658
619 836
619 2212
619 2320
619 2915
619 3358
619 3458
619 3604
619 3810
619 6567
619 7035
620 3172
620 3809
621 919
621 2534
621 4987
621 6593
621 7272
622 6348
623 3656
623 3977
623 7028
624 2885
624 3959
624 4343
624 5818
624 6416
624 6678
624 6743
624 7401
625 2758
626 633
627 4819
627 6048
628 1541
628 2093
628 3063
628 3847
628 3939
628 3959
628 5646
628 5771
628 5854
628 6386
628 6551
628 7138
629 4604
630 1386
630 3119
630 4682
630 5498
631 789
631 801
631 5981
632 1080
632 1920
632 2142
632 2442
632 2706
632 2859
632 3427
632 4619
632 5101
632 5822
632 5877
632 6781
632 7331
632 7430
632 7485
633 1306
633 2280
633 4826
633 6181
633 7032
633 7097
634 2905
634 5768
635 3809
636 1166
636 2569
636 5270
637 2216
637 5960
638 4859
639 6299
640 3005
641 2111
641 2636
641 2677
641 4208
641 4975
641 7535
642 1033
642 1058
642 2187
643 687
643 1823
643 2212
643 3427
643 4201
643 4273
643 4335
643 6112
643 6907
643 6961
643 7517
643 7544
644 2642
644 3323
644 5141
644 6508
645 4960
645 5490
646 2895
646 3427
646 3757
646 4618
646 5539
647 1166
649 2580
649 3809
650 2826
651 3809
651 4718
652 806
652 887
652 947
652 1297
652 1581
652 1842
652 2530
652 2560
652 3252
652 3337
652 3655
652 3706
652 3770
652 3849
652 3925
652 3986
652 4213
652 4684
652 5142
652 5235
652 5260
652 5396
652 5528
652 6282
652 6396
652 6470
652 6788
652 6820
652 7081
652 7342
652 7560
653 814
653 4934
653 6891
654 1920
654 2099
654 3026
654 3427
655 2634
656 5636
656 5651
656 6787
657 1868
657 3809
657 5271
658 1638
658 1908
658 2590
658 2896
658 3544
658 3906
658 3971
658 4480
658 4922
658 5624
659 4141
659 5449
659 7545
661 2951
661 3809
661 5392
662 1095
662 1165
662 1802
662 3382
662 4188
662 5232
662 6279
662 7245
662 7419
663 829
663 1032
663 1106
663 1423
663 1502
663 1642
663 1771
663 1885
663 2060
663 2311
663 2577
663 2692
663 3094
663 3431
663 3535
663 3927
663 4360
663 4538
663 4764
663 4850
663 5605
663 5834
663 5860
663 6104
663 6279
663 6980
663 7189
663 7205
664 1228
664 5026
664 5801
664 6929
664 7059
665 1415
665 2834
666 3039
666 5238
667 1046
668 1328
668 1933
668 2510
668 2736
668 3338
668 3966
668 4431
668 4610
668 6870
668 7245
668 7455
669 3453
669 3809
669 4014
669 5183
669 6463
669 6665
669 7205
670 4633
670 6323
671 1896
671 6421
672 2596
672 2854
672 3656
673 3772
673 4789
673 7373
674 1553
674 2803
674 7298
675 3809
676 5115
676 6001
677 1662
677 2013
677 3097
677 3420
677 4217
677 5208
677 5219
677 6563
677 7088
677 7162
678 1638
678 3427
678 3934
678 4064
678 5715
678 7571
679 1363
679 4166
680 3550
680 5330
681 775
681 1986
681 2051
681 2055
681 2197
681 3333
681 3362
681 3559
681 4499
681 4591
681 4768
681 5410
681 5876
681 6656
681 7044
681 7477
681 7554
682 1250
682 2011
683 3525
683 3908
683 7557
684 1040
684 1149
684 1766
684 2326
684 3604
684 7274
685 1902
685 3809
685 3896
685 4358
685 4378
685 4682
685 4890
685 5424
685 6799
685 7283
685 7528
685 7561
686 1179
686 1721
686 2567
686 3314
686 3488
686 5802
686 5811
686 6909
686 7468
687 1345
687 1557
687 1727
687 4198
687 6043
687 6559
688 1541
688 5399
688 7257
689 5159
690 857
690 2837
690 4437
690 6323
690 6640
690 6932
690 7138
690 7571
691 1672
692 1969
692 1995
692 2129
692 2280
692 3644
692 3955
692 5285
692 5813
692 5875
692 6514
692 7272
693 916
693 3809
694 3139
695 3809
695 5030
696 3809
697 6972
698 7249
699 857
699 915
699 2406
699 2494
699 2959
699 3313
699 4201
699 6579
699 6861
700 2171
700 5664
700 6343
701 6374
702 3809
702 4785
702 7272
704 3809
705 1534
706 2116
707 3535
707 4533
707 4864
707 5241
707 7505
708 1255
708 1544
708 1612
708 1717
708 2051
708 2055
708 2661
708 2866
708 3089
708 3095
708 3384
708 3733
708 3857
708 4177
708 4213
708 4651
708 5349
708 5679
708 6121
708 7002
708 7033
708 7223
709 1785
709 1974
709 2004
709 2436
709 2531
709 2862
709 3775
709 3889
709 4102
709 4482
709 4567
709 5790
709 6354
709 6442
709 6605
709 6904
709 7215
710 764
710 2708
710 6392
711 1216
711 1635
711 5030
711 6175
711 6347
712 6198
712 6484
713 1322
713 3172
714 2376
714 3809
715 1557
715 3964
715 4217
715 6658
716 6154
716 6298
717 3503
718 2174
718 5980
719 1987
719 3439
719 4044
719 4127
719 4710
720 2985
721 1557
721 2047
721 3809
721 4202
721 6082
722 3959
722 4031
722 6416
723 1548
723 1891
723 2637
723 3235
723 4108
723 7283
724 3971
725 841
725 1321
725 2151
725 2806
725 3681
725 3764
725 4412
725 4770
725 6077
725 7199
726 4053
727 3809
727 6520
728 2116
728 3809
729 849
729 1712
729 4547
730 1666
730 2311
731 4167
732 753
732 2270
732 3287
733 3809
734 3862
734 5441
734 5722
734 6621
734 7176
735 2326
735 2525
736 1433
736 2474
736 2501
736 3809
736 4505
736 6492
737 2826
737 3606
737 4553
737 4886
737 6378
737 6868
738 2901
738 4379
738 5253
738 6889
739 3809
740 887
740 1099
740 1174
740 1564
740 1580
740 2062
740 2775
740 2817
740 3547
740 4311
740 4857
740 5165
740 5712
740 5803
740 5924
740 6870
740 7121
740 7477
741 939
741 5177
741 5957
741 6230
742 3906
743 885
743 3809
744 2645
744 3384
744 3971
744 4515
744 5275
744 5910
744 6090
744 6693
744 7069
744 7507
744 7575
745 3809
746 2047
746 3621
746 3959
748 998
748 3604
748 6333
748 6927
749 1110
749 2098
749 3595
749 6423
750 932
750 1228
750 5515
750 6217
751 992
751 2556
752 898
753 860
753 1911
753 2113
754 3366
754 5267
754 5292
754 5804
754 6811
755 3918
755 5360
756 6108
757 7043
758 2829
758 3099
759 1886
759 2122
759 2303
759 2482
759 2764
759 3085
759 3530
759 3696
759 4120
759 4852
759 5107
759 5214
759 5777
759 6952
759 7033
760 768
760 1237
760 1548
760 1971
760 2863
760 3027
760 3544
760 4060
760 4773
760 6327
760 6477
760 6705
760 6919
761 6262
762 3778
762 5978
763 1844
764 1763
764 1995
764 2085
764 2495
764 2784
764 3574
764 3809
764 4062
764 4221
764 4510
764 4680
764 4721
764 4833
764 5030
764 5271
764 5556
764 5605
764 5670
764 5813
764 6181
764 6626
764 7317
765 1794
765 5274
766 1557
767 6643
768 2280
768 4578
769 3625
770 1261
770 2113
770 2119
770 2737
770 3178
770 3930
770 4153
770 6242
770 7266
770 7419
771 851
771 1354
771 7079
772 3809
773 1967
773 2760
773 3075
774 3809
774 6876
775 1633
775 1741
775 2496
775 3543
775 3544
775 3681
775 4834
775 6494
775 6923
776 1904
776 3323
776 4377
776 6559
778 2330
778 2467
778 4302
779 874
779 946
779 1363
779 1668
779 1912
779 2502
779 2880
779 3464
779 4553
779 4675
779 5012
779 6596
779 7403
780 5490
780 7096
781 902
781 3690
781 4235
782 1363
782 1660
782 2735
782 2899
782 3706
782 3809
782 3998
782 6344
782 7202
782 7271
782 7514
783 959
783 3809
783 6190
784 2947
785 789
785 2960
785 3314
785 3586
785 4146
785 5257
785 7322
786 3767
787 1580
787 2009
787 5118
788 3149
788 6879
789 1838
789 3809
789 4231
789 4370
789 5235
789 5967
789 6807
790 3034
791 2593
791 6606
792 1508
792 4716
792 6871
793 3809
794 3809
794 4977
794 5399
795 4167
796 1817
796 2726
796 3039
797 1398
797 1560
797 1709
797 1837
797 2977
797 3104
797 3649
797 3971
797 4258
797 4384
797 5174
797 6147
797 6298
797 7027
797 7097
797 7103
798 2162
798 5009
799 3809
799 4475
799 4492
799 5814
799 6891
800 3809
801 1165
801 1237
801 1276
801 1995
801 2651
801 3256
801 3954
801 4130
801 4703
801 5035
801 5077
801 5653
801 6280
801 6742
801 6870
801 6980
801 7262
801 7582
802 3809
803 3809
803 6822
804 2328
804 4533
804 5194
804 5486
805 1286
805 3584
805 4544
806 1873
806 2099
806 3526
806 3555
806 3685
806 3787
806 3912
806 3925
806 5517
806 5541
806 5593
806 5827
806 5882
806 5971
806 6023
806 6352
806 6445
806 6679
806 6820
806 6917
807 4894
807 7406
808 3809
808 6074
808 7560
809 3809
810 849
810 1975
810 2280
810 2327
810 4222
810 5823
810 5903
810 7033
810 7247
810 7249
811 7103
812 1328
812 3362
812 4911
813 2267
813 5943
814 915
814 1585
814 1634
814 3025
814 3660
814 3696
814 5811
814 6889
814 6919
814 7106
815 4511
815 6555
815 7325
815 7518
816 2065
816 3809
817 1856
818 1480
818 3004
818 4221
818 5956
819 1125
819 6972
820 2857
820 4289
820 4392
820 4879
821 1484
821 5331
822 1371
822 5774
822 6509
822 6766
823 6264
824 2414
824 2721
824 3809
824 4463
824 4525
824 5769
824 6378
824 7207
824 7283
825 2721
825 3068
825 3314
825 3732
825 4045
826 4773
827 2095
827 5127
827 6538
828 2119
828 4827
828 4870
828 6356
828 7160
828 7441
829 2863
829 4765
830 6187
832 4502
833 2418
834 7154
835 3568
836 1430
836 1638
836 2093
836 2963
836 2980
836 3034
836 3063
836 3381
836 3681
836 3705
836 3905
836 3959
836 4135
836 5560
836 6374
836 6386
836 6416
836 6652
836 7223
836 7350
836 7557
837 1734
837 2130
837 2970
837 3809
837 3959
837 4798
837 4844
837 5417
837 5797
837 6208
837 7283
838 5170
838 6622
839 3809
839 5521
840 1908
840 2640
840 3934
840 4201
840 4327
840 6416
840 7190
840 7283
840 7571
841 4029
841 6805
843 2134
843 5726
844 5458
844 6769
845 2872
845 4560
845 6626
846 1168
846 3480
846 3576
846 4531
846 5140
846 5628
846 6704
847 1207
847 1940
848 1138
848 2596
848 2677
848 3803
848 4939
848 5722
848 6184
848 7223
849 997
849 2200
849 3752
849 4157
849 5101
849 5934
849 6160
849 6221
849 6797
850 1062
850 1155
850 1323
850 2321
850 2484
850 3809
850 3975
850 4166
850 4480
850 5518
850 5917
850 6063
850 6840
850 6873
850 7405
851 866
851 1328
851 1589
851 1621
851 1792
851 1846
851 2005
851 2012
851 2029
851 2240
851 2252
851 2290
851 2377
851 2802
851 3133
851 3173
851 3258
851 3275
851 3544
851 3651
851 3680
851 3952
851 4218
851 4230
851 4279
851 4736
851 5019
851 6349
851 6352
851 6402
851 6600
851 6731
851 6889
851 7339
852 1699
852 3505
852 3525
852 3809
853 2070
853 3971
853 6866
853 6961
854 1191
854 3334
854 3494
854 4648
854 5172
854 5711
855 2534
855 3161
857 913
857 915
857 2280
857 2500
857 3241
857 3320
857 3697
857 3809
857 3871
857 4158
857 4160
857 5935
857 6355
857 6771
858 3290
859 1066
859 3809
859 4154
859 4262
859 4682
859 6416
859 7283
860 1756
860 1870
860 1924
860 1958
860 2259
860 2816
860 2959
860 3860
860 4891
860 4961
860 5360
860 5429
860 5463
860 5829
860 6988
860 7145
860 7156
860 7279
860 7366
861 6224
862 997
863 3905
863 3971
863 4272
863 6888
864 1148
864 2003
864 2327
864 6917
865 4933
865 6329
866 1328
866 3291
866 4461
866 5636
867 3959
867 3971
867 6048
867 6888
867 7544
868 1909
869 1330
870 3809
871 3809
871 5434
872 1539
872 1799
872 3510
872 3809
872 6112
872 6232
872 6301
872 7075
873 2116
874 6924
875 6012
876 1148
876 5696
876 5962
877 1909
877 2790
878 7419
879 1165
879 1580
879 1906
879 1996
879 3291
879 3543
879 3591
879 5257
879 6139
879 6227
879 6248
880 2590
880 4553
880 4996
881 1906
881 2449
881 2775
881 5541
881 6259
881 6542
881 7002
881 7496
882 2187
882 5406
882 6667
883 3809
883 3971
883 4443
884 2320
884 2977
884 5448
885 4797
886 2033
886 2436
886 3604
886 4740
886 4741
886 4856
886 5496
886 5894
887 959
887 1035
887 1088
887 1165
887 1174
887 1466
887 1580
887 1649
887 1740
887 1929
887 2058
887 2171
887 2187
887 2319
887 2330
887 2645
887 2652
887 2702
887 2936
887 3039
887 3089
887 3246
887 3326
887 3415
887 3543
887 3785
887 3849
887 3901
887 3906
887 3968
887 4283
887 4310
887 4370
887 4485
887 4524
887 4651
887 4694
887 4852
887 4961
887 5016
887 5271
887 5329
887 5361
887 5666
887 5862
887 5882
887 5978
887 6104
887 6221
887 6230
887 6416
887 6423
887 6774
887 6939
887 6941
887 6961
887 7002
887 7033
887 7197
887 7231
887 7263
887 7272
887 7353
887 7479
887 7496
888 3809
889 2515
890 3809
890 6650
891 2789
892 3154
892 4383
892 5085
892 6359
892 7372
892 7552
893 3809
894 914
894 1099
894 2735
894 2935
894 3602
894 3839
894 5107
894 5458
894 5917
894 6191
894 6426
894 6647
894 6891
894 7206
895 2170
895 2669
895 3569
895 5933
896 2863
896 5271
896 5587
897 1076
897 2706
898 2142
898 3085
898 4029
898 4766
898 6600
898 6812
899 2871
899 4724
899 5013
899 5148
899 6581
900 1321
900 2834
900 2863
900 3641
900 3681
900 5298
900 5346
900 5571
900 5720
900 7162
900 7485
901 2088
901 2239
901 2441
901 3550
901 4135
901 6002
901 7485
902 3809
902 3908
902 4066
903 1142
904 2330
905 3077
906 3249
907 4426
908 1793
908 1908
908 2579
908 2593
908 2729
908 4298
908 4388
908 4440
908 5011
908 5510
908 5922
908 6358
908 7011
909 1462
909 4135
910 3809
911 5625
911 6693
913 1519
913 1580
913 3918
913 4488
913 5882
913 6282
914 2327
914 2564
914 2611
914 3960
914 5651
914 6033
914 6107
914 6870
914 6900
915 925
915 1568
915 3572
915 3592
915 3905
915 4568
915 5853
915 6238
915 6352
916 1047
916 4321
916 4549
916 7455
917 3809
918 1034
918 1071
918 3257
918 3696
918 4993
918 5266
919 3352
920 5455
920 6240
920 6432
920 7464
921 1151
921 2384
921 3190
921 4354
921 5900
921 6379
921 7325
922 1004
922 1475
922 1859
922 2553
922 2607
922 3555
922 3809
922 6041
922 7311
923 2735
923 3222
923 5168
923 5519
923 6977
923 7259
924 2948
925 1699
925 3567
925 3798
925 7104
926 1962
926 2321
927 2115
928 7006
929 1443
929 1460
929 3959
929 5262
930 3799
930 4500
930 5019
931 1975
931 5058
932 1261
932 4859
932 4947
933 3680
934 3971
935 1563
935 2500
935 2560
935 3121
935 3654
935 5403
935 5928
935 6058
936 3103
936 4481
936 4799
936 5496
936 7261
937 1156
937 1585
937 4015
937 5560
937 6889
938 1557
939 3809
940 3809
941 1902
941 2671
941 2920
941 3305
941 3550
941 3664
941 3923
941 4884
941 5636
942 3809
942 3971
943 4105
944 5496
945 2521
946 1278
946 1309
946 1389
946 1548
946 1628
946 1920
946 2093
946 2721
946 2860
946 2880
946 3034
946 3189
946 3427
946 3544
946 3681
946 3711
946 3847
946 3971
946 5036
946 5097
946 5284
946 5585
946 5837
946 7174
946 7180
947 997
947 2216
947 2253
947 2478
947 2551
947 2643
947 2865
947 3252
947 3486
947 3647
947 3941
947 4547
947 4724
947 5360
947 5463
947 5722
947 6870
947 7044
947 7258
947 7555
948 2552
948 3178
948 3926
948 4173
948 5083
948 5281
948 5360
948 5882
948 6510
949 2205
950 1856
951 2531
951 4909
952 6262
953 3809
954 2274
954 5383
954 5486
954 7497
955 3809
955 3971
955 4728
955 5804
956 3809
956 6518
957 1793
957 2826
957 3141
957 3326
957 3782
957 6913
957 7529
958 2187
959 1463
959 2471
959 2817
959 2862
959 3447
959 4014
959 4337
959 5464
959 5882
959 5894
960 1510
960 2122
960 2280
960 2726
960 3042
960 3946
960 4377
960 4913
960 6085
960 6837
961 2986
961 3433
961 5142
961 7258
961 7595
962 1034
962 4781
962 5772
962 5782
963 3738
963 3809
964 1222
964 7000
965 3809
966 1556
966 5981
967 2772
967 3609
968 3604
968 4019
968 4718
968 6511
969 1548
969 7124
969 7283
970 1842
970 6505
971 1520
971 6397
973 5101
974 2826
975 2005
976 2980
976 3191
976 3391
976 5105
976 5295
977 3538
977 5811
977 6850
978 1910
978 3389
978 4850
978 5571
978 6820
979 2241
979 3022
979 3367
979 4898
979 5528
979 5894
979 5987
979 6065
979 6230
979 7074
980 2859
980 3570
980 4088
980 5030
980 7051
981 2980
981 4279
981 4474
981 6050
981 6276
982 3641
982 4121
982 5039
983 1616
983 3257
984 7082
984 7174
985 5651
986 3252
986 3604
987 4295
988 2543
988 5012
989 3809
989 4920
989 7376
990 2239
990 3469
990 6476
990 7110
990 7258
991 4337
992 3154
992 3752
992 6024
993 1228
993 2088
993 2489
993 3004
993 3323
993 3332
993 3550
993 3959
993 4031
993 4099
993 4127
993 4431
993 4578
993 5026
993 5153
993 5268
993 5699
993 5913
993 7223
993 7393
993 7594
994 2093
995 2116
996 4135
996 4620
996 5986
996 6714
997 1203
997 1341
997 1653
997 1685
997 1955
997 1961
997 2113
997 2192
997 2216
997 2524
997 2594
997 2789
997 3303
997 3530
997 3880
997 3956
997 4025
997 4172
997 4444
997 4494
997 4623
997 4724
997 4775
997 4808
997 5030
997 5190
997 5312
997 5441
997 5720
997 5722
997 5785
997 6091
997 6525
997 6758
997 6795
997 6870
997 6906
997 6945
997 6951
997 7000
997 7056
997 7139
997 7174
997 7205
997 7258
997 7291
997 7332
997 7366
999 3003
999 4316
1000 3604
1001 3350
1001 6665
1002 3809
1002 4938
1002 7068
1002 7507
1003 3060
1003 6463
1003 7000
1004 1751
1004 2553
1004 3708
1005 3330
1006 2478
1006 6220
1007 3923
1008 1164
1008 1305
1008 3702
1008 5932
1008 7096
1010 1196
1010 3519
1011 2556
1011 5241
1012 2753
1012 6325
1013 1071
1013 1276
1013 1967
1013 1974
1013 3341
1014 6281
1015 3350
1015 3809
1015 6144
1016 1214
1016 2072
1016 2311
1016 3453
1016 3469
1016 3544
1016 5780
1016 6796
1017 2741
1017 3274
1017 3809
1018 3809
1019 3326
1019 3809
1019 4182
1020 3809
1020 4568
1021 4053
1022 3809
1022 6341
1023 7207
1024 3809
1025 1549
1025 2414
1025 2957
1025 3806
1025 3982
1025 4683
1025 6294
1025 6704
1026 3671
1026 5374
1026 5924
1027 1250
1027 1809
1027 5485
1028 3809
1029 3206
1029 4739
1030 1491
1030 1529
1030 1908
1030 2378
1030 2512
1030 3386
1030 3809
1030 3959
1030 4632
1030 4841
1030 5132
1030 5175
1030 5434
1030 6195
1030 6551
1030 6668
1030 7207
1031 2037
1031 2362
1031 2704
1031 4461
1031 7095
1032 2119
1032 4984
1032 5016
1032 5266
1032 5378
1032 5443
1032 5877
1032 5996
1032 6448
1032 7452
1033 3871
1034 1261
1034 2085
1034 3488
1034 3542
1034 6078
1034 7179
1034 7588
1035 3809
1036 6979
1037 1147
1037 4216
1037 6071
1039 3842
1039 6621
1040 2676
1040 5778
1040 5859
1040 5935
1040 6024
1040 6489
1041 7118
1042 1206
1042 3304
1042 3809
1043 1297
1044 1351
1045 1076
1045 2121
1045 4215
1045 4845
1045 4886
1045 5788
1045 6233
1046 1310
1046 1548
1046 1574
1046 2567
1046 2980
1046 4200
1046 4528
1046 4992
1046 5424
1046 5529
1046 5811
1046 6693
1046 6799
1048 5272
1049 2114
1049 5019
1049 5234
1049 5249
1050 1231
1050 1909
1050 2507
1050 2555
1050 3082
1050 3341
1050 3809
1050 4127
1050 5217
1050 6074
1050 6199
1050 6461
1050 6817
1051 1103
1051 2610
1051 4260
1051 4344
1051 5610
1051 5717
1051 5810
1051 6516
1051 6665
1051 7241
1052 1641
1052 4324
1052 5063
1053 2757
1053 3220
1053 3373
1054 4206
1055 1932
1055 4939
1055 5525
1055 6284
1055 7210
1056 1922
1056 6982
1057 1104
1057 2163
1058 2528
1058 3809
1058 6734
1058 7290
1059 2524
1060 1951
1060 2334
1060 3809
1061 7288
1062 1515
1062 1908
1062 3736
1062 3906
1062 4166
1062 4185
1062 4649
1062 5754
1062 6206
1062 6374
1062 6416
1063 6063
1064 1940
1065 3809
1066 2024
1066 3971
1066 4154
1066 4997
1067 1819
1068 3956
1069 3087
1069 3976
1069 4527
1069 4825
1070 3837
1071 1174
1071 1481
1071 2478
1071 2731
1071 2905
1071 3064
1071 3252
1071 3326
1071 3367
1071 3696
1071 4144
1071 4836
1071 5183
1071 5525
1071 5692
1071 5803
1071 5894
1071 5987
1071 6282
1071 7402
1072 1870
1072 2423
1072 3809
1072 7054
1073 2240
1074 7454
1075 3809
1076 2511
1076 3017
1076 3723
1076 4620
1076 4663
1076 4845
1076 4886
1076 5022
1076 5338
1076 6454
1076 7141
1077 1557
1078 1481
1078 3878
1078 4376
1078 5389
1079 2119
1079 4744
1080 1731
1080 2093
1080 5658
1080 6600
1080 6861
1081 3830
1081 5349
1082 1570
1082 3087
1082 3686
1083 3893
1083 7584
1084 3809
1084 5604
1085 1920
1085 3737
1085 5596
1085 5877
1085 6802
1086 3809
1086 4430
1086 5111
1086 6471
1087 4168
1089 2240
1089 2265
1089 2285
1089 2411
1089 3809
1089 3810
1089 3891
1089 3908
1089 5697
1089 6387
1090 3006
1090 3358
1090 6416
1090 6458
1090 6693
1091 7004
1092 4081
1093 1729
1094 1170
1095 1276
1095 1642
1095 2860
1095 3819
1095 4416
1095 4650
1095 4964
1095 5462
1095 5651
1095 6491
1096 3511
1097 2721
1097 2925
1097 4008
1098 4961
1100 5028
1100 7038
1101 1539
1101 3671
1101 5232
1102 1583
1102 3544
1102 4333
1102 6532
1102 6812
1105 5006
1106 3960
1106 6423
1106 7406
1108 3809
1109 1967
1109 5294
1110 1244
1110 2744
1110 4876
1110 5712
1110 6389
1110 6617
1111 5811
1112 5349
1113 2753
1113 3636
1113 6995
1114 1986
1114 6614
1114 7515
1115 2727
1116 5541
1117 2640
1118 2265
1118 2515
1118 4659
1118 5257
1118 5636
1118 7356
1119 3809
1120 1446
1120 1749
1120 3425
1121 3809
1122 7088
1123 4028
1123 6037
1124 2610
1124 4851
1124 6287
1125 1829
1125 5009
1125 5038
1125 5464
1126 4200
1126 6621
1127 3809
1127 5241
1128 1589
1128 2290
1128 2859
1128 4217
1128 4368
1128 5030
1128 5272
1128 5825
1128 6111
1128 6687
1129 3809
1129 6434
1130 3809
1131 1686
1131 6287
1132 1548
1132 3971
1133 1589
1134 3544
1135 6729
1135 7305
1137 3809
1137 6224
1138 2335
1138 2963
1138 3304
1138 5984
1139 3849
1139 5813
1139 6663
1140 4750
1141 1525
1142 3809
1142 7060
1143 5882
1143 6677
1143 7545
1144 3643
1144 3803
1144 5511
1144 6502
1144 6639
1144 7471
1145 3257
1145 3809
1146 5026
1147 6146
1148 1510
1148 1911
1148 2549
1148 2684
1148 2963
1148 3027
1148 3314
1148 3382
1148 3384
1148 3555
1148 4296
1148 4337
1148 5036
1148 5369
1148 5765
1148 5902
1148 6243
1148 6293
1148 6879
1148 7174
1149 2877
1149 3052
1149 5857
1150 4747
1151 3809
1153 4135
1153 6969
1154 3261
1154 3809
1154 7326
1155 2615
1155 5792
1156 3809
1157 1654
1157 2187
1157 3437
1157 5777
1157 6398
1157 6971
1158 2255
1159 6735
1160 1552
1160 2630
1160 6141
1161 6162
1162 2402
1163 3809
1164 1363
1164 1891
1164 3458
1164 4279
1164 5797
1164 7455
1165 1337
1165 1672
1165 1909
1165 2058
1165 2133
1165 2303
1165 2468
1165 2501
1165 3022
1165 3809
1165 5125
1165 5965
1165 6377
1165 6644
1165 6756
1165 7177
1165 7379
1166 1424
1166 2186
1166 2860
1166 3550
1166 3630
1166 4185
1166 4370
1166 4507
1166 4989
1166 5175
1167 2428
1167 3376
1168 2088
1168 2827
1168 4422
1168 5877
1169 1655
1169 2249
1169 3410
1169 3905
1169 5854
1169 6192
1170 2482
1170 2591
1170 3760
1170 3777
1170 5171
1171 2098
1172 5500
1173 3809
1174 1228
1174 1569
1174 1580
1174 1974
1174 1995
1174 2187
1174 2385
1174 2752
1174 3488
1174 3685
1174 3956
1174 4836
1174 5012
1174 5353
1174 5811
1174 5998
1174 6516
1174 7245
1174 7377
1175 3320
1175 3769
1175 7368
1176 2482
1176 3615
1176 4414
1176 4702
1176 5168
1176 5279
1176 5319
1177 3809
1177 3817
1178 5905
1179 1952
1179 4201
1179 5912
1179 6292
1180 3051
1180 5762
1181 6275
1181 7223
1182 2420
1183 2359
1183 3880
1183 4850
1183 5202
1183 6673
1184 5393
1185 1557
1185 3802
1185 3883
1185 5202
1185 7433
1186 7363
1187 1466
1187 6879
1187 7571
1188 1557
1188 3809
1189 3158
1189 7596
1190 3809
1191 2387
1191 3334
1191 4133
1191 4266
1191 5711
1192 2273
1192 2599
1192 3686
1192 3809
1192 5784
1192 6798
1192 7042
1193 3174
1194 1922
1194 2041
1194 4628
1194 5255
1194 5882
1195 2246
1195 2521
1195 2575
1195 3988
1195 4704
1195 4801
1195 5596
1195 6676
1195 6934
1195 6962
1195 7117
1196 2616
1196 2968
1196 3576
1196 3809
1196 4778
1197 5175
1198 5026
1198 5039
1199 1280
1199 1369
1199 1558
1199 1861
1199 2093
1199 2860
1199 2911
1199 3523
1199 4165
1199 4252
1199 4839
1199 5139
1199 5262
1199 6026
1199 6282
1199 6420
1199 6619
1199 6812
1199 7051
1199 7174
1199 7245
1199 7485
1200 3809
1201 1841
1201 2916
1201 5940
1202 5039
1203 3077
1204 1312
1204 5783
1204 7280
1204 7426
1205 1649
1205 2003
1205 3809
1206 2412
1206 2801
1206 2924
1206 5492
1206 5528
1206 5712
1206 5924
1206 6523
1208 2786
1208 3737
1208 7560
1208 7571
1210 5655
1210 6438
1211 1280
1212 1369
1212 1649
1212 2807
1212 3809
1213 1222
1214 5788
1216 3146
1216 4247
1217 6666
1218 3809
1218 7355
1219 3809
1220 5861
1220 6196
1221 3323
1222 3200
1222 5073
1222 5256
1223 2724
1224 2629
1225 3823
1225 4076
1225 6045
1226 1231
1226 1475
1226 1560
1226 2244
1226 2737
1226 3117
1226 3937
1226 4358
1226 5132
1226 5861
1227 2242
1227 2945
1227 5247
1227 5461
1228 1469
1228 2018
1228 3219
1228 3550
1228 4031
1229 5541
1230 1920
1230 2249
1230 2403
1230 3112
1230 3508
1230 3544
1230 3706
1230 6600
1231 1635
1231 2582
1231 3787
1231 5589
1231 7231
1232 2457
1232 3809
1233 2651
1233 5463
1236 2920
1236 4201
1237 1823
1237 2524
1237 4202
1237 6138
1238 6353
1239 3934
1240 3141
1240 3809
1240 4859
1240 7581
1241 3809
1242 1412
1242 2905
1243 1995
1245 2376
1245 2525
1245 3142
1245 3902
1245 3968
1246 5810
1247 2980
1248 4573
1248 6400
1249 2941
1250 6383
1251 3646
1251 5575
1251 7408
1252 2290
1252 2321
1252 5125
1252 6654
1253 3930
1253 5085
1253 6466
1253 7332
1254 3809
1255 1547
1255 3488
1255 4213
1255 6169
1255 7447
1256 1909
1256 2596
1256 3094
1256 3213
1256 3604
1256 3809
1256 3814
1256 4256
1256 4489
1256 4581
1256 5016
1256 5795
1256 6175
1256 6423
1256 6511
1256 7320
1257 1720
1257 6455
1258 2330
1258 3314
1258 4053
1259 3809
1260 4529
1260 7560
1261 2085
1261 3181
1261 3433
1261 3674
1261 3812
1261 4014
1261 4308
1261 4534
1261 5271
1261 5384
1261 6075
1261 6099
1261 6174
1261 6239
1261 6258
1261 6428
1261 6560
1261 7258
1261 7595
1262 3872
1262 4697
1262 5013
1262 6172
1262 6230
1262 6684
1263 3820
1263 5810
1264 3809
1265 2766
1265 4296
1265 5505
1266 1649
1266 2735
1266 3073
1266 3358
1266 4992
1266 6548
1266 6567
1267 4238
1267 6146
1268 1723
1268 1920
1268 2170
1268 2980
1268 3182
1269 2093
1269 5749
1270 5172
1271 4859
1271 6714
1272 5956
1272 6070
1272 6307
1272 6807
1273 2826
1273 5871
1273 6482
1275 6724
1276 2960
1276 4939
1276 5463
1277 6151
1277 6465
1278 1466
1278 3273
1278 4708
1278 6301
1279 3280
1279 3358
1279 3427
1279 4279
1279 5907
1279 6625
1279 7223
1279 7403
1280 2568
1281 7502
1282 5410
1282 6033
1283 4279
1284 3029
1285 1322
1285 2452
1285 3713
1285 6551
1286 3550
1287 3671
1288 5917
1289 1940
1289 2330
1289 3823
1290 2840
1290 4599
1291 5388
1291 6428
1291 6948
1291 7560
1292 3809
1292 4019
1292 4420
1293 3809
1293 6284
1294 2951
1294 3919
1294 7326
1295 1372
1296 1857
1297 1361
1297 3252
1298 4116
1299 2245
1299 2748
1299 2993
1299 3498
1299 3971
1299 7302
1300 1803
1300 3513
1300 3613
1300 4037
1301 4473
1302 3809
1303 7091
1304 4775
1305 2938
1305 3702
1305 4195
1305 4936
1305 7124
1305 7426
1306 3445
1306 3819
1307 4059
1308 3568
1309 1438
1309 1906
1309 1908
1309 2168
1309 2321
1309 2596
1309 3034
1309 3194
1309 3317
1309 3420
1309 3534
1309 3847
1309 3951
1309 3971
1309 4021
1309 4031
1309 4151
1309 4299
1309 4829
1309 4941
1309 4973
1309 5026
1309 5108
1309 5178
1309 5713
1309 5769
1309 6318
1309 6724
1309 6726
1309 6830
1309 7117
1309 7426
1309 7453
1309 7524
1310 4358
1311 1389
1311 6230
1311 7574
1312 1811
1312 3034
1312 3809
1312 7280
1313 2744
1313 3446
1313 3966
1313 4203
1313 4240
1313 4921
1313 5005
1313 5298
1313 5788
1313 5969
1313 6702
1314 2119
1314 4355
1314 4909
1314 5026
1314 5749
1314 5792
1314 6364
1315 3923
1315 3971
1315 5636
1315 6559
1316 1350
1316 6434
1317 3612
1317 4531
1317 5016
1318 1389
1318 1506
1318 1534
1318 1909
1318 2468
1318 2973
1318 3348
1318 3785
1318 5589
1318 5902
1318 5967
1318 6537
1319 4721
1320 1361
1320 4703
1320 5624
1320 5866
1320 7526
1321 2321
1321 2672
1321 3444
1321 4252
1321 5202
1321 6208
1321 6534
1321 7223
1322 1491
1322 1610
1322 2957
1322 3034
1322 3621
1322 3809
1322 4576
1322 4682
1322 5518
1322 5663
1322 6596
1322 6840
1322 7283
1323 1548
1323 2699
1323 3087
1323 4951
1323 5026
1323 7124
1324 2500
1324 3275
1324 3291
1324 3329
1324 4225
1324 4834
1324 5636
1324 5856
1325 2061
1325 2586
1325 3333
1325 3593
1325 3636
1325 4158
1325 4276
1325 4401
1325 4407
1325 5407
1325 6085
1325 6323
1325 6553
1325 6870
1325 7155
1325 7332
1325 7485
1326 6071
1327 3809
1328 5816
1328 6416
1329 3474
1329 3809
1329 3828
1330 3809
1330 5056
1330 5928
1330 6421
1330 6649
1331 1959
1331 3934
1332 1731
1332 1847
1332 6953
1332 7575
1333 1389
1333 2455
1335 6599
1336 3133
1337 4760
1338 5421
1338 6635
1339 2194
1339 2196
1339 2552
1339 2556
1339 2865
1339 3436
1339 4222
1339 5782
1339 6085
1339 6141
1339 6628
1339 6870
1340 1727
1340 3706
1340 3806
1340 4561
1340 6835
1340 6895
1340 6961
1342 5421
1343 1478
1343 7505
1344 3809
1345 2321
1345 2726
1345 3446
1345 3469
1345 5149
1345 5168
1345 5511
1346 1672
1346 1870
1346 2182
1347 2330
1348 5949
1348 6003
1348 6367
1349 2246
1349 3809
1350 3809
1350 4611
1350 6870
1350 7228
1351 6807
1352 5846
1353 3809
1354 2848
1354 3809
1354 5330
1354 6048
1354 6116
1354 7079
1354 7430
1355 1996
1355 2055
1355 2187
1355 3809
1355 4169
1355 5009
1355 5180
1355 5330
1355 5336
1355 5636
1355 5913
1355 7072
1355 7171
1356 4526
1357 6220
1357 6868
1358 5722
1359 1407
1359 3809
1360 2618
1360 3386
1360 3809
1361 1594
1361 3604
1361 3916
1361 4870
1361 5810
1361 6442
1361 6686
1361 6780
1361 7241
1361 7254
1362 5802
1363 1602
1363 1697
1363 1874
1363 2283
1363 3087
1363 3681
1363 3798
1363 3969
1363 4108
1363 4571
1363 4711
1363 5087
1363 5931
1363 6048
1363 6344
1363 6416
1363 6563
1363 6668
1363 6891
1363 7197
1363 7283
1363 7309
1364 3576
1364 6542
1364 6922
1365 1557
1365 2046
1366 3729
1366 3809
1367 3696
1367 3809
1368 1712
1368 3769
1368 4283
1369 2385
1369 3214
1369 4794
1369 5360
1369 6593
1370 2328
1370 3544
1370 3681
1372 2414
1372 3809
1372 3940
1372 4135
1372 6374
1372 7543
1373 1868
1373 1908
1373 2524
1373 2684
1373 3016
1373 3696
1373 7562
1373 7571
1374 1731
1374 1745
1374 2452
1374 2475
1374 2797
1374 7299
1374 7571
1375 2987
1375 6090
1375 6604
1376 3621
1376 4882
1376 5720
1377 2616
1377 3960
1378 6547
1379 3634
1379 5601
1379 7207
1381 5903
1382 4510
1382 4922
1382 7086
1383 2826
1383 4202
1384 3421
1384 5201
1384 6114
1384 6169
1384 6389
1384 7390
1384 7553
1385 1561
1385 2635
1385 3227
1385 3809
1386 1908
1386 2144
1386 3906
1386 4086
1386 5560
1386 5661
1386 5754
1386 7180
1386 7385
1386 7578
1387 2030
1387 2116
1387 2180
1387 2734
1387 3044
1387 3881
1387 4082
1387 4852
1387 7552
1389 1638
1389 1820
1389 2039
1389 2596
1389 2716
1389 3261
1389 3282
1389 3314
1389 3326
1389 4097
1389 4377
1389 4580
1389 4633
1389 4774
1389 5026
1389 5042
1389 5271
1389 5736
1389 5811
1389 6332
1389 6427
1389 6686
1389 6774
1389 7149
1389 7272
1389 7406
1390 6711
1391 2531
1391 2737
1391 2862
1391 3134
1391 3178
1391 3712
1391 4124
1391 4296
1391 5140
1391 7001
1391 7252
1391 7279
1392 1652
1393 4089
1394 2732
1394 4127
1394 5520
1394 5596
1395 4422
1395 6655
1396 3170
1397 2265
1398 2142
1398 2265
1398 2473
1398 4539
1398 5518
1398 5871
1398 6774
1399 2482
1399 4506
1400 3809
1401 2330
1402 1821
1402 3809
1403 6139
1404 1666
1404 3087
1404 3809
1404 6048
1405 4143
1406 3809
1407 4127
1407 5710
1407 7161
1407 7383
1408 2320
1408 4217
1408 6386
1409 3113
1409 3472
1410 3809
1411 5314
1412 2652
1412 2772
1412 2808
1412 3273
1412 6354
1412 6550
1412 6727
1413 5877
1413 7222
1413 7574
1414 4099
1415 1593
1415 7369
1416 2368
1416 3324
1416 4664
1417 2367
1418 3809
1418 5470
1418 5907
1418 7312
1419 4859
1420 3782
1420 7456
1421 2262
1421 3427
1421 3988
1421 4278
1421 6142
1422 1784
1422 2400
1422 3314
1422 4403
1422 4421
1422 4977
1422 5030
1422 5075
1422 5924
1422 5971
1422 6104
1422 6422
1422 6647
1422 6756
1422 7132
1422 7174
1422 7406
1423 2070
1423 2474
1423 3124
1423 3382
1423 3480
1423 3781
1423 6104
1423 6235
1423 7174
1424 1426
1424 1635
1424 2147
1424 3433
1424 3774
1424 3814
1424 5016
1424 6146
1424 6763
1424 6809
1424 6979
1424 7245
1424 7289
1424 7477
1425 3981
1425 4032
1425 5359
1425 5848
1426 4589
1427 6635
1427 6776
1428 1751
1429 4921
1429 4927
1429 6812
1430 6386
1430 7350
1431 1451
1431 1638
1431 3005
1431 3525
1431 6260
1431 6868
1431 7518
1432 4727
1433 1793
1433 2399
1433 2923
1433 4182
1433 4990
1433 6658
1433 6980
1434 7121
1435 7426
1436 5005
1436 6031
1436 7511
1437 3621
1437 5211
1437 6293
1439 2579
1439 4039
1439 6437
1440 2865
1440 3956
1440 6371
1441 3809
1442 4116
1443 3436
1443 3976
1443 6387
1443 7161
1444 1589
1444 2777
1444 3604
1444 4031
1444 4547
1444 5834
1444 7274
1445 2300
1445 3141
1445 3809
1445 4328
1445 4783
1445 6883
1447 1834
1447 2023
1447 2929
1447 6868
1447 7049
1448 1743
1448 2529
1448 4650
1448 5137
1448 5712
1448 6890
1449 4718
1450 1578
1450 1941
1450 2327
1450 2395
1450 2564
1450 4086
1450 4229
1450 4277
1450 4635
1450 5030
1450 5328
1450 5658
1450 5699
1450 6879
1450 7143
1450 7430
1451 1920
1451 3809
1451 3976
1451 4088
1451 6563
1451 7316
1451 7405
1451 7556
1452 3204
1453 3208
1453 3613
1454 3910
1455 1456
1455 1493
1455 2571
1455 6646
1455 7396
1457 2018
1457 3921
1458 2066
1458 4638
1459 6152
1461 3034
1461 6633
1462 1879
1462 2675
1462 3809
1462 4475
1462 4492
1462 4841
1462 6076
1463 3600
1463 4680
1463 6175
1464 6910
1465 1467
1465 4049
1466 1868
1466 2271
1466 3780
1466 4852
1466 4853
1466 5800
1466 7166
1467 4482
1467 5240
1468 3809
1468 5861
1469 2116
1469 2472
1469 6898
1470 5331
1470 6065
1471 3583
1471 3809
1471 6583
1471 7548
1473 2450
1473 2780
1473 3809
1473 7058
1474 2088
1474 3621
1474 3711
1474 3971
1475 1526
1475 1959
1475 2640
1475 3087
1475 3427
1475 3702
1475 3891
1475 4447
1475 4711
1475 6386
1475 6953
1475 7316
1475 7475
1477 2458
1477 4016
1477 7116
1478 3809
1478 7505
1479 3809
1480 1714
1481 1909
1481 2516
1481 2723
1481 4738
1481 7205
1482 3809
1483 7558
1484 3034
1484 3220
1484 3491
1484 4110
1484 4127
1484 5834
1484 5837
1484 7009
1485 2797
1485 3682
1485 3809
1485 5267
1486 1530
1486 2513
1486 2672
1486 3524
1486 3746
1486 3976
1486 4258
1486 4431
1486 6048
1486 6559
1487 5246
1488 1548
1488 1737
1488 3478
1488 6204
1488 6537
1488 7271
1488 7411
1489 2116
1490 1915
1490 5800
1491 1959
1491 3692
1491 3714
1491 3750
1491 4187
1491 4803
1492 2093
1492 2863
1492 4832
1493 3348
1493 4609
1493 5921
1494 4370
1495 2532
1496 3809
1498 1650
1499 3696
1500 2612
1501 2826
1501 4296
1501 4430
1501 7207
1502 6537
1503 6416
1503 6579
1503 7190
1504 3809
1505 4238
1505 7480
1507 3809
1508 2333
1508 2644
1508 2739
1508 4495
1509 4717
1509 7223
1510 1788
1510 2940
1510 3160
1510 3511
1510 3532
1510 3542
1510 3626
1510 3809
1510 3815
1510 3970
1510 4073
1510 4370
1510 5384
1510 5450
1510 5493
1510 7016
1510 7263
1510 7272
1511 2005
1512 3809
1513 2112
1513 2705
1513 3296
1513 4743
1513 5021
1513 5349
1513 5936
1513 6122
1513 6240
1514 1864
1514 5165
1514 5942
1515 2168
1515 3982
1515 4257
1515 4607
1515 6781
1516 6813
1517 2048
1518 7455
1518 7571
1519 2039
1519 2660
1519 3639
1519 4760
1519 5790
1519 6851
1519 7002
1519 7477
1520 2187
1520 3373
1520 4011
1520 7562
1521 1672
1521 2901
1521 3800
1522 7066
1523 4419
1523 7082
1524 2789
1524 3809
1524 5511
1525 1672
1525 5410
1526 2063
1526 2441
1526 2450
1526 2993
1526 3702
1526 3809
1526 3976
1526 4879
1526 6812
1526 7549
1527 1655
1527 4549
1527 6374
1528 2187
1528 3487
1528 4514
1528 7006
1529 2393
1529 2797
1529 2957
1529 4071
1529 4434
1531 1540
1532 2225
1533 2456
1534 2072
1534 3330
1534 6242
1534 6279
1534 7082
1535 2055
1535 2125
1535 3809
1535 5019
1535 6491
1535 6627
1536 3257
1536 3900
1536 4076
1536 6120
1537 3323
1537 5396
1538 2330
1538 2766
1538 3809
1539 2434
1539 2520
1539 2801
1539 3134
1539 3167
1539 3809
1539 3917
1539 4311
1539 4677
1539 5020
1539 5271
1539 6036
1539 6491
1539 7289
1540 3284
1540 3473
1540 6184
1540 7081
1541 2084
1541 2428
1541 2935
1541 3629
1541 3809
1541 3959
1541 3976
1541 4792
1541 5108
1541 5485
1541 6138
1541 7103
1542 3882
1543 4461
1543 5412
1544 3384
1544 4541
1545 3809
1545 4495
1545 7169
1545 7174
1546 3686
1546 4007
1547 2560
1547 3830
1547 4254
1547 4408
1547 5342
1547 5619
1547 7489
1548 1815
1548 1920
1548 2240
1548 2438
1548 2455
1548 2632
1548 2640
1548 2957
1548 3106
1548 3143
1548 3248
1548 3304
1548 3308
1548 3427
1548 3452
1548 3481
1548 3525
1548 3757
1548 3847
1548 3905
1548 3906
1548 3934
1548 3971
1548 4031
1548 4064
1548 4523
1548 4765
1548 5026
1548 5076
1548 5283
1548 5458
1548 5530
1548 5712
1548 5715
1548 5769
1548 5787
1548 5955
1548 6014
1548 6296
1548 6383
1548 6479
1548 6600
1548 6824
1548 6840
1548 7404
1548 7426
1548 7453
1548 7502
1549 2088
1549 3459
1549 3508
1549 3988
1549 5940
1549 6528
1549 7015
1550 1739
1550 2330
1550 2423
1550 5112
1550 6236
1550 6774
1551 7335
1552 2706
1552 3809
1552 4426
1553 2265
1553 4029
1553 5358
1554 3686
1555 4416
1556 4852
1556 4914
1557 1664
1557 1692
1557 2257
1557 2296
1557 2812
1557 3105
1557 3153
1557 3162
1557 3175
1557 3505
1557 3712
1557 3837
1557 4299
1557 4301
1557 4304
1557 4941
1557 5334
1557 5889
1557 5918
1557 6066
1557 6338
1557 6401
1557 6657
1557 6771
1557 6957
1557 7013
1557 7411
1558 2729
1558 4279
1558 5598
1558 6090
1558 7245
1558 7370
1559 3744
1560 1777
1560 1790
1560 2074
1560 2089
1560 2435
1560 2531
1560 3420
1560 3459
1560 4079
1560 4701
1560 4714
1560 5660
1560 5752
1560 6126
1560 7000
1560 7117
1561 2635
1561 3959
1561 3971
1561 6520
1562 3809
1563 2318
1563 4221
1563 4354
1563 4616
1563 5052
1563 7065
1563 7205
1564 3134
1564 5181
1564 7257
1565 3500
1567 2129
1567 3086
1567 5882
1568 1902
1569 1967
1569 5260
1569 6062
1570 3809
1570 3896
1570 3971
1570 4294
1570 4682
1570 6868
1571 5380
1572 2695
1572 2729
1572 2862
1572 3580
1572 3943
1573 2855
1573 3304
1573 4934
1573 6966
1575 3682
1575 3809
1576 1915
1576 2119
1576 4296
1577 7177
1578 1602
1578 4144
1578 4982
1578 5913
1579 4385
1580 2187
1580 2835
1580 3543
1580 3590
1580 3821
1580 4680
1580 4746
1580 5187
1580 5360
1580 5525
1580 5876
1580 6359
1580 6422
1580 7177
1580 7502
1581 3418
1581 4808
1582 4127
1583 4642
1583 6372
1583 7458
1584 2142
1584 2693
1585 3430
1585 3570
1585 4370
1585 5140
1586 5681
1587 1846
1588 2935
1588 3809
1588 4279
1588 5658
1588 5787
1588 6416
1588 7277
1589 2012
1589 2171
1589 4370
1589 4397
1589 4539
1589 4635
1589 6139
1589 6748
1589 7232
1589 7493
1590 4279
1590 6386
1591 2753
1592 1871
1592 2771
1592 3094
1593 4835
1593 7272
1593 7404
1594 2321
1594 3549
1594 3631
1594 5030
1594 5803
1594 6120
1594 6860
1594 7427
1595 1906
1595 6917
1596 3809
1597 2614
1597 3809
1597 4315
1597 5769
1598 3809
1598 5165
1598 7479
1599 6113
1600 4825
1601 4337
1601 5051
1601 5508
1602 2826
1602 3427
1602 3544
1602 4860
1602 5167
1602 6043
1602 6640
1602 7543
1603 2187
1604 3915
1605 1731
1605 2250
1605 2414
1605 3034
1605 3677
1605 7426
1606 3809
1607 2708
1608 3809
1609 5792
1609 6378
1610 1699
1610 2311
1610 3908
1610 4135
1610 4257
1610 4859
1610 5875
1611 5178
1612 2253
1612 2516
1612 3977
1613 2362
1613 4029
1613 5951
1613 7041
1614 1842
1614 2044
1614 4364
1614 6385
1615 5758
1616 3999
1616 4948
1616 5016
1617 1737
1617 6972
1618 4727
1619 5861
1620 2643
1620 2865
1620 5749
1620 6045
1621 2629
1621 2677
1621 2803
1621 4539
1621 5428
1622 2047
1622 2240
1622 3621
1622 3971
1622 6072
1622 6643
1622 7206
1623 5976
1624 1952
1625 3814
1626 1995
1626 5882
1626 6812
1627 1971
1627 2218
1627 2632
1627 3891
1627 3976
1627 5345
1627 5754
1627 6076
1627 6563
1627 7151
1628 1818
1628 5030
1628 5374
1628 6484
1628 6898
1630 3556
1630 4144
1630 4718
1630 5030
1630 5547
1631 7234
1632 2280
1632 5871
1632 6258
1632 6681
1632 7082
1633 2100
1633 2241
1633 2678
1633 3450
1633 3834
1633 3850
1633 4161
1633 4500
1633 5550
1633 6378
1633 6427
1633 7072
1634 2744
1634 3641
1634 5387
1634 5972
1634 6033
1634 7467
1635 2078
1635 2610
1635 3389
1635 3959
1635 4387
1635 4445
1635 4917
1635 5589
1635 5636
1635 6756
1635 6812
1635 6919
1636 3809
1636 5636
1637 6868
1638 1662
1638 1908
1638 2020
1638 2071
1638 2250
1638 2369
1638 2378
1638 2553
1638 2556
1638 2668
1638 2797
1638 2857
1638 2953
1638 2957
1638 3030
1638 3184
1638 3195
1638 3226
1638 3677
1638 3839
1638 3847
1638 3906
1638 4119
1638 4595
1638 5026
1638 5150
1638 5494
1638 5560
1638 5754
1638 5937
1638 5965
1638 6544
1638 6551
1638 6862
1638 7103
1638 7518
1638 7571
1638 7578
1639 2099
1639 3915
1639 7289
1640 4960
1640 6774
1641 3430
1643 4019
1643 5610
1643 5841
1643 6788
1643 7470
1644 2432
1644 3034
1644 3525
1645 5011
1646 1760
1646 3803
1646 4478
1646 5602
1647 2567
1647 3292
1648 5271
1649 1735
1649 4313
1649 4319
1649 4427
1649 4694
1649 5792
1649 6204
1649 6919
1649 7272
1649 7453
1649 7560
1650 4517
1651 2468
1651 4506
1651 5651
1652 3881
1653 3351
1654 1788
1654 2187
1654 2707
1654 3777
1654 4053
1654 5019
1654 5383
1654 5685
1654 5777
1654 6398
1654 6486
1654 6578
1654 6661
1654 6795
1654 6890
1655 2366
1655 2378
1655 3458
1655 3514
1655 5417
1655 5854
1656 4356
1656 5699
1656 7207
1657 1761
1657 2548
1657 3470
1657 4930
1657 5221
1657 6805
1658 3681
1658 3692
1658 4701
1658 6192
1659 3126
1660 3402
1660 4032
1661 4859
1662 2826
1662 3971
1662 4422
1662 4642
1662 4823
1662 5560
1662 6063
1662 6167
1662 6640
1663 2258
1664 2330
1664 2716
1664 3220
1664 3654
1664 4223
1664 4426
1664 7272
1665 3300
1665 3906
1666 1731
1666 2383
1666 2797
1666 2827
1666 3514
1666 3713
1666 3809
1666 5262
1666 6015
1667 2005
1668 2356
1668 2629
1668 3682
1668 3809
1668 3906
1668 4135
1668 4279
1668 4682
1668 5015
1668 6596
1668 6625
1668 7283
1668 7426
1669 6511
1670 4581
1671 5016
1671 5777
1671 7020
1671 7334
1671 7397
1672 1946
1672 2241
1672 2510
1672 2664
1672 2967
1672 3249
1672 3300
1672 3347
1672 3362
1672 3430
1672 3468
1672 4746
1672 5462
1672 5486
1672 6017
1672 6416
1672 6940
1673 4427
1673 5802
1674 1867
1674 5586
1675 3809
1676 1952
1676 2190
1676 3809
1677 2330
1677 3808
1677 6774
1679 3481
1680 1970
1680 2095
1680 2541
1680 2975
1680 3048
1680 3406
1680 4307
1680 4376
1680 5499
1680 6184
1680 6398
1680 6590
1680 7589
1681 2099
1681 3056
1681 3314
1681 3965
1681 4125
1681 4238
1681 4524
1681 4716
1681 5331
1681 6239
1681 6282
1681 6311
1681 6818
1681 7593
1682 5519
1682 7485
1683 3469
1684 3273
1684 6244
1684 7291
1685 2060
1685 7000
1686 1967
1686 2392
1686 3760
1686 3787
1686 3971
1686 4448
1686 4781
1686 4805
1686 5383
1686 5680
1686 6582
1686 6979
1686 7479
1687 3034
1687 4996
1687 6040
1687 6479
1688 4399
1689 6164
1690 2482
1690 3468
1690 3809
1690 4398
1690 4901
1691 2540
1692 5202
1692 5506
1692 7103
1693 5035
1693 5271
1693 6075
1693 7082
1693 7289
1693 7571
1694 2826
1694 4098
1695 1699
1695 2322
1695 3809
1695 3966
1695 4223
1695 4394
1695 5788
1695 6416
1696 3906
1697 3809
1697 4257
1697 5693
1697 7038
1698 7426
1699 2059
1699 2428
1699 2463
1699 2880
1699 2957
1699 3314
1699 3743
1699 3959
1699 3966
1699 4078
1699 4265
1699 4676
1699 5875
1699 5962
1699 6224
1699 6416
1699 6625
1699 6662
1699 6959
1699 7124
1699 7280
1699 7283
1700 2825
1701 2212
1701 2918
1701 3280
1701 3809
1701 4571
1702 2446
1703 2324
1703 3809
1703 4398
1703 5698
1704 2515
1704 5180
1704 5769
1704 6994
1705 5302
1705 5975
1705 7205
1706 3934
1707 2708
1707 2812
1708 3809
1708 5861
1709 1920
1709 1971
1709 2797
1709 3233
1709 3621
1709 3746
1709 4265
1709 6369
1709 6830
1709 6868
1709 7474
1710 3121
1710 6399
1711 2772
1711 2977
1712 2865
1712 3261
1712 3411
1712 3453
1712 3488
1712 4129
1712 4938
1712 5573
1712 5722
1712 6143
1712 6363
1712 6438
1712 6531
1712 7033
1712 7056
1712 7205
1712 7477
1713 1819
1713 2037
1713 3810
1713 3971
1713 5715
1713 5862
1713 6046
1713 6392
1713 7149
1714 2060
1714 2648
1714 4221
1714 7045
1715 3809
1716 1817
1716 2412
1717 1883
1718 2265
1719 3415
1719 3809
1719 6600
1720 3469
1721 3427
1721 6961
1721 7283
1722 6433
1723 3550
1723 7271
1723 7350
1725 4062
1725 5811
1725 5837
1726 1832
1727 7084
1729 1967
1729 2001
1729 2039
1729 2187
1729 2221
1729 2817
1729 3559
1729 3719
1729 3878
1729 4700
1729 5763
1729 6552
1729 7071
1730 3573
1730 5041
1731 2024
1731 2383
1731 2461
1731 2797
1731 3136
1731 3313
1731 3976
1731 4115
1731 4262
1731 4265
1731 4289
1731 5559
1731 5614
1731 5710
1731 5767
1731 6479
1731 6490
1731 7223
1731 7316
1731 7359
1732 3488
1732 5436
1732 6037
1732 6251
1733 2502
1733 3951
1733 5930
1733 6963
1734 2938
1734 2980
1734 3430
1734 3809
1734 4632
1734 6863
1734 7096
1735 3809
1735 4775
1737 4104
1737 6146
1737 6518
1737 7325
1738 3809
1741 3224
1742 3244
1742 3757
1742 6464
1743 1920
1743 2187
1743 3999
1744 7363
1745 2441
1745 2568
1745 2807
1745 2930
1745 3980
1745 4168
1745 4325
1745 5230
1745 5899
1745 6812
1745 7406
1746 3455
1746 4926
1747 3010
1747 3527
1748 3036
1748 6420
1749 1796
1749 2113
1749 2280
1749 3948
1749 5834
1749 6256
1749 6463
1749 6692
1749 7116
1750 6868
1751 2238
1751 2239
1751 3153
1751 3809
1751 4172
1751 5834
1751 6279
1751 6796
1751 6967
1751 7183
1752 3241
1752 4283
1753 3261
1753 5790
1754 3713
1755 2601
1755 6817
1756 7394
1757 2088
1757 2826
1758 2309
1758 3131
1758 3353
1758 3971
1758 6245
1758 7124
1759 3809
1759 4826
1760 5602
1760 6243
1761 3543
1761 7430
1762 1920
1762 5769
1763 2090
1763 6329
1764 3706
1764 5871
1765 5205
1766 2744
1767 2029
1767 3809
1767 6615
1768 3077
1768 3878
1769 5590
1770 5199
1771 1883
1771 2128
1771 4173
1771 4426
1771 4838
1771 5813
1771 6181
1771 6755
1771 7496
1772 3809
1772 5967
1772 7189
1773 3598
1774 2532
1774 2980
1774 3721
1774 7027
1774 7032
1774 7146
1776 5030
1776 6048
1776 7161
1776 7190
1777 2927
1777 5854
1777 6479
1778 7118
1779 2744
1779 4216
1779 5030
1779 5969
1779 7214
1780 4662
1780 5876
1781 3034
1781 3236
1781 3891
1781 3893
1781 3971
1781 3976
1781 5788
1781 6386
1781 7098
1781 7124
1782 4682
1782 5262
1782 6203
1782 7273
1783 5595
1784 3576
1784 5271
1785 1974
1785 7427
1786 3809
1786 6542
1787 4171
1789 2629
1789 4682
1789 4859
1790 5157
1791 2826
1791 4129
1791 4255
1791 5202
1791 6961
1792 6281
1793 4018
1793 4440
1793 4809
1793 5225
1793 6269
1793 6475
1793 6552
1793 7177
1793 7381
1794 5274
1794 6291
1795 6551
1795 6868
1796 2241
1796 2315
1796 2415
1796 4541
1796 4746
1796 4852
1796 5130
1797 1903
1797 3039
1797 4253
1797 6104
1797 6323
1797 6484
1798 3809
1798 4337
1799 2081
1799 3510
1800 2826
1800 3087
1800 3302
1800 3629
1800 3701
1800 3712
1800 4272
1800 5209
1801 6471
1801 7581
1802 2826
1802 6378
1803 2567
1803 4260
1803 4658
1804 5262
1805 5769
1806 1970
1806 2280
1806 2812
1806 5248
1806 6133
1806 7082
1806 7223
1807 4437
1808 2431
1808 3727
1808 4892
1808 6051
1809 1902
1809 2826
1809 3362
1809 3809
1809 4048
1809 7110
1810 2547
1810 2803
1810 4573
1810 4742
1811 1858
1811 2970
1811 3034
1811 3809
1811 3934
1811 6012
1811 6551
1812 3812
1812 6890
1813 3809
1813 5857
1814 2368
1814 2732
1814 3809
1814 5424
1815 2058
1815 3004
1815 4106
1815 6017
1815 6413
1815 6518
1815 6800
1815 7020
1816 3921
1817 2443
1817 2678
1817 4310
1818 3023
1818 4023
1818 5734
1818 7309
1819 3898
1820 2789
1820 3800
1820 5331
1821 2826
1822 2237
1822 2684
1822 4192
1822 4506
1822 5192
1822 7454
1823 4416
1824 4337
1825 3971
1826 2632
1826 2896
1826 3332
1826 3544
1826 4135
1826 5069
1827 2810
1828 2566
1829 2455
1830 2677
1830 3544
1830 3809
1830 5741
1830 6824
1831 2521
1832 2219
1833 3901
1835 6181
1836 2698
1836 5490
1837 2047
1837 2464
1837 2733
1837 3809
1837 3971
1837 4034
1837 4814
1837 5069
1837 5390
1837 5467
1837 5791
1837 6333
1837 6520
1837 6834
1837 7174
1838 4172
1838 5110
1838 5740
1838 5811
1838 6902
1838 7441
1839 6074
1840 1921
1841 2951
1841 5940
1842 2826
1842 3342
1842 5811
1842 6262
1842 7326
1843 6374
1843 6400
1844 5317
1845 6050
1845 6886
1846 5175
1846 5405
1847 2859
1847 7571
1848 3115
1848 3945
1848 4427
1849 2240
1849 7088
1850 3809
1850 4725
1851 3177
1851 3849
1851 5400
1851 6278
1852 3809
1853 3307
1853 3934
1853 4296
1853 5887
1854 2590
1854 4878
1854 5791
1854 6416
1855 2095
1855 7166
1856 2253
1856 4456
1856 5123
1856 6421
1857 5184
1858 3971
1858 4293
1858 6298
1859 2032
1859 2540
1859 3316
1859 3867
1859 5944
1859 7096
1859 7299
1860 7340
1862 3045
1862 5917
1862 7004
1863 3809
1864 3901
1864 4312
1864 6905
1865 3809
1866 2362
1867 4767
1867 6567
1867 6812
1868 2501
1868 3506
1868 3955
1868 4076
1868 4111
1868 5271
1868 5462
1868 7447
1869 3392
1870 1928
1870 3421
1870 3997
1870 5170
1870 5812
1870 6102
1870 6348
1870 6681
1870 7004
1870 7205
1872 4032
1872 4708
1874 2005
1874 3999
1874 4251
1874 4310
1875 3939
1876 7315
1877 7560
1878 7190
1878 7426
1879 3380
1879 3810
1879 5119
1880 2412
1880 3752
1880 7146
1881 3706
1883 1929
1883 2280
1883 2775
1883 6058
1883 6232
1884 4578
1885 3519
1885 3938
1885 5331
1886 2186
1886 2187
1886 2242
1886 3809
1886 5981
1887 3809
1887 7042
1889 3427
1890 5967
1890 6609
1891 3899
1891 5604
1892 5872
1894 7096
1895 2280
1895 4379
1895 4391
1895 4412
1895 5477
1895 5722
1895 7118
1896 3809
1896 5275
1896 5928
1896 6396
1896 6421
1896 7449
1897 7323
1898 5640
1898 6140
1899 5837
1900 2402
1900 3326
1900 3437
1900 5271
1900 7139
1901 3809
1902 2139
1902 2475
1902 2818
1902 2931
1902 3006
1902 3148
1902 3307
1902 3467
1902 3702
1902 4031
1902 4127
1902 4711
1902 4872
1902 4878
1902 5350
1902 5373
1902 5532
1902 5629
1902 5911
1902 5989
1902 6224
1902 6304
1902 6426
1902 6567
1902 6596
1902 6724
1902 7033
1902 7166
1902 7221
1902 7494
1903 6813
1904 3323
1904 3656
1904 5039
1905 1908
1905 5638
1906 3134
1906 3328
1906 3392
1906 3918
1906 4512
1906 5525
1906 6227
1906 6377
1906 7333
1907 2678
1907 2899
1907 6518
1907 7580
1908 2088
1908 2136
1908 2268
1908 2366
1908 2599
1908 2632
1908 3483
1908 3743
1908 3810
1908 3847
1908 3906
1908 3920
1908 3976
1908 4027
1908 4148
1908 4313
1908 4431
1908 4548
1908 4714
1908 5026
1908 5065
1908 5175
1908 5178
1908 5313
1908 5398
1908 5434
1908 5878
1908 6231
1908 6273
1908 6628
1908 6693
1908 6716
1908 6886
1908 7190
1908 7287
1908 7465
1908 7578
1909 3733
1909 5305
1909 5525
1909 5608
1909 5699
1909 6239
1909 6422
1909 6445
1909 6774
1909 7197
1909 7477
1910 3389
1910 4850
1911 2109
1911 3450
1911 5059
1911 6032
1911 6719
1912 5699
1913 6639
1913 7384
1914 2079
1914 2499
1914 4569
1914 6156
1915 4869
1916 6626
1917 3684
1917 4480
1917 4701
1917 5720
1918 6225
1919 3809
1920 2013
1920 2149
1920 2261
1920 2266
1920 2331
1920 2336
1920 2737
1920 2980
1920 3001
1920 3030
1920 3084
1920 3222
1920 3302
1920 3392
1920 3484
1920 3548
1920 3681
1920 3702
1920 3858
1920 3965
1920 3975
1920 4055
1920 4149
1920 4187
1920 4201
1920 4202
1920 4278
1920 4279
1920 4291
1920 4327
1920 4561
1920 4622
1920 4633
1920 4839
1920 5018
1920 5167
1920 5219
1920 5272
1920 5363
1920 5444
1920 5467
1920 5596
1920 5678
1920 5752
1920 5788
1920 5790
1920 5861
1920 6077
1920 6196
1920 6331
1920 6333
1920 6446
1920 6544
1920 6563
1920 6718
1920 7113
1920 7168
1920 7184
1920 7417
1920 7433
1920 7443
1920 7453
1921 2402
1921 3267
1921 3326
1921 3716
1921 4032
1922 6982
1923 3294
1923 3316
1923 6156
1923 6577
1923 7311
1924 4727
1925 3362
1925 5500
1925 7329
1927 2168
1927 3529
1927 3809
1927 4161
1927 6785
1927 7084
1927 7255
1927 7275
1928 3717
1928 6445
1929 2712
1929 3286
1929 5347
1929 7147
1930 4799
1932 3586
1932 4370
1932 5437
1932 5464
1932 5486
1933 2556
1934 2171
1935 5935
1935 6134
1936 4146
1937 2251
1937 2744
1937 5499
1937 5862
1937 6349
1939 2041
1939 2602
1939 2760
1939 3373
1939 3673
1939 3674
1939 4237
1939 4377
1939 4597
1939 5127
1939 5839
1939 6508
1939 7000
1939 7082
1939 7471
1940 2040
1940 2072
1940 2174
1940 2564
1940 3068
1940 3745
1940 3925
1940 4192
1940 4419
1940 5149
1940 5965
1940 6347
1940 6898
1940 7380
1940 7406
1941 5598
1942 2070
1942 2440
1942 2524
1942 5140
1943 3937
1943 4531
1944 6493
1946 2516
1947 2042
1947 5642
1948 3809
1949 7491
1950 2005
1950 2203
1950 2782
1950 4388
1950 4800
1951 3809
1952 2128
1952 3421
1952 3436
1952 3516
1952 3915
1952 4757
1952 6656
1952 7003
1952 7146
1953 3809
1954 4046
1955 4487
1956 3809
1957 3809
1959 2675
1959 3809
1959 4042
1961 4968
1962 3314
1963 7221
1964 4473
1965 4389
1966 3809
1967 2552
1967 3264
1967 4059
1967 5271
1967 5360
1967 5584
1967 5790
1967 5851
1967 5897
1967 6553
1967 6766
1967 7030
1967 7326
1967 7495
1968 4618
1968 7174
1970 5499
1971 3332
1971 3484
1971 3505
1971 3971
1971 4105
1971 4990
1971 7283
1972 3809
1973 3809
1973 5386
1973 6356
1974 2846
1974 3775
1974 3916
1974 4355
1974 4570
1974 6396
1974 6842
1975 2392
1975 3532
1975 5211
1975 5513
1975 6175
1975 6254
1975 6707
1975 7080
1975 7326
1976 3809
1977 2067
1978 3809
1979 3809
1980 3809
1981 3809
1982 2786
1982 6101
1983 5691
1984 3809
1985 3809
1985 6195
1985 7096
1986 3809
1986 4398
1986 5410
1989 3809
1989 6203
1990 3879
1991 5837
1992 2149
1992 3484
1992 4905
1992 6915
1993 3178
1994 7468
1995 2110
1995 2255
1995 2828
1995 3809
1995 3810
1995 4130
1995 4721
1995 6242
1995 6635
1995 6923
1995 7000
1995 7406
1996 6139
1996 6227
1996 6889
1996 7571
1997 4620
1998 2370
1999 3809
1999 4230
1999 4410
1999 4834
2000 3405
2000 3873
2000 5549
2000 6960
2001 5468
2002 3809
2003 3034
2003 3340
2003 3480
2003 4844
2003 5581
2004 3590
2004 3699
2004 3865
2004 4741
2004 4870
2004 5526
2004 5846
2004 6081
2004 6442
2004 6594
2004 6899
2004 6904
2004 7241
2004 7460
2005 3252
2005 4251
2005 4284
2005 4723
2005 5389
2005 5653
2005 6177
2005 6487
2005 6719
2005 6809
2005 6945
2005 7562
2007 3382
2007 3459
2007 4159
2007 5679
2008 3544
2008 7041
2010 3809
2010 5566
2011 2761
2011 4329
2012 3809
2012 4539
2012 6287
2013 2637
2013 2966
2013 3976
2013 4733
2013 5026
2013 5272
2013 5715
2013 6043
2013 6416
2013 6603
2013 7190
2013 7256
2013 7426
2014 3809
2015 3809
2016 2580
2016 3785
2016 3849
2016 6217
2017 2905
2017 3809
2017 6350
2018 2038
2018 2556
2018 4167
2018 4875
2018 5189
2018 5464
2018 7110
2019 3600
2019 4019
2019 5286
2019 5359
2020 2540
2021 2780
2022 3657
2023 3034
2024 3809
2024 3971
2025 3141
2025 4430
2025 5659
2025 5942
2025 6222
2026 2668
2026 4020
2026 4252
2026 7366
2027 2524
2027 2564
2027 5185
2027 5388
2027 6158
2028 3809
2029 3809
2029 6140
2029 6693
2029 7038
2029 7493
2030 5636
2030 7479
2031 3881
2032 5944
2033 5780
2033 6984
2034 2510
2035 3809
2036 4042
2036 6563
2037 3239
2037 4689
2038 3809
2038 5486
2039 2793
2039 2937
2039 3960
2039 4139
2039 5593
2039 5609
2041 2826
2041 4237
2042 3971
2042 7124
2043 3809
2044 3604
2045 5107
2046 3304
2046 4031
2046 4124
2046 4503
2046 5388
2046 5837
2046 6304
2046 7088
2046 7205
2047 2699
2047 2735
2047 3711
2047 3908
2047 4156
2047 4811
2047 4823
2047 5917
2047 6298
2048 3901
2048 4560
2048 4680
2048 4761
2048 5245
2048 5512
2049 2099
2050 5360
2050 5567
2051 2142
2051 2281
2051 2704
2051 3322
2051 3543
2051 5412
2051 6340
2051 6952
2052 7230
2053 2740
2054 3133
2055 2611
2055 6137
2055 6139
2056 3862
2057 2295
2057 3812
2057 4401
2057 5722
2057 5925
2057 6291
2057 6564
2057 6890
2058 2625
2058 2665
2058 3025
2058 3086
2058 3195
2058 3327
2058 3510
2058 3835
2058 4028
2058 4303
2058 4730
2058 4852
2058 5525
2058 5681
2058 5712
2058 5924
2058 6271
2058 6469
2058 6578
2058 6870
2058 7131
2058 7165
2058 7245
2058 7248
2058 7477
2058 7566
2059 4682
2060 3091
2060 3431
2060 3808
2060 3960
2060 4025
2060 4032
2060 4172
2060 4404
2060 4540
2060 5114
2060 5948
2060 6205
2060 6220
2060 6398
2060 7399
2060 7576
2061 6870
2062 2775
2062 3341
2062 4182
2062 4541
2062 5309
2062 6024
2062 7477
2062 7571
2063 3809
2064 3809
2064 3971
2065 2629
2065 6048
2065 6748
2066 3809
2066 4640
2067 3971
2067 4012
2067 6693
2068 4604
2069 6262
2070 3447
2070 3915
2070 4085
2070 5835
2070 5967
2070 6917
2071 3750
2071 5132
2073 3809
2074 2393
2074 2414
2075 2088
2076 7165
2077 5360
2077 5374
2077 6343
2078 2676
2078 3535
2078 4438
2078 4903
2078 4927
2078 5486
2079 3050
2080 5500
2080 6507
2081 2863
2082 3809
2082 5493
2083 5071
2084 2088
2084 3005
2084 4327
2085 2153
2085 2295
2085 2524
2085 2761
2085 3662
2085 5722
2085 7174
2086 2221
2086 3809
2087 6230
2087 7272
2088 2149
2088 2168
2088 2234
2088 2358
2088 2458
2088 2706
2088 2826
2088 2847
2088 2980
2088 3034
2088 3378
2088 3427
2088 3526
2088 3548
2088 3701
2088 3737
2088 3755
2088 3847
2088 3932
2088 3971
2088 3976
2088 4099
2088 4135
2088 4149
2088 4184
2088 4384
2088 4515
2088 4580
2088 4635
2088 4643
2088 5167
2088 5236
2088 5452
2088 5580
2088 5760
2088 5788
2088 6002
2088 6077
2088 6333
2088 6464
2088 6538
2088 6563
2088 6567
2088 6921
2088 6951
2088 6967
2088 7113
2088 7195
2088 7223
2088 7474
2088 7571
2088 7578
2089 2732
2089 4640
2089 5039
2089 5479
2091 6242
2092 4635
2093 2114
2093 2212
2093 2360
2093 2411
2093 2699
2093 2896
2093 3034
2093 3381
2093 3681
2093 3737
2093 3809
2093 3847
2093 4484
2093 4943
2093 5028
2093 5108
2093 5139
2093 5560
2093 5805
2094 4725
2095 2737
2095 3059
2095 3314
2095 3544
2095 4426
2095 4447
2095 4450
2095 4808
2095 4928
2095 5198
2095 6796
2095 6847
2096 2753
2096 4019
2096 5740
2096 6967
2097 2647
2097 3266
2097 3298
2097 5271
2097 6394
2097 6663
2098 4125
2098 4281
2098 4337
2098 4974
2098 6812
2098 7248
2098 7326
2099 2657
2099 3395
2099 3555
2099 3673
2099 3863
2099 4355
2099 4972
2099 5159
2099 5712
2099 5924
2099 5948
2099 6108
2099 6121
2099 6271
2100 4618
2100 5197
2100 7453
2101 3146
2101 3809
2102 3312
2102 3515
2102 3976
2102 5661
2103 2237
2103 7002
2103 7562
2104 3809
2106 6416
2107 3809
2108 2500
2108 2537
2108 2775
2108 4298
2108 5294
2108 7071
2109 2684
2109 3674
2109 3760
2109 5447
2109 6126
2110 3737
2110 4421
2110 4558
2110 4893
2110 5139
2111 7323
2112 2122
2112 6671
2113 2280
2113 3305
2113 3352
2113 3770
2113 4383
2113 5016
2113 6379
2113 7056
2113 7066
2114 4100
2114 7033
2115 2706
2115 6163
2115 6164
2115 6924
2116 2188
2116 2231
2116 2472
2116 3182
2116 3317
2116 3438
2116 3504
2116 3766
2116 4015
2116 4321
2116 4352
2116 4860
2116 5093
2116 5679
2116 5882
2116 6030
2116 6413
2116 6479
2116 6937
2116 6997
2116 7389
2116 7426
2116 7545
2117 2403
2118 2856
2118 4506
2119 2321
2119 2716
2119 3657
2119 4743
2119 4799
2119 5396
2119 5463
2119 5624
2119 6239
2119 6334
2119 7145
2120 3809
2121 6233
2122 2579
2122 3808
2122 4182
2122 5149
2122 6503
2122 6667
2122 7134
2122 7177
2123 3809
2123 7364
2124 7104
2125 5019
2125 6930
2125 6999
2126 3600
2127 7574
2128 2791
2128 2964
2128 3842
2129 2455
2129 2695
2129 4826
2130 3834
2131 5170
2132 7070
2132 7238
2133 2327
2133 5924
2134 5748
2135 2240
2135 3001
2135 5591
2135 7542
2136 2363
2136 3809
2136 4620
2136 4845
2137 6542
2138 3809
2139 2632
2139 3525
2139 3809
2139 4682
2139 5243
2139 5669
2139 5932
2139 6416
2139 6891
2139 7038
2140 5118
2140 6108
2140 6860
2141 4389
2141 6709
2142 2362
2142 2704
2142 2799
2142 2848
2142 3731
2142 4029
2142 4109
2142 4930
2142 6116
2143 3809
2143 6373
2144 2735
2144 4682
2144 7426
2145 3959
2145 4002
2146 7535
2147 4170
2148 4227
2148 4435
2148 7567
2149 2249
2149 2980
2149 3323
2149 3427
2149 3934
2149 5612
2150 6116
2151 2265
2151 2826
2151 3604
2151 3921
2151 4127
2151 5637
2151 6265
2151 6345
2151 6734
2151 7112
2151 7274
2151 7455
2152 5706
2153 2552
2153 2893
2153 3488
2153 3760
2153 4809
2153 5570
2153 7496
2154 3809
2155 5956
2156 4202
2156 5597
2157 7154
2158 3809
2159 3005
2159 3597
2159 6953
2160 5331
2160 6300
2161 3809
2162 6347
2163 4266
2163 6148
2163 6944
2163 7548
2164 4426
2164 4765
2165 6705
2166 6133
2167 2957
2167 4313
2168 2171
2168 2337
2168 4619
2168 5268
2169 3809
2169 6104
2170 3586
2170 4201
2170 5712
2170 6472
2170 6763
2170 6796
2170 7117
2171 2182
2171 2360
2171 2404
2171 2407
2171 2433
2171 2443
2171 2764
2171 2915
2171 3222
2171 3382
2171 3453
2171 4422
2171 4442
2171 4589
2171 4831
2171 4937
2171 5091
2171 5238
2171 5298
2171 5598
2171 6123
2171 6206
2171 6281
2171 6374
2171 6416
2171 6476
2171 6647
2171 6763
2171 7096
2171 7283
2171 7385
2171 7433
2171 7455
2172 2443
2172 2691
2172 2867
2172 3304
2172 3671
2172 5374
2172 5429
2172 7082
2173 3453
2173 5800
2173 6979
2174 3401
2174 3452
2174 3752
2174 5155
2174 5191
2174 5636
2175 5165
2175 6190
2176 2181
2176 5837
2177 2953
2178 2270
2179 5554
2183 5283
2184 3297
2184 6822
2185 3735
2185 3809
2185 5490
2185 7182
2186 2567
2186 3688
2186 3809
2186 4107
2186 5216
2186 5425
2186 6502
2186 6820
2186 6985
2186 7501
2187 2303
2187 2382
2187 2456
2187 2471
2187 2554
2187 2862
2187 3257
2187 3260
2187 3300
2187 3539
2187 3639
2187 3777
2187 3828
2187 3836
2187 3942
2187 4121
2187 4506
2187 4760
2187 4775
2187 4938
2187 5127
2187 5183
2187 5294
2187 5472
2187 5486
2187 5685
2187 5762
2187 5777
2187 5946
2187 5965
2187 5981
2187 6091
2187 6146
2187 6230
2187 6423
2187 6578
2187 7012
2187 7025
2187 7056
2187 7071
2187 7177
2187 7210
2187 7228
2188 2792
2189 6416
2191 3300
2191 3748
2191 5294
2193 5811
2195 7290
2196 6422
2197 3669
2197 3992
2197 7124
2198 2343
2198 2816
2198 4503
2198 4783
2198 5402
2200 3547
2200 3754
2200 3914
2200 6371
2201 3838
2201 7511
2202 6416
2203 5493
2203 6776
2204 7326
2205 2452
2205 3603
2206 2213
2206 5399
2206 6104
2206 7317
2207 2973
2208 5101
2208 6225
2209 2359
2209 3933
2209 6497
2210 2501
2211 6952
2212 2859
2212 2957
2212 3810
2212 3975
2212 4976
2212 5560
2212 5715
2212 6660
2212 7171
2214 4119
2214 7183
2215 2233
2216 2238
2216 2524
2216 3245
2216 3314
2216 3469
2216 3834
2216 4172
2216 4808
2216 4926
2216 5045
2216 5107
2216 6141
2216 7332
2217 6032
2218 3760
2219 2553
2219 2918
2219 2943
2219 3908
2219 6186
2219 6436
2220 3809
2220 3971
2221 2332
2221 7395
2222 4873
2222 5183
2222 7598
2223 4337
2224 6786
2225 5159
2225 5970
2226 2556
2226 4287
2226 5383
2226 5882
2227 3587
2228 6198
2229 3894
2229 7477
2230 3809
2230 4859
2232 3427
2232 5219
2232 6386
2233 3115
2233 5709
2233 6518
2234 3514
2234 3809
2234 4078
2234 4678
2234 6658
2235 3508
2235 4370
2236 3109
2236 6465
2238 2990
2238 3178
2238 3526
2238 3568
2238 3647
2238 4172
2238 4786
2238 4891
2238 5016
2238 5883
2238 6141
2238 6556
2238 7000
2238 7515
2239 2826
2239 3587
2239 4621
2239 5359
2239 5999
2239 6559
2240 2411
2240 3034
2240 3511
2240 4624
2240 4951
2240 7219
2240 7511
2241 2718
2241 2744
2241 3195
2241 4444
2241 4938
2241 5030
2241 5978
2241 6104
2241 6954
2241 7527
2242 5247
2243 3809
2244 3229
2244 4328
2244 4337
2245 3508
2245 3514
2246 2672
2246 3620
2246 3672
2246 3750
2246 3988
2246 4131
2246 4430
2246 4704
2246 4779
2246 4801
2246 6339
2246 6676
2246 6934
2247 6380
2248 7479
2249 2250
2249 2640
2249 2735
2249 3484
2249 3785
2249 3956
2249 3959
2249 4015
2249 4990
2249 5520
2249 6597
2249 7578
2250 2957
2250 3934
2250 6886
2250 7283
2250 7383
2251 2911
2252 3119
2252 3525
2252 4624
2253 2810
2253 3252
2253 3605
2253 4288
2253 4519
2253 5271
2253 5739
2253 5785
2253 6146
2253 6222
2253 6264
2253 6449
2253 6626
2253 7584
2254 4796
2254 5421
2255 6377
2256 2316
2256 7459
2256 7558
2258 4864
2258 5296
2258 7326
2260 6030
2260 6299
2260 6812
2261 2450
2262 2536
2262 2724
2262 3252
2262 3486
2262 3547
2262 3809
2262 3830
2262 4126
2262 4182
2262 4778
2262 5383
2262 5541
2262 5570
2262 5855
2262 6253
2262 6359
2262 6434
2262 6795
2262 6817
2263 2785
2263 4926
2264 4585
2265 2395
2265 3255
2265 3809
2265 3810
2265 4201
2265 4429
2265 6372
2265 6623
2265 7298
2266 3237
2266 3659
2266 3809
2266 6236
2267 2787
2268 3810
2268 5175
2268 6551
2269 3157
2269 5243
2269 5262
2269 5864
2269 5926
2270 2659
2270 5478
2270 7169
2270 7326
2272 3362
2273 3358
2274 4031
2275 3960
2275 7361
2276 4095
2276 4497
2276 5647
2277 2959
2277 3178
2277 4453
2277 4677
2277 5838
2277 7210
2278 3809
2279 2393
2279 3131
2280 2330
2280 2784
2280 3060
2280 3321
2280 3350
2280 3472
2280 3729
2280 3844
2280 3960
2280 4146
2280 4383
2280 4604
2280 4633
2280 4799
2280 4826
2280 5383
2280 5493
2280 5740
2280 5891
2280 5929
2280 6262
2280 6312
2280 6398
2280 7082
2280 7357
2280 7372
2280 7373
2280 7574
2281 2828
2281 4673
2282 3809
2283 3358
2283 3809
2284 2693
2284 2837
2284 3705
2284 3809
2284 3908
2284 4108
2284 4257
2284 6043
2284 6580
2284 6886
2285 2887
2285 3809
2285 3908
2285 6048
2285 6802
2285 7067
2286 3145
2286 3358
2286 3535
2286 4055
2286 5299
2287 2333
2287 3469
2287 3809
2288 3657
2289 3809
2290 2321
2290 5132
2291 7157
2292 4682
2293 4473
2294 5476
2294 5813
2295 4206
2295 5274
2296 6525
2296 7204
2297 3972
2297 4859
2297 5636
2297 6673
2298 3252
2299 7426
2300 2993
2300 3813
2301 3343
2301 3809
2302 2721
2302 5749
2302 7174
2303 2625
2303 3181
2303 5165
2303 6254
2304 3453
2304 4014
2304 4221
2304 4887
2304 6870
2304 7179
2305 7335
2306 2458
2306 6950
2307 3949
2307 5269
2307 6203
2307 7124
2308 3809
2310 2360
2310 2943
2310 3427
2310 3738
2310 3809
2311 3380
2311 4343
2311 4713
2311 5840
2311 7276
2311 7403
2312 6397
2313 5330
2313 5798
2314 3827
2315 3662
2316 5434
2316 5560
2316 5935
2316 6522
2317 3809
2319 2510
2319 3154
2319 4420
2319 5342
2319 5971
2320 2827
2320 2957
2320 3810
2320 4159
2320 4457
2320 6600
2321 2571
2321 2716
2321 3084
2321 3906
2321 3923
2321 3959
2321 4179
2321 4223
2321 4328
2321 4377
2321 4853
2321 5030
2321 5219
2321 5681
2321 5694
2321 5945
2321 6278
2321 6407
2321 6534
2321 6600
2321 7166
2321 7459
2321 7594
2322 3514
2322 4185
2322 4362
2322 5087
2322 7300
2323 6418
2324 3809
2325 2368
2326 2525
2326 3902
2326 5606
2326 7301
2327 2430
2327 5892
2327 6134
2327 6657
2327 7116
2328 2868
2328 2920
2328 2957
2328 3427
2328 3476
2328 4127
2328 4958
2328 5394
2328 6560
2329 3153
2329 6581
2330 2488
2330 2515
2330 2652
2330 2860
2330 2959
2330 3093
2330 3135
2330 3195
2330 3314
2330 3362
2330 3396
2330 3571
2330 3579
2330 3586
2330 3654
2330 3711
2330 3939
2330 4053
2330 4198
2330 4274
2330 4566
2330 4638
2330 4727
2330 4757
2330 4834
2330 5164
2330 5209
2330 5299
2330 5464
2330 5554
2330 5659
2330 5673
2330 5757
2330 5763
2330 5792
2330 5921
2330 5938
2330 5981
2330 5988
2330 6106
2330 6278
2330 6416
2330 6503
2330 6771
2330 6812
2330 6992
2330 7062
2330 7171
2330 7183
2330 7330
2330 7402
2330 7416
2331 5962
2331 6596
2332 3540
2332 3809
2332 7322
2333 3842
2333 4076
2333 5759
2337 2360
2337 3274
2337 6387
2338 4439
2339 3971
2339 6879
2339 7174
2340 3809
2341 3367
2342 4864
2343 5790
2343 6566
2344 3179
2344 5486
2345 3971
2345 4970
2346 3273
2347 3314
2347 5782
2347 7306
2348 6229
2349 3809
2349 4682
2350 5335
2350 6008
2350 7159
2351 3809
2352 4324
2352 6260
2353 5132
2354 3529
2355 3034
2355 7038
2357 2651
2357 6980
2357 7332
2358 3146
2358 3537
2358 5294
2358 6555
2358 6761
2358 6812
2358 7223
2358 7375
2359 2826
2359 3469
2359 4281
2359 5360
2359 5396
2359 5659
2359 5866
2360 2678
2360 3033
2360 3262
2360 3837
2360 5560
2360 7223
2361 3060
2362 7041
2362 7455
2363 3809
2363 4051
2363 4823
2364 3832
2365 2702
2365 7323
2366 2512
2366 2887
2366 3525
2366 3711
2366 3847
2366 4027
2366 4990
2366 5178
2366 5185
2366 5673
2366 6195
2366 6344
2366 6416
2366 6551
2366 6702
2366 7124
2367 3745
2368 2426
2368 2649
2368 2885
2368 3356
2368 3553
2368 4135
2368 4859
2368 5220
2368 5715
2368 7403
2369 3971
2369 4409
2369 5688
2370 2641
2371 3483
2371 7207
2372 3323
2372 5347
2372 7300
2372 7332
2373 4327
2374 3469
2374 6420
2375 4121
2375 4263
2375 5149
2375 5780
2375 7581
2376 2789
2376 3719
2376 4680
2376 4916
2376 4923
2376 4973
2376 5090
2376 7146
2377 7594
2378 3809
2378 5434
2378 7096
2379 4127
2380 4925
2380 5410
2381 5016
2381 5790
2382 4129
2382 6184
2382 7306
2383 3141
2383 3316
2384 4604
2385 2597
2386 4653
2386 5158
2387 3539
2387 6681
2387 7082
2388 3809
2389 6284
2390 4135
2390 7253
2391 3469
2391 3519
2392 2549
2392 2556
2392 2826
2392 4284
2392 5383
2392 6323
2392 7315
2393 2719
2393 4042
2393 4814
2394 6374
2395 3809
2396 4942
2397 2474
2397 2629
2398 2556
2398 4146
2399 2640
2399 7082
2401 3592
2401 3809
2401 5175
2401 6638
2402 4746
2402 5525
2402 5882
2402 5974
2402 6870
2402 7515
2403 2677
2403 2803
2403 3332
2403 3809
2403 3908
2403 4015
2403 4064
2403 4201
2403 4635
2403 6824
2403 6968
2403 7275
2404 2960
2405 3034
2405 3056
2405 3304
2405 3469
2405 5811
2405 7326
2406 3809
2406 4396
2406 5709
2407 5788
2408 4392
2409 2697
2409 4370
2409 6923
2410 2747
2410 3005
2410 6650
2411 2710
2411 3339
2411 3706
2411 4134
2411 4447
2411 4967
2412 2856
2412 3335
2412 4059
2412 4213
2412 5410
2412 5474
2412 5595
2412 5979
2412 6422
2412 7082
2413 3809
2413 3966
2413 6140
2414 2562
2414 3702
2414 3934
2414 5333
2414 5797
2414 6274
2414 6811
2414 7047
2414 7436
2415 5665
2416 5560
2418 3760
2419 3600
2419 5722
2419 6502
2419 7272
2420 3323
2421 3803
2422 4624
2423 2999
2423 6774
2424 2544
2424 2702
2424 6982
2425 3644
2425 4416
2425 4578
2425 6356
2426 2737
2426 2885
2426 4252
2427 6225
2428 3376
2428 3809
2428 4682
2428 5769
2428 6208
2428 6563
2428 6596
2428 7283
2429 5071
2429 6806
2429 7092
2431 5643
2432 3809
2432 5861
2433 5962
2433 7096
2433 7283
2434 4472
2435 2732
2435 5520
2436 7009
2437 2523
2437 6093
2438 3181
2438 3332
2438 3974
2438 4167
2438 4603
2438 5699
2438 6961
2438 7197
2438 7382
2439 3960
2439 6036
2440 3802
2440 4519
2440 5274
2440 6719
2441 5219
2441 5837
2441 7174
2441 7363
2441 7571
2442 3809
2442 4782
2442 5784
2442 5864
2442 6720
2442 6897
2442 7021
2442 7042
2443 2716
2443 4512
2443 5871
2444 2639
2444 7146
2445 7279
2446 3647
2446 5260
2447 2476
2448 4310
2449 2552
2449 2593
2449 4059
2449 4207
2449 4415
2449 4416
2449 5137
2449 5590
2449 5924
2450 2943
2450 3427
2450 4325
2450 4618
2450 6640
2451 6889
2452 5132
2453 2935
2454 2858
2454 3008
2454 4488
2455 6542
2455 7184
2456 2727
2456 3300
2456 3814
2456 3907
2456 4082
2456 4580
2456 4615
2456 7479
2458 2666
2458 2826
2458 3057
2458 3547
2458 4864
2458 5636
2458 6282
2458 6666
2458 7562
2460 4820
2460 6171
2461 2607
2461 4135
2461 4943
2462 5349
2464 2733
2464 3809
2464 4685
2464 5132
2464 5219
2464 7174
2465 3172
2465 3682
2465 3705
2465 6387
2465 6416
2465 6545
2466 5196
2466 6398
2468 2567
2468 3314
2468 3536
2468 3811
2468 4781
2468 4851
2468 5019
2468 5171
2468 5981
2468 7599
2469 3809
2470 4689
2471 3194
2471 3604
2471 3809
2471 4371
2471 5375
2471 6091
2471 7072
2472 4770
2472 5458
2474 4198
2474 4463
2474 6416
2474 6476
2475 3809
2475 5395
2475 6238
2475 6886
2476 3809
2476 5170
2476 5763
2477 4192
2477 4275
2477 4296
2477 4430
2477 5072
2477 5726
2477 7207
2477 7445
2478 3024
2478 3531
2478 4259
2478 4926
2478 6465
2478 6972
2479 3906
2480 2524
2480 7118
2481 3809
2481 6440
2482 2501
2482 2738
2482 3362
2482 3586
2482 3809
2482 5171
2482 5259
2482 5382
2482 7290
2483 3480
2483 6436
2484 3538
2484 3809
2485 5541
2486 3809
2487 3581
2488 4474
2489 3809
2490 2756
2490 2802
2490 4042
2490 4953
2490 5792
2490 6551
2490 6743
2490 7518
2490 7525
2491 2957
2491 3701
2491 5467
2492 3469
2492 4743
2492 5905
2492 7128
2493 6416
2493 6600
2493 7292
2494 3809
2494 4299
2494 6560
2496 6610
2497 3809
2498 2549
2498 6397
2498 7091
2499 4379
2499 6318
2499 6441
2500 2707
2500 5876
2500 6253
2500 7471
2501 2863
2501 2973
2501 3696
2501 4022
2501 4221
2501 4817
2501 5772
2501 6215
2501 7108
2502 4539
2502 7207
2503 3809
2503 6807
2504 2865
2504 3809
2504 4014
2504 4960
2504 5294
2504 5462
2505 3809
2506 3809
2508 2748
2508 3484
2508 4392
2508 4753
2508 5333
2508 7283
2509 6436
2509 6577
2510 2552
2510 2775
2510 3181
2510 3409
2510 3734
2510 5489
2510 5658
2510 6314
2510 6626
2510 6674
2510 7091
2510 7245
2510 7593
2512 3087
2512 3525
2513 3544
2513 3781
2513 4079
2514 5262
2515 2905
2515 3413
2515 4196
2515 5490
2515 6258
2515 6651
2515 6797
2515 7197
2516 2718
2516 2775
2516 3261
2516 4132
2516 4222
2516 4650
2516 5183
2516 5294
2516 5399
2516 5408
2516 5809
2516 6259
2516 6582
2516 6795
2516 7244
2517 6551
2517 7096
2518 3338
2519 6914
2520 5862
2521 2683
2521 3141
2521 3145
2521 3620
2521 3672
2521 5133
2521 5916
2521 6676
2521 6934
2521 6962
2522 3176
2523 7082
2524 2834
2524 3469
2524 3808
2524 4172
2524 4786
2524 5140
2524 5262
2524 5271
2524 5360
2524 5722
2524 6199
2524 6378
2525 3934
2525 7082
2526 3809
2527 5026
2527 7088
2529 2936
2529 3167
2529 3960
2529 4628
2529 7108
2530 5165
2530 5265
2530 5274
2530 5722
2530 5834
2530 6220
2530 7415
2531 3469
2532 2837
2532 5882
2533 4759
2534 3341
2534 4482
2534 4729
2534 5030
2534 5846
2534 6515
2534 6635
2534 7130
2534 7210
2534 7447
2534 7502
2535 4682
2536 3849
2537 2801
2537 3543
2538 7223
2539 4416
2540 2970
2540 3007
2540 3020
2540 3307
2540 3702
2540 3705
2540 3808
2540 4279
2540 5907
2540 6056
2540 6164
2540 6325
2540 6891
2540 7000
2540 7351
2540 7581
2541 6101
2542 5254
2542 6755
2543 6260
2543 6668
2545 2567
2546 2747
2546 3005
2546 4543
2547 5132
2547 6140
2547 6834
2549 6091
2550 2817
2551 3178
2551 3304
2551 4124
2551 4547
2551 5107
2551 6239
2551 7332
2551 7406
2552 2775
2552 3249
2552 3300
2552 3671
2552 3808
2552 3849
2552 3939
2552 3960
2552 4534
2552 4961
2552 5331
2552 5525
2552 5651
2552 5679
2552 6975
2552 7306
2553 3168
2553 3621
2553 3704
2553 3809
2553 3906
2553 4501
2553 4765
2553 5551
2554 5594
2554 7545
2556 2738
2556 2801
2556 2864
2556 3003
2556 3326
2556 3338
2556 3543
2556 3576
2556 4039
2556 4046
2556 4064
2556 4370
2556 4414
2556 4450
2556 4473
2556 4923
2556 5042
2556 5271
2556 5409
2556 5491
2556 6008
2556 6160
2556 6282
2556 6726
2556 6874
2556 7095
2557 3809
2558 3809
2558 4490
2558 4893
2558 5384
2558 6326
2558 6982
2559 3223
2559 5707
2559 5757
2560 2661
2560 3801
2560 4014
2560 4408
2560 4703
2560 6020
2560 6167
2560 6518
2561 6297
2562 3809
2562 3971
2562 7426
2563 2567
2563 2609
2563 3486
2563 6870
2564 3847
2564 3906
2564 4160
2564 4878
2564 6436
2564 7082
2564 7189
2565 3809
2566 3287
2566 4200
2566 5722
2566 6146
2566 6308
2567 2865
2567 3393
2567 3647
2567 3814
2567 4241
2567 5342
2567 5511
2567 5981
2567 6160
2567 6336
2567 7002
2568 3302
2568 3478
2568 4905
2569 3937
2569 4252
2570 3792
2570 3809
2570 4595
2570 5026
2571 3352
2571 4362
2571 4384
2571 5272
2571 6208
2571 7531
2572 3529
2573 3544
2574 3809
2576 4847
2578 5948
2579 3326
2579 4152
2579 6218
2581 3809
2581 4398
2582 3624
2582 5609
2582 6103
2582 6982
2582 7003
2582 7220
2583 7581
2584 3261
2584 3809
2584 5127
2584 5651
2585 3790
2585 5590
2587 4475
2588 2773
2588 5267
2588 5381
2588 5704
2589 4381
2589 7347
2590 2607
2590 2837
2590 3122
2590 4776
2590 6426
2590 7575
2591 5924
2592 2920
2593 4680
2593 5123
2593 7127
2594 2859
2594 4124
2595 3115
2596 3499
2596 3823
2596 5636
2596 6217
2596 6335
2596 6371
2596 6763
2596 7485
2597 6054
2598 3809
2599 2982
2599 3454
2599 3978
2599 5784
2599 6897
2600 3583
2600 4227
2600 7548
2602 5139
2603 4881
2604 3669
2605 3539
2605 3809
2606 3809
2607 3484
2607 3525
2607 3621
2607 3791
2607 3809
2607 4579
2607 6043
2607 6235
2607 6658
2607 7371
2608 3225
2609 3469
2609 6302
2610 3530
2610 4584
2610 5180
2610 5259
2610 5297
2610 5777
2610 6516
2610 7390
2611 3174
2612 3741
2612 3809
2612 6132
2613 2678
2613 4878
2613 6026
2613 7272
2614 3089
2614 4757
2614 5144
2614 5882
2614 7406
2615 2735
2615 2985
2615 4932
2615 5585
2615 5955
2615 6037
2615 7283
2616 3330
2616 3367
2617 3543
2617 3809
2617 5237
2617 5913
2618 2957
2618 3906
2618 4620
2618 4733
2618 7557
2619 3976
2620 5715
2621 3809
2622 5493
2623 2642
2625 3447
2625 3809
2626 3809
2626 5871
2627 3311
2627 3451
2627 5676
2627 7326
2628 3189
2628 3809
2628 6631
2629 2696
2629 2744
2629 2970
2629 3087
2629 3236
2629 4265
2629 4468
2629 4682
2629 4763
2629 4772
2629 4951
2629 5498
2629 5614
2629 5930
2629 6082
2629 6129
2629 6238
2629 6303
2629 6362
2629 6563
2629 6668
2629 6759
2629 6798
2629 6886
2629 6924
2629 7115
2629 7299
2629 7446
2630 3600
2630 3604
2631 6474
2632 2991
2632 3767
2632 4199
2632 5518
2632 6043
2632 6260
2632 7038
2632 7578
2633 3621
2633 5854
2633 7556
2634 5139
2634 6125
2634 6140
2634 6567
2634 7079
2634 7096
2634 7223
2635 3034
2635 3469
2635 4313
2635 6520
2637 3809
2637 4422
2637 7571
2638 2865
2638 3971
2638 4447
2639 6423
2640 2693
2640 3130
2640 3332
2640 3454
2640 3604
2640 3885
2640 3891
2640 3893
2640 3976
2640 4015
2640 4217
2640 4279
2640 4422
2640 4515
2640 4787
2640 5598
2640 5699
2640 6386
2640 6426
2640 6551
2640 6953
2640 7034
2640 7283
2640 7426
2640 7524
2641 7176
2643 3149
2644 3273
2644 3986
2645 3555
2645 5857
2645 6961
2645 7039
2645 7417
2646 4099
2646 7174
2647 7150
2648 3671
2648 4221
2648 4276
2648 5331
2648 6542
2648 7290
2649 6309
2650 5711
2651 4957
2652 2863
2652 5037
2652 7137
2652 7477
2652 7496
2653 3809
2654 3809
2654 4568
2655 6025
2656 5002
2657 4310
2657 5619
2657 6199
2658 3804
2659 2766
2659 4369
2659 6180
2659 6969
2662 4961
2663 3809
2663 5090
2666 6626
2667 6869
2668 3818
2668 3906
2668 5018
2668 5658
2670 3170
2670 5917
2671 2845
2671 3445
2671 3544
2671 4911
2671 5330
2671 5777
2671 7071
2671 7571
2672 2826
2672 4296
2672 4430
2672 7047
2673 3116
2674 3221
2675 3809
2675 4859
2675 5111
2675 5529
2675 6548
2676 4745
2676 6996
2676 6997
2677 3358
2677 3476
2677 3887
2677 3992
2677 3995
2677 4549
2677 5098
2677 5560
2677 6043
2677 6458
2677 7052
2677 7207
2678 2744
2678 4046
2679 3830
2680 7117
2681 3098
2682 3615
2682 6011
2683 3809
2684 6126
2685 7335
2686 3809
2687 3490
2687 7483
2688 2980
2688 3061
2688 3966
2688 4431
2688 6868
2688 7079
2688 7223
2689 3076
2689 3711
2689 6708
2690 4004
2690 6641
2691 3930
2691 4172
2691 6980
2692 4078
2692 6186
2693 2699
2693 2735
2693 3039
2693 3236
2693 3702
2693 3809
2693 3893
2693 4195
2693 4343
2693 4464
2693 4523
2693 4571
2693 5518
2693 5712
2693 5715
2693 6483
2693 6615
2693 6659
2693 6840
2693 6882
2694 5834
2695 4163
2695 5769
2695 6690
2695 6776
2696 3809
2699 2896
2699 3005
2699 3332
2699 3621
2699 4859
2699 5262
2700 6577
2701 3999
2701 5140
2701 5941
2702 3586
2702 4209
2702 4379
2702 4427
2702 5260
2702 5824
2702 5862
2702 6982
2703 3647
2704 3148
2704 3438
2704 4029
2704 4132
2704 4152
2704 4742
2704 5539
2704 5550
2704 5630
2704 6116
2704 7190
2704 7251
2705 3500
2705 5349
2706 2735
2706 2980
2706 3427
2706 3491
2706 3515
2706 3908
2706 4135
2706 4202
2706 4252
2706 4289
2706 4394
2706 4511
2706 4675
2706 4785
2706 5132
2706 5690
2706 5738
2706 5877
2706 6050
2706 6061
2706 6378
2706 7038
2706 7154
2706 7385
2707 3809
2707 4722
2707 4851
2707 5259
2707 5845
2708 2771
2708 2924
2708 3241
2708 3724
2708 3819
2708 4716
2708 4857
2708 5039
2708 5116
2708 5374
2708 6284
2708 6290
2708 6749
2708 7260
2708 7425
2708 7560
2709 6563
2709 7096
2711 2746
2711 5968
2711 6510
2711 7363
2712 4053
2712 4354
2712 4781
2712 5712
2713 7082
2713 7334
2714 3809
2715 5255
2716 2859
2716 3204
2716 3556
2716 3971
2716 4743
2716 6028
2716 7166
2717 4370
2717 5668
2718 3194
2718 3199
2718 3809
2718 4650
2719 4042
2719 5267
2720 3573
2720 3809
2720 7401
2721 3124
2721 3324
2721 3457
2721 3687
2721 4005
2721 4569
2721 5837
2721 5941
2721 6156
2722 3809
2723 3809
2723 5635
2723 5967
2725 3809
2725 4859
2726 5091
2727 4894
2727 6152
2728 2753
2728 4718
2729 3787
2729 3809
2729 6240
2730 6666
2731 3809
2731 5967
2732 3572
2732 4717
2732 5520
2733 3446
2733 3621
2733 6600
2733 7552
2734 7091
2735 2970
2735 3464
2735 3525
2735 3908
2735 4043
2735 4990
2735 5178
2735 5268
2735 5292
2735 5494
2735 5585
2735 5623
2735 5797
2735 5878
2735 5913
2735 6208
2735 6344
2735 6970
2735 7047
2735 7096
2735 7103
2735 7143
2735 7465
2736 5383
2737 3034
2737 3251
2737 3566
2737 4203
2737 4252
2737 6538
2737 7001
2737 7082
2738 3362
2739 3809
2739 5142
2739 7479
2740 3809
2741 4431
2741 5877
2741 6551
2741 6743
2741 7403
2742 4374
2742 5525
2744 3809
2744 3873
2744 4001
2744 4048
2744 4462
2744 4962
2744 5019
2744 6254
2744 6408
2744 6708
2744 6956
2744 7467
2745 3809
2746 7363
2747 3005
2747 3484
2747 4543
2747 6305
2748 3686
2748 3809
2748 3971
2748 4257
2748 6715
2749 3362
2749 3576
2749 5330
2749 5453
2750 3608
2750 5373
2750 7223
2751 4907
2751 5840
2751 6919
2752 3203
2752 7574
2753 5436
2753 5610
2753 6442
2753 6813
2754 2789
2755 5630
2755 5981
2758 7493
2759 2874
2759 5903
2760 3809
2761 5922
2761 7272
2762 5079
2763 3358
2763 3809
2763 3908
2763 3934
2764 3557
2764 4069
2764 4831
2764 5272
2764 5959
2764 6103
2764 6206
2764 6284
2764 7300
2764 7383
2765 6287
2766 7223
2767 2980
2767 3581
2767 4135
2767 5132
2767 6304
2768 5790
2769 3809
2773 4859
2774 4194
2774 5455
2774 6432
2775 2862
2775 3300
2775 4746
2775 4788
2775 5375
2775 7479
2776 3165
2776 4204
2777 3373
2777 6329
2777 6758
2778 6686
2779 5965
2780 3809
2780 3976
2781 6051
2781 6697
2782 3539
2783 3933
2783 6096
2783 7082
2786 3393
2786 3506
2786 4053
2786 4332
2786 4604
2786 5294
2786 5436
2788 3178
2788 3263
2788 3469
2788 3718
2788 5176
2788 5421
2788 5905
2788 6235
2789 3350
2789 3745
2789 3800
2789 4280
2789 5019
2789 6024
2789 6763
2789 6940
2789 7140
2790 3809
2791 3926
2793 3194
2793 5882
2793 6146
2793 7191
2794 3809
2795 6118
2795 6421
2796 3664
2796 4196
2796 6034
2797 3387
2797 3705
2797 3711
2797 3959
2797 4257
2797 4447
2797 4803
2797 4862
2797 5618
2797 5693
2797 5791
2797 6049
2797 6479
2797 6577
2797 6716
2797 7115
2797 7403
2798 7088
2799 3544
2799 4127
2800 3341
2801 2829
2801 3291
2801 5492
2801 7498
2802 2943
2802 3030
2802 3386
2802 3436
2802 3906
2802 4279
2802 4878
2802 5202
2802 6640
2802 6879
2802 7431
2802 7571
2803 3809
2803 5433
2803 6963
2803 7190
2804 4168
2804 4750
2805 6812
2806 5560
2807 2930
2807 3427
2807 4325
2809 3740
2809 4663
2809 5315
2809 7519
2810 3053
2810 7032
2811 3300
2814 3081
2814 7082
2815 7548
2816 3263
2816 3924
2816 4706
2816 4909
2816 5041
2816 5571
2816 5670
2816 5722
2816 6329
2816 6484
2817 3260
2817 3547
2817 4699
2817 4746
2817 4864
2817 4947
2817 5016
2817 5982
2817 7144
2818 3802
2818 3809
2818 4422
2818 6891
2818 6924
2819 6818
2820 3304
2821 6445
2821 6559
2822 3187
2822 3525
2822 3934
2823 4086
2824 5069
2825 3787
2825 3830
2825 6906
2826 2883
2826 2931
2826 3063
2826 3065
2826 3122
2826 3145
2826 3244
2826 3252
2826 3312
2826 3327
2826 3416
2826 3525
2826 3547
2826 3681
2826 3902
2826 4098
2826 4124
2826 4187
2826 4301
2826 4522
2826 4565
2826 4580
2826 4665
2826 4701
2826 4799
2826 4958
2826 5167
2826 5174
2826 5241
2826 5322
2826 5502
2826 5516
2826 5601
2826 5787
2826 5792
2826 5861
2826 5877
2826 5895
2826 5991
2826 6025
2826 6077
2826 6082
2826 6197
2826 6224
2826 6236
2826 6320
2826 6333
2826 6460
2826 6464
2826 6563
2826 6741
2826 6824
2826 6916
2826 6964
2826 7316
2826 7381
2826 7393
2826 7410
2826 7543
2827 5029
2827 6986
2828 4983
2828 5141
2828 5344
2829 3305
2829 6832
2830 4891
2830 5990
2831 3809
2831 4010
2831 4681
2831 5147
2832 3809
2832 5107
2832 6423
2832 7118
2833 5463
2833 7040
2834 3302
2834 3550
2834 4748
2834 5030
2834 5035
2834 5127
2834 7571
2836 3887
2837 3087
2837 3502
2837 5921
2837 5947
2837 6236
2837 6868
2838 2985
2839 3809
2840 5553
2841 4506
2842 4599
2843 5331
2844 4377
2846 6605
2847 2959
2847 3543
2847 5796
2847 5919
2848 7594
2849 5165
2849 6965
2850 3809
2852 4974
2853 5332
2853 7174
2854 3656
2854 3982
2854 5983
2856 3737
2856 3778
2856 5317
2856 6071
2856 6637
2856 6896
2856 6956
2857 3011
2857 3119
2857 3435
2857 3514
2857 3567
2857 3906
2857 4117
2857 4257
2857 4447
2857 4620
2857 5139
2857 6192
2857 7207
2858 7453
2859 3085
2859 3211
2859 3553
2859 6206
2859 7051
2860 2865
2860 3241
2860 3314
2860 3528
2860 3539
2860 3604
2860 3959
2860 4393
2860 5516
2860 5651
2860 5938
2860 6423
2860 6444
2860 6868
2860 7477
2860 7560
2861 3971
2861 4422
2861 4951
2861 5854
2861 6333
2862 2960
2862 3469
2862 4229
2862 4781
2862 4961
2862 5080
2863 2924
2863 3320
2863 4191
2863 4248
2863 4927
2863 4950
2863 5014
2863 5019
2863 5298
2863 5327
2863 5331
2863 5437
2863 5712
2863 5796
2863 6022
2863 6761
2863 6892
2863 6961
2863 7082
2863 7515
2863 7571
2863 7598
2864 3765
2864 3809
2865 3257
2865 3566
2865 3809
2865 3903
2865 4221
2865 4933
2865 5525
2865 5924
2865 6075
2865 6126
2865 6763
2865 7257
2865 7326
2866 3314
2866 3318
2866 3696
2866 4237
2866 5123
2866 6794
2867 3257
2867 3557
2867 3580
2867 4153
2867 4377
2867 4883
2867 5352
2867 5378
2867 5409
2867 5653
2867 6160
2869 3437
2869 3532
2870 3809
2871 3655
2873 3583
2875 5894
2875 7545
2876 6463
2877 4011
2877 5457
2877 7118
2878 3809
2879 3052
2879 3535
2879 4417
2880 2996
2880 3702
2880 3966
2880 3976
2880 5875
2880 6416
2880 6567
2881 6559
2882 7007
2882 7040
2882 7056
2884 3131
2884 4620
2884 4649
2884 5430
2885 3553
2885 3809
2885 5220
2885 5861
2887 3934
2887 3966
2887 4434
2887 5026
2888 6931
2888 7577
2889 5783
2889 6856
2890 7273
2891 5895
2892 3465
2894 3809
2894 7283
2895 3332
2895 3427
2895 3757
2895 3934
2895 4618
2896 2999
2896 3084
2896 3324
2896 3550
2896 6082
2896 6869
2897 4813
2898 3809
2899 3031
2899 4029
2899 4553
2899 5202
2900 3809
2900 6230
2901 3305
2901 3552
2901 3954
2901 5431
2901 5946
2901 6434
2901 6879
2901 6919
2901 7477
2902 3427
2902 3621
2902 3738
2902 3809
2903 4679
2904 3809
2905 3252
2905 3301
2905 3413
2905 3439
2905 3647
2905 3656
2905 4355
2905 4473
2905 4518
2905 5652
2905 5739
2905 6118
2905 6637
2905 6747
2905 7116
2905 7261
2905 7307
2905 7326
2905 7407
2905 7496
2906 3809
2907 3809
2908 4182
2909 3484
2910 3809
2911 3414
2911 4504
2911 4589
2911 4672
2911 4783
2911 5157
2911 5834
2911 6784
2911 6919
2911 7245
2912 2938
2912 3809
2912 4378
2913 7207
2914 5679
2914 6048
2914 6915
2915 3682
2915 5072
2915 5175
2915 5498
2915 6714
2915 7493
2916 4529
2917 3809
2918 2943
2918 3005
2918 6043
2918 7571
2919 4566
2919 6383
2920 3762
2920 5189
2920 6437
2921 3314
2922 6529
2923 7272
2926 5147
2928 3106
2928 4293
2928 5269
2928 6476
2928 7164
2929 3809
2930 4325
2931 6897
2932 3810
2932 5341
2933 3261
2933 5251
2935 4621
2935 5658
2935 5679
2935 5844
2935 5962
2935 6082
2935 6343
2935 6374
2935 6612
2935 6647
2936 5090
2936 7306
2937 3362
2937 3809
2937 6564
2938 3588
2938 5139
2938 5693
2939 3809
2941 6278
2941 6343
2942 5055
2942 5341
2942 7082
2943 4422
2943 6919
2943 7494
2944 3669
2946 3809
2947 6357
2947 7207
2948 3809
2948 6518
2948 7231
2948 7421
2948 7427
2949 4178
2949 4252
2950 3809
2951 4174
2951 5940
2951 6301
2951 7285
2952 5259
2953 3108
2953 3809
2953 3971
2953 3976
2953 4711
2953 5110
2954 3004
2954 6813
2955 3809
2956 5903
2957 3236
2957 3484
2957 3681
2957 3702
2957 3971
2957 4219
2957 4224
2957 4785
2957 4988
2957 5139
2957 5175
2957 5373
2957 5690
2957 5787
2957 5788
2957 5853
2957 5910
2957 5926
2957 6156
2957 6327
2957 6551
2957 6596
2957 6659
2957 6693
2957 6799
2957 7316
2957 7426
2958 3809
2959 3696
2959 3847
2959 4313
2959 5202
2959 6087
2959 7310
2959 7574
2960 2965
2960 5271
2960 6417
2963 3332
2963 3450
2963 3651
2963 4515
2963 5261
2963 5437
2963 5679
2963 6323
2963 6961
2964 3856
2964 6222
2965 3519
2965 5813
2966 5854
2967 3326
2967 4276
2967 4919
2968 5321
2968 7088
2969 4045
2969 5712
2970 3034
2970 3243
2970 3307
2970 3358
2970 3562
2970 3567
2970 3682
2970 3713
2970 3809
2970 3896
2970 3934
2970 3978
2970 4166
2970 4293
2970 4294
2970 4296
2970 4416
2970 4803
2970 5560
2970 5784
2970 6029
2970 6426
2970 6548
2970 6798
2970 6934
2970 7115
2970 7283
2970 7309
2970 7503
2970 7514
2970 7561
2971 6505
2971 7293
2972 3686
2972 4859
2972 5111
2973 3801
2973 4651
2973 6518
2974 3634
2974 4413
2975 3048
2975 3304
2975 5294
2975 5924
2975 6601
2976 3809
2977 3634
2977 4413
2978 3012
2979 6520
2980 3191
2980 3380
2980 3391
2980 3484
2980 3514
2980 3647
2980 3653
2980 3691
2980 3809
2980 4031
2980 4042
2980 4055
2980 4135
2980 4202
2980 4428
2980 4431
2980 4748
2980 4779
2980 5105
2980 5439
2980 5663
2980 5788
2980 6304
2980 6563
2980 6737
2980 6743
2980 7053
2980 7117
2981 3706
2981 4428
2982 3514
2982 4468
2982 5738
2982 6276
2982 6551
2982 6828
2983 5769
2983 7160
2984 3604
2985 4172
2985 4444
2986 5722
2987 3809
2988 3809
2988 4852
2989 7231
2991 2999
2991 7485
2992 3752
2993 3713
2993 4803
2993 6362
2993 6752
2994 3142
2994 3712
2994 3809
2994 3965
2994 4563
2994 5959
2994 7366
2995 3550
2996 3039
2996 3427
2996 3934
2996 3976
2996 4135
2996 4991
2996 5328
2996 5636
2996 5787
2996 6416
2997 4293
2997 5704
2997 6418
2998 3809
2998 6246
2999 3237
2999 4001
3001 3809
3001 4235
3001 4707
3001 6420
3002 3809
3002 7165
3004 3922
3004 5268
3004 6717
3004 7121
3005 3525
3005 4543
3005 5560
3005 6305
3006 3809
3006 3969
3006 4306
3006 7221
3007 5920
3007 6924
3007 7586
3009 3809
3010 3809
3011 3420
3012 3114
3013 6677
3015 4087
3017 3106
3019 5905
3020 3809
3021 7560
3022 3960
3022 5987
3023 3986
3024 7383
3025 7562
3026 4099
3027 3668
3027 3959
3027 4431
3028 4800
3029 3971
3029 4064
3029 5435
3030 3427
3030 3906
3030 4422
3030 6659
3031 5710
3031 6260
3032 4296
3032 4517
3032 5840
3032 6098
3032 7154
3034 3188
3034 3497
3034 3576
3034 3681
3034 3761
3034 3908
3034 4043
3034 4142
3034 4148
3034 4233
3034 4747
3034 4814
3034 4890
3034 4982
3034 5015
3034 5358
3034 5754
3034 5947
3034 6061
3034 6192
3034 6416
3034 6479
3034 6528
3034 6596
3034 6657
3034 6840
3034 6967
3034 7170
3034 7256
3034 7264
3034 7426
3034 7518
3035 6879
3035 7571
3036 3130
3036 5445
3036 5921
3036 6040
3036 7098
3036 7514
3037 6378
3038 3427
3039 3511
3039 4246
3039 5715
3039 6206
3039 6349
3041 3809
3042 4506
3043 5739
3044 3809
3044 5824
3045 3627
3045 5107
3045 6187
3045 7008
3047 3621
3047 4166
3047 4736
3048 4307
3049 3781
3049 4316
3049 5740
3051 4387
3052 3809
3052 4220
3054 3179
3055 4708
3056 3809
3056 4124
3056 5271
3056 5763
3056 6034
3056 6700
3056 7000
3058 3809
3060 3666
3060 4167
3060 6153
3060 6259
3061 4108
3062 6211
3063 3681
3063 6961
3064 6491
3065 3616
3065 4296
3066 7485
3067 3469
3069 3809
3070 6131
3071 3809
3072 5882
3072 5905
3073 3514
3073 6386
3074 4203
3075 3758
3075 6892
3076 6708
3076 7485
3077 3725
3077 7496
3078 3801
3079 6329
3080 3809
3081 3959
3083 4643
3085 3182
3085 3793
3085 5120
3087 3117
3087 3332
3087 3422
3087 3525
3087 3629
3087 3640
3087 3905
3087 3976
3087 4135
3087 4447
3087 5015
3087 5178
3087 5490
3087 6098
3087 6344
3087 6374
3087 6378
3087 6476
3087 6600
3087 6991
3087 7114
3087 7124
3087 7250
3087 7348
3087 7385
3087 7518
3088 5768
3089 5679
3089 6560
3089 6889
3089 7575
3090 3934
3092 4841
3092 6046
3092 6140
3094 3566
3094 3849
3094 4459
3094 4504
3094 5114
3094 5285
3094 5712
3094 6090
3094 6368
3094 7174
3096 3809
3096 5109
3096 7417
3097 3364
3097 3677
3097 4296
3097 5370
3097 5388
3097 6551
3097 6953
3098 3355
3098 3564
3098 3809
3098 4972
3098 6008
3099 3809
3099 4053
3099 4209
3100 4044
3101 4922
3101 5967
3102 4495
3102 5107
3102 5187
3102 5474
3102 6635
3103 4198
3103 5104
3103 5420
3103 7174
3105 5565
3106 3507
3106 3934
3106 5063
3106 7536
3107 4427
3107 6602
3108 5008
3108 5799
3109 3906
3109 5437
3110 3809
3111 4618
3111 6551
3111 7019
3111 7283
3112 6434
3113 3557
3113 4031
3114 3890
3114 4769
3115 3447
3115 5613
3115 6518
3115 6979
3116 4361
3116 4638
3116 5942
3116 6152
3116 6744
3116 7154
3117 3702
3117 3891
3117 5877
3117 7560
3118 3906
3119 4324
3119 5710
3119 6260
3120 4078
3120 4135
3121 3541
3121 3717
3121 4802
3121 7506
3122 6693
3124 5499
3125 4428
3126 3814
3127 4430
3128 5788
3128 5882
3129 5550
3130 4394
3130 5026
3130 7256
3131 3278
3131 3353
3131 3971
3131 4748
3131 5644
3131 5704
3132 6258
3133 4046
3133 4818
3133 5599
3133 6245
3134 3392
3134 3809
3134 4786
3134 5020
3135 3157
3136 3454
3136 4878
3136 7390
3137 5306
3138 3556
3138 4327
3138 6416
3138 6489
3138 7190
3140 3681
3140 3971
3140 7098
3141 3809
3141 3971
3141 3988
3141 4717
3141 4954
3141 5339
3141 5355
3141 5377
3141 5890
3141 6924
3141 6934
3142 4439
3143 3447
3144 3494
3144 6839
3144 7192
3145 3621
3145 4252
3145 4338
3145 5659
3145 6050
3145 6057
3145 6202
3145 6538
3145 7560
3146 3224
3146 3579
3146 3685
3146 4397
3146 5486
3146 6889
3146 7237
3146 7500
3147 3453
3147 6776
3148 3550
3148 3809
3148 4029
3148 5223
3149 4145
3149 6838
3150 3974
3150 4529
3150 5261
3150 5605
3151 3298
3151 4238
3151 4317
3151 4488
3151 4688
3151 7075
3152 3809
3153 3544
3153 3809
3153 4409
3153 5427
3154 3488
3154 4939
3154 5712
3154 6024
3155 3427
3155 5260
3155 6817
3155 6870
3156 5294
3156 5464
3157 4166
3157 4257
3157 4693
3157 7082
3157 7571
3159 5257
3159 6700
3159 7172
3160 4623
3160 5277
3162 5461
3163 6870
3164 3809
3164 3934
3164 6668
3164 7283
3164 7536
3165 3809
3166 7545
3167 3392
3167 3960
3167 4337
3167 4638
3167 4833
3168 4762
3168 6577
3169 3314
3170 3427
3170 4256
3171 3809
3172 3617
3172 3891
3172 4692
3172 7115
3173 5254
3173 5288
3173 7521
3174 3809
3176 3934
3176 5953
3177 3362
3177 3604
3177 6423
3178 3808
3178 3823
3178 4172
3178 4984
3178 5071
3178 5800
3178 7040
3178 7056
3180 4389
3181 3847
3181 4578
3181 4938
3181 4972
3181 5486
3181 5876
3181 7574
3182 6800
3183 5903
3184 4219
3184 6063
3185 4977
3186 4420
3186 4572
3187 4293
3189 3447
3189 6320
3189 7406
3191 5105
3191 5921
3192 3417
3192 3809
3192 4318
3192 6230
3192 6663
3193 3810
3193 4951
3193 5026
3193 6501
3193 7383
3194 3549
3194 4499
3194 4943
3194 5528
3194 5745
3194 5882
3194 6509
3194 7334
3195 3669
3195 4610
3195 5871
3195 6258
3195 6777
3196 3809
3197 3387
3197 5267
3197 6981
3198 6200
3199 6943
3200 3727
3201 6591
3202 4851
3203 6656
3203 7241
3204 3809
3205 3809
3205 3906
3206 5908
3207 5236
3208 4171
3208 6081
3208 6108
3208 7130
3209 3235
3209 4079
3209 7485
3210 4127
3210 5837
3212 6378
3213 3634
3215 5486
3216 5554
3217 3363
3217 5534
3218 5360
3219 4401
3219 5837
3220 4337
3220 5271
3220 7482
3221 3261
3222 5962
3222 6555
3223 3500
3224 3809
3224 4087
3224 7073
3225 4855
3225 4860
3225 5792
3225 6525
3226 4717
3226 5955
3226 6386
3226 6868
3227 3978
3228 3722
3230 3440
3230 6434
3231 3360
3231 7326
3232 4889
3233 3809
3233 6636
3233 6774
3234 5394
3235 6304
3235 6596
3235 7485
3238 3809
3238 5223
3240 3809
3241 3421
3241 3453
3241 3769
3241 3823
3241 4014
3241 4185
3241 4374
3241 4676
3241 4677
3241 4757
3241 4964
3241 5375
3241 5384
3241 5463
3241 6578
3241 7044
3241 7146
3242 3275
3243 3358
3243 3809
3243 7211
3244 3502
3244 3621
3244 3711
3244 5861
3244 5895
3245 5967
3245 7419
3246 6508
3247 3809
3248 7207
3249 4560
3249 4781
3250 3473
3250 3632
3250 7165
3251 4718
3252 3613
3252 3775
3252 4032
3252 5360
3252 5739
3252 6160
3252 6681
3253 5006
3255 4507
3257 3421
3257 3508
3257 3800
3257 5137
3257 5305
3257 6258
3257 6768
3257 7017
3258 3291
3258 5127
3258 7202
3258 7364
3259 5013
3260 3642
3260 4137
3260 4568
3260 6230
3260 6389
3260 6610
3260 7002
3260 7545
3261 3886
3261 4744
3261 5165
3261 5171
3261 5399
3261 5493
3261 5508
3261 5709
3261 5732
3261 5860
3261 6270
3261 7216
3261 7326
3262 3905
3262 3966
3262 4078
3262 6416
3262 7450
3263 4854
3263 6784
3264 6766
3265 3809
3268 7272
3269 6761
3270 3505
3271 4371
3271 5375
3271 7073
3272 3809
3272 6287
3273 3404
3273 3886
3273 3909
3273 4416
3273 4465
3273 4710
3273 6107
3273 6400
3273 6524
3273 7263
3273 7272
3273 7489
3274 3681
3274 3692
3274 3844
3274 5238
3274 6343
3274 6596
3275 3967
3275 5221
3275 7212
3276 3845
3276 5139
3277 3550
3277 4127
3279 3809
3281 3809
3282 3469
3282 7326
3283 3314
3283 3907
3283 5294
3283 5560
3283 6136
3283 6930
3285 3939
3287 6291
3287 7555
3288 3809
3288 5056
3289 3809
3290 3713
3290 4012
3290 4257
3290 4682
3290 5178
3290 5276
3291 3922
3291 6123
3291 6529
3291 6554
3291 6700
3292 4076
3293 4682
3293 5096
3297 7459
3299 4420
3300 3906
3300 3960
3300 5811
3300 5876
3300 6024
3300 6254
3300 6411
3300 6508
3301 5929
3302 3809
3304 3406
3304 4124
3304 4160
3304 4162
3304 4316
3304 4427
3304 4850
3304 5756
3304 6258
3304 6460
3304 6829
3304 7088
3304 7163
3305 4110
3305 4633
3305 5211
3305 6756
3305 6879
3305 7082
3306 4022
3306 4296
3307 3604
3307 3713
3307 3971
3307 4682
3307 5598
3307 5742
3307 5811
3307 6330
3307 7078
3307 7153
3308 3383
3308 4201
3308 4578
3308 5094
3308 6383
3309 7583
3310 7515
3311 3809
3312 4431
3313 3809
3313 5612
3313 5953
3313 6693
3313 7031
3314 3341
3314 3491
3314 4146
3314 4253
3314 4259
3314 4296
3314 4395
3314 4585
3314 4605
3314 4710
3314 4715
3314 4961
3314 5454
3314 5645
3314 5649
3314 5808
3314 5984
3314 6527
3314 6775
3314 6909
3314 7082
3314 7131
3314 7545
3314 7551
3314 7552
3315 3809
3315 4701
3315 6057
3316 4713
3316 4733
3316 6577
3316 7223
3318 3801
3319 3809
3320 3531
3320 3579
3320 4694
3321 6870
3323 3324
3323 3556
3323 5157
3323 5182
3323 5268
3323 5363
3323 6416
3323 7223
3324 4848
3324 6763
3324 7485
3325 3550
3325 6664
3326 3819
3326 3901
3326 4146
3326 4182
3326 4460
3326 4843
3326 5342
3326 5882
3326 6033
3326 6355
3326 6648
3326 6930
3326 7177
3327 4426
3328 4757
3328 6107
3328 7260
3328 7426
3328 7477
3329 5527
3330 3622
3330 4610
3330 5106
3330 5590
3330 5946
3330 6614
3330 7165
3331 7383
3332 3464
3332 3971
3332 5358
3332 5370
3332 5385
3332 5518
3332 5565
3332 5663
3332 5679
3332 6043
3332 6693
3332 6891
3332 7223
3333 3671
3333 5331
3334 3494
3334 3809
3334 4133
3334 5172
3334 6944
3335 3427
3335 5371
3335 5803
3336 5790
3338 3970
3338 4529
3338 5062
3338 5271
3338 6509
3339 4967
3340 7571
3341 3516
3341 3580
3341 3904
3341 4746
3341 4961
3341 5298
3341 5409
3341 5846
3341 5981
3341 6070
3341 6717
3341 6799
3341 7033
3341 7074
3341 7289
3343 5262
3343 6439
3344 5404
3345 3809
3346 4218
3347 4673
3347 5819
3348 6462
3348 6656
3348 7020
3349 3810
3350 3437
3350 4053
3350 4436
3350 4800
3350 4821
3350 5016
3350 6108
3350 6112
3350 6322
3350 6359
3350 6665
3350 6763
3350 7179
3351 3500
3351 5455
3351 7018
3352 5271
3352 6180
3352 7562
3354 4859
3355 5014
3355 5965
3357 3971
3357 6223
3358 3385
3358 3682
3358 3810
3358 4188
3358 4324
3358 4358
3358 4571
3358 4692
3358 5784
3358 5805
3358 6374
3358 6567
3359 3960
3360 3782
3360 3809
3360 5954
3360 7545
3361 4512
3361 7266
3362 3971
3362 4298
3362 4651
3362 4679
3362 4722
3362 5175
3362 5464
3362 5500
3362 5517
3362 5777
3362 6551
3362 6812
3363 3524
3363 3809
3363 4337
3363 4455
3363 5360
3363 6481
3363 7257
3365 3809
3366 4945
3366 5007
3366 6386
3366 6650
3366 7538
3367 5987
3368 3809
3368 6626
3369 4030
3369 6846
3370 3604
3371 7254
3372 4299
3373 3809
3373 4127
3373 4187
3373 5861
3373 6025
3373 6703
3373 7110
3373 7207
3374 3971
3374 5262
3375 3809
3376 3747
3377 3809
3379 5921
3380 5937
3381 3711
3381 6324
3382 5209
3383 5679
3384 3443
3384 3809
3384 5101
3384 5763
3384 7560
3385 7021
3386 3691
3386 3809
3386 3891
3386 3976
3386 5329
3386 6416
3386 6476
3386 6873
3386 7019
3386 7283
3387 3809
3387 3971
3387 4936
3387 5470
3387 6811
3388 5026
3389 4032
3390 6045
3391 3484
3392 3849
3392 4280
3392 4362
3392 4602
3393 3639
3393 4550
3393 5803
3393 6354
3393 7231
3394 6258
3395 3453
3395 4014
3395 4893
3397 3598
3398 3809
3399 5965
3400 3439
3400 3800
3400 5013
3400 5138
3400 6230
3400 6353
3400 6396
3400 6510
3401 4072
3402 6416
3403 4859
3406 4587
3407 4440
3408 6253
3409 4959
3409 5410
3410 3809
3410 4279
3410 6097
3410 6386
3411 3416
3412 5371
3416 3849
3417 4940
3417 6422
3417 7523
3420 6305
3421 5477
3423 3550
3424 3906
3424 4165
3425 4524
3425 6258
3426 3809
3427 3604
3427 3800
3427 3845
3427 3847
3427 4135
3427 4154
3427 4187
3427 4219
3427 4252
3427 4315
3427 4434
3427 4437
3427 4469
3427 4639
3427 4747
3427 4938
3427 4946
3427 4953
3427 5141
3427 5152
3427 5260
3427 5539
3427 5560
3427 5598
3427 5715
3427 5877
3427 5886
3427 6040
3427 6046
3427 6063
3427 6202
3427 6268
3427 6600
3427 6615
3427 6879
3427 6891
3427 7026
3427 7047
3427 7259
3427 7352
3427 7356
3427 7475
3427 7578
3428 3543
3428 7426
3429 5026
3430 3794
3430 3847
3430 4878
3430 5008
3430 6611
3430 6654
3431 5294
3432 3790
3432 3809
3433 5227
3433 6928
3434 4461
3435 3525
3435 3621
3435 3629
3435 3809
3435 3976
3435 7557
3436 3737
3436 6416
3437 4438
3437 4800
3437 5772
3438 7505
3439 6495
3439 6542
3440 3809
3441 5463
3442 4495
3445 3819
3445 4319
3445 6352
3446 3809
3447 3943
3447 5462
3447 6022
3447 6870
3448 6818
3449 5274
3450 3706
3450 6262
3452 6560
3453 3488
3453 3512
3453 3741
3453 3823
3453 4283
3453 4401
3453 5183
3453 5463
3453 5958
3453 7205
3453 7510
3454 4782
3454 5784
3454 6404
3454 7042
3454 7096
3454 7299
3454 7446
3455 4926
3456 3613
3456 6550
3458 3484
3458 4217
3458 4279
3458 4733
3458 5715
3458 6005
3458 6546
3458 6891
3458 7223
3460 5876
3461 7496
3462 7326
3465 7514
3466 3607
3466 5592
3466 6377
3467 7571
3468 3809
3468 4591
3469 3733
3469 3807
3469 3871
3469 4212
3469 4341
3469 4519
3469 4632
3469 5042
3469 5274
3469 5295
3469 5327
3469 5331
3469 5414
3469 5624
3469 5938
3469 6180
3469 6258
3469 6384
3469 6967
3469 7088
3469 7193
3469 7231
3469 7243
3469 7284
3469 7408
3470 3809
3470 5264
3470 5464
3470 5798
3472 4282
3472 4842
3472 5866
3472 5967
3475 5386
3476 3809
3476 5065
3477 3544
3477 6552
3478 3621
3478 4701
3479 3971
3479 6476
3480 4437
3480 5792
3480 6320
3480 7575
3481 5230
3481 7485
3482 5162
3482 6442
3483 3810
3483 4305
3484 3612
3484 3810
3484 3964
3484 3976
3484 4015
3484 4064
3484 4272
3484 4362
3484 4922
3484 5679
3484 5787
3484 5913
3484 6580
3484 6693
3484 6868
3484 7426
3485 3809
3488 3707
3488 3960
3488 4014
3488 4153
3488 4253
3488 4268
3488 4354
3488 6258
3488 6282
3488 6438
3488 6729
3488 7205
3489 5999
3491 3906
3491 4198
3491 4786
3491 4859
3491 4942
3491 5507
3491 6714
3491 7069
3492 3809
3493 3809
3494 3583
3494 4133
3494 7335
3495 3812
3495 5140
3495 5331
3495 7293
3496 7032
3496 7097
3500 3981
3500 6059
3500 6703
3501 7078
3502 3525
3502 3809
3502 3906
3502 4224
3502 5347
3503 3918
3503 4891
3503 6026
3503 6751
3504 3809
3505 4149
3505 6426
3505 7316
3507 5388
3508 4765
3508 5585
3509 3971
3509 6680
3511 6312
3514 4279
3514 4358
3514 4787
3514 5446
3514 5864
3514 6425
3514 7403
3515 3809
3516 4200
3516 7056
3517 3809
3518 3809
3519 5500
3519 5772
3519 6784
3519 7074
3520 7263
3521 4019
3522 3809
3522 5335
3522 6077
3525 3809
3525 4941
3525 5026
3525 5258
3525 5530
3525 5754
3526 4073
3526 4488
3526 4604
3526 5149
3526 5499
3526 6756
3527 5360
3528 3749
3528 4566
3529 3531
3529 3621
3529 4168
3529 4437
3529 5679
3529 5747
3529 5805
3529 6320
3529 6787
3529 7433
3530 3809
3530 4220
3530 5062
3530 6371
3531 3787
3531 3809
3531 4363
3531 5175
3531 5834
3531 6124
3531 6160
3531 7033
3531 7263
3532 7326
3532 7345
3533 3809
3533 6695
3534 5854
3535 7566
3537 5294
3538 3971
3538 6054
3539 5627
3539 5880
3540 5127
3540 5319
3542 6258
3543 3974
3543 4121
3543 4635
3543 5329
3543 5410
3543 5437
3543 5636
3543 6355
3543 6393
3543 6400
3543 6700
3543 6724
3544 3712
3544 3810
3544 3971
3544 4031
3544 4252
3544 4327
3544 4397
3544 4416
3544 4464
3544 4539
3544 4549
3544 4622
3544 5074
3544 5145
3544 5182
3544 5199
3544 5257
3544 5324
3544 5437
3544 5550
3544 5560
3544 5629
3544 5636
3544 5796
3544 6048
3544 6281
3544 6387
3544 6552
3544 6623
3544 6638
3544 6687
3544 6824
3544 7149
3544 7387
3545 3809
3547 3586
3547 5511
3547 5802
3547 7429
3548 3634
3548 4413
3548 5345
3549 3636
3550 3644
3550 3966
3550 4622
3550 4889
3550 5030
3550 5113
3550 5720
3550 5837
3550 6091
3550 7041
3550 7271
3550 7471
3550 7509
3551 6380
3553 4079
3553 4430
3553 5328
3553 7069
3554 4431
3554 6386
3555 3576
3555 3696
3555 3725
3555 4045
3555 4182
3555 4864
3555 4880
3555 4950
3555 5211
3556 3681
3556 4201
3556 6870
3556 6919
3556 7190
3557 3809
3557 5039
3557 5513
3557 6917
3557 7177
3558 3977
3558 5331
3559 4182
3559 6290
3559 7040
3560 3809
3560 5007
3560 7283
3561 3809
3562 3809
3562 4358
3563 4859
3564 3809
3564 6018
3565 3809
3566 6130
3567 4936
3568 3684
3568 3746
3568 3975
3568 5158
3568 6155
3569 3621
3569 4701
3569 6401
3571 6755
3572 4717
3572 5520
3572 6888
3573 6421
3574 6102
3574 6559
3575 4209
3576 4036
3576 4108
3576 5165
3576 5347
3577 4859
3577 5026
3578 4038
3578 7342
3579 6433
3581 3971
3581 4127
3581 4891
3581 5069
3581 6886
3581 7154
3581 7187
3582 3809
3583 4497
3583 4648
3584 5147
3586 3752
3586 6507
3586 7171
3586 7207
3587 6260
3587 7207
3588 3809
3588 6840
3589 4687
3589 5089
3589 5625
3592 3809
3592 3959
3592 4675
3592 5022
3592 5715
3596 4124
3596 7088
3597 3809
3599 4279
3599 6386
3599 6464
3600 4019
3600 4589
3600 5956
3600 6112
3600 6670
3601 5174
3601 6755
3601 7222
3602 3809
3602 4418
3603 4930
3603 5416
3603 7511
3604 3915
3604 4366
3604 4741
3604 4867
3604 5050
3604 5149
3604 5260
3604 5274
3604 5415
3604 5438
3604 5453
3604 5480
3604 5496
3604 5970
3604 6217
3604 6560
3604 6589
3604 6814
3604 6817
3604 6872
3604 7415
3604 7537
3606 3821
3606 3933
3607 3809
3607 5320
3607 5592
3607 6761
3608 3809
3608 5373
3608 6997
3609 4855
3609 5802
3610 3667
3610 3809
3611 5845
3612 3809
3612 4531
3613 3720
3613 4344
3613 4870
3613 5436
3613 5684
3613 5698
3613 5810
3613 5846
3613 5851
3613 6442
3613 6566
3614 6829
3615 5204
3615 5464
3615 6734
3616 5792
3617 3705
3617 3809
3617 7426
3618 3619
3618 3809
3619 3809
3619 4466
3620 3809
3621 3809
3621 3876
3621 4159
3621 4202
3621 4474
3621 4811
3621 5174
3621 5296
3621 5432
3621 5566
3621 6186
3621 6293
3621 6640
3621 6659
3622 5949
3623 4265
3625 3809
3625 6329
3625 7032
3626 4651
3626 5141
3628 3686
3628 3809
3628 5111
3628 7038
3629 3971
3630 4158
3631 3819
3631 7460
3634 3809
3634 4353
3634 4413
3634 4471
3634 4701
3637 3809
3638 3971
3639 3907
3639 4740
3639 5130
3639 6371
3639 6626
3640 3809
3641 3671
3641 6380
3643 7272
3644 3809
3645 5016
3645 7179
3646 5575
3647 3808
3647 4547
3647 4808
3647 4942
3647 5321
3647 6230
3647 6364
3647 6972
3647 7044
3647 7108
3647 7555
3648 4354
3650 3776
3650 4099
3651 4635
3651 6854
3652 3809
3654 7044
3655 6396
3656 3977
3656 5983
3656 6197
3657 3809
3657 5499
3657 5624
3658 5463
3659 3837
3659 3920
3659 4301
3659 6525
3659 6577
3660 3798
3661 4860
3662 7306
3663 4743
3664 6127
3665 4422
3665 4942
3665 6972
3666 5705
3666 7438
3669 5511
3670 7496
3671 3703
3671 3707
3671 4028
3671 4153
3671 4349
3671 4517
3671 6656
3671 6870
3671 7205
3672 6425
3673 3809
3673 5965
3674 5712
3675 3809
3676 6509
3677 3809
3677 4199
3677 6731
3677 7385
3678 4800
3678 5279
3679 5335
3680 3809
3680 4539
3680 5100
3680 6408
3680 6748
3681 3934
3681 4714
3681 5244
3681 5506
3681 5754
3681 6551
3681 6704
3681 7076
3681 7350
3681 7426
3681 7488
3681 7578
3682 3934
3682 4154
3682 4242
3682 4682
3682 7446
3683 3809
3684 3746
3684 3809
3684 4859
3684 5439
3684 6714
3685 4032
3685 4427
3685 4534
3685 5294
3685 7326
3686 3702
3686 3971
3686 4210
3686 4687
3686 4709
3686 6208
3686 6362
3687 4813
3687 5302
3687 5975
3687 6283
3689 3809
3689 5121
3690 3809
3690 5035
3690 6603
3691 4166
3691 4621
3692 3844
3692 4343
3692 5921
3692 6003
3692 6206
3692 6919
3692 7475
3693 3809
3694 4032
3694 5078
3694 5460
3695 5837
3696 3873
3696 4259
3696 4546
3696 5142
3696 5487
3696 5917
3696 5983
3696 6091
3696 6215
3696 6230
3696 6422
3696 6463
3696 7560
3697 4422
3697 4437
3697 6717
3697 7174
3697 7543
3698 4961
3698 5265
3698 5740
3699 4567
3700 6591
3701 4325
3701 5548
3701 5792
3701 5910
3701 6895
3701 7124
3701 7359
3702 3705
3702 3905
3702 3959
3702 4571
3702 4632
3702 4803
3702 4859
3702 5015
3702 5262
3702 5434
3702 6056
3702 6203
3702 6416
3702 6625
3702 6715
3702 6868
3702 6882
3702 7426
3702 7493
3705 4154
3705 4235
3705 4807
3705 6135
3705 6293
3705 6662
3706 4084
3706 4387
3706 4561
3706 5898
3706 6002
3706 7296
3707 5077
3707 5101
3708 6070
3708 7401
3709 4428
3709 6560
3709 6762
3710 3809
3710 5259
3711 3809
3711 3876
3711 4159
3711 4265
3711 4279
3711 4484
3711 4748
3711 5178
3711 6009
3711 6186
3711 6693
3711 6708
3711 7198
3711 7504
3711 7518
3712 3971
3712 5811
3712 7502
3713 3896
3713 3908
3713 3934
3713 4776
3713 4859
3713 5178
3713 6224
3713 6551
3713 6799
3714 3743
3714 3809
3714 5208
3714 7096
3714 7223
3715 3754
3716 7545
3717 3809
3718 3809
3718 5274
3720 6899
3722 4419
3724 4422
3726 3797
3726 4696
3726 4833
3726 5181
3727 6051
3728 3809
3730 3809
3730 4266
3730 5172
3730 5879
3730 7548
3731 6340
3731 7430
3732 5605
3733 3809
3733 5545
3735 5490
3735 7311
3737 4167
3737 4185
3737 4385
3737 4727
3737 4764
3737 4860
3737 4982
3737 4996
3737 5211
3737 5560
3737 5655
3737 5986
3737 6560
3737 6879
3737 7103
3737 7138
3737 7171
3737 7488
3737 7560
3737 7571
3738 3958
3738 5560
3739 4996
3741 7279
3742 4859
3743 3809
3743 4475
3743 6231
3744 4056
3744 4182
3745 3752
3745 4420
3745 4746
3745 5490
3746 7485
3747 5593
3747 6168
3748 3809
3748 3913
3750 4620
3752 4651
3752 5924
3752 6145
3752 6637
3753 6966
3755 3809
3756 3809
3756 6400
3756 6845
3756 7490
3757 4127
3757 5548
3757 5715
3757 7174
3757 7207
3757 7445
3759 3809
3759 7284
3760 4258
3760 4604
3760 4787
3760 4823
3760 5317
3760 6237
3760 7286
3760 7457
3761 7518
3762 4182
3766 6281
3766 6567
3767 3809
3767 4327
3767 5127
3768 6108
3769 4283
3769 5384
3771 7451
3772 3971
3772 5884
3772 6562
3772 7373
3773 5783
3774 5023
3775 3889
3775 4870
3775 5290
3775 5790
3775 5810
3775 5841
3775 6081
3776 3809
3776 6044
3777 5019
3777 5685
3777 6398
3778 4298
3778 5860
3778 7061
3779 3809
3779 5780
3780 5448
3780 6879
3781 4316
3781 5997
3781 6763
3782 5030
3782 6547
3784 4244
3785 3857
3785 3955
3785 4076
3785 4419
3785 5016
3785 5651
3785 5703
3785 6090
3785 6438
3786 4583
3787 3811
3787 3925
3787 4439
3787 5271
3787 5383
3787 5651
3787 5803
3787 5882
3787 5981
3787 6033
3787 6075
3787 6258
3787 6696
3787 7121
3788 7552
3790 3901
3790 6542
3791 5238
3792 3920
3792 4088
3794 6551
3794 7403
3795 6768
3796 5019
3797 7340
3798 5175
3798 6386
3798 7544
3799 3960
3799 4427
3799 6359
3800 4592
3800 5312
3800 5409
3800 5571
3800 5715
3800 7082
3801 6441
3801 6491
3801 6761
3802 3959
3802 4422
3802 7283
3802 7448
3803 4478
3803 7595
3804 6454
3805 3809
3806 5405
3806 6551
3808 6220
3808 6325
3809 3810
3809 3817
3809 3822
3809 3831
3809 3841
3809 3842
3809 3844
3809 3845
3809 3848
3809 3850
3809 3852
3809 3853
3809 3866
3809 3867
3809 3887
3809 3892
3809 3896
3809 3907
3809 3910
3809 3914
3809 3929
3809 3931
3809 3943
3809 3953
3809 3963
3809 3964
3809 3982
3809 3992
3809 3993
3809 4005
3809 4007
3809 4009
3809 4017
3809 4036
3809 4057
3809 4061
3809 4063
3809 4065
3809 4067
3809 4081
3809 4090
3809 4095
3809 4112
3809 4114
3809 4122
3809 4128
3809 4129
3809 4130
3809 4138
3809 4140
3809 4143
3809 4144
3809 4149
3809 4155
3809 4167
3809 4176
3809 4180
3809 4181
3809 4183
3809 4186
3809 4195
3809 4199
3809 4203
3809 4214
3809 4222
3809 4225
3809 4229
3809 4234
3809 4235
3809 4239
3809 4242
3809 4249
3809 4250
3809 4255
3809 4266
3809 4271
3809 4277
3809 4286
3809 4290
3809 4298
3809 4308
3809 4313
3809 4320
3809 4327
3809 4331
3809 4333
3809 4334
3809 4340
3809 4342
3809 4348
3809 4355
3809 4357
3809 4365
3809 4375
3809 4382
3809 4389
3809 4406
3809 4407
3809 4419
3809 4422
3809 4424
3809 4431
3809 4432
3809 4441
3809 4446
3809 4452
3809 4467
3809 4474
3809 4476
3809 4477
3809 4479
3809 4483
3809 4492
3809 4497
3809 4498
3809 4539
3809 4545
3809 4551
3809 4554
3809 4558
3809 4571
3809 4574
3809 4583
3809 4590
3809 4593
3809 4602
3809 4610
3809 4617
3809 4619
3809 4625
3809 4629
3809 4632
3809 4638
3809 4641
3809 4642
3809 4644
3809 4648
3809 4649
3809 4652
3809 4656
3809 4661
3809 4663
3809 4669
3809 4679
3809 4680
3809 4690
3809 4691
3809 4701
3809 4704
3809 4711
3809 4719
3809 4722
3809 4723
3809 4729
3809 4731
3809 4734
3809 4735
3809 4736
3809 4748
3809 4753
3809 4771
3809 4780
3809 4782
3809 4787
3809 4793
3809 4805
3809 4809
3809 4810
3809 4814
3809 4815
3809 4822
3809 4824
3809 4830
3809 4843
3809 4851
3809 4860
3809 4869
3809 4881
3809 4883
3809 4884
3809 4889
3809 4908
3809 4910
3809 4912
3809 4916
3809 4921
3809 4935
3809 4939
3809 4947
3809 4956
3809 4960
3809 4970
3809 4979
3809 4981
3809 4985
3809 4988
3809 4995
3809 4998
3809 4999
3809 5000
3809 5001
3809 5010
3809 5015
3809 5018
3809 5027
3809 5031
3809 5034
3809 5038
3809 5039
3809 5044
3809 5047
3809 5049
3809 5059
3809 5061
3809 5064
3809 5086
3809 5095
3809 5102
3809 5109
3809 5129
3809 5132
3809 5133
3809 5135
3809 5136
3809 5145
3809 5153
3809 5154
3809 5155
3809 5156
3809 5158
3809 5161
3809 5163
3809 5168
3809 5171
3809 5173
3809 5174
3809 5188
3809 5192
3809 5197
3809 5210
3809 5216
3809 5226
3809 5228
3809 5231
3809 5243
3809 5247
3809 5253
3809 5263
3809 5267
3809 5269
3809 5273
3809 5278
3809 5287
3809 5293
3809 5307
3809 5316
3809 5326
3809 5327
3809 5328
3809 5330
3809 5339
3809 5341
3809 5353
3809 5355
3809 5356
3809 5365
3809 5366
3809 5367
3809 5368
3809 5373
3809 5377
3809 5378
3809 5382
3809 5395
3809 5396
3809 5413
3809 5417
3809 5418
3809 5424
3809 5431
3809 5434
3809 5435
3809 5436
3809 5438
3809 5444
3809 5446
3809 5452
3809 5467
3809 5481
3809 5485
3809 5488
3809 5497
3809 5503
3809 5506
3809 5509
3809 5514
3809 5523
3809 5524
3809 5528
3809 5531
3809 5533
3809 5535
3809 5538
3809 5540
3809 5541
3809 5547
3809 5552
3809 5555
3809 5558
3809 5561
3809 5562
3809 5563
3809 5564
3809 5578
3809 5579
3809 5592
3809 5601
3809 5607
3809 5614
3809 5616
3809 5620
3809 5621
3809 5623
3809 5626
3809 5639
3809 5641
3809 5660
3809 5672
3809 5674
3809 5677
3809 5678
3809 5686
3809 5701
3809 5709
3809 5714
3809 5719
3809 5724
3809 5725
3809 5739
3809 5747
3809 5754
3809 5755
3809 5775
3809 5776
3809 5786
3809 5787
3809 5791
3809 5804
3809 5806
3809 5807
3809 5815
3809 5819
3809 5820
3809 5821
3809 5832
3809 5850
3809 5853
3809 5861
3809 5864
3809 5870
3809 5874
3809 5880
3809 5884
3809 5885
3809 5887
3809 5890
3809 5901
3809 5908
3809 5916
3809 5921
3809 5923
3809 5927
3809 5943
3809 5949
3809 5950
3809 5952
3809 5954
3809 5961
3809 5966
3809 5982
3809 5991
3809 5994
3809 6000
3809 6004
3809 6006
3809 6009
3809 6015
3809 6018
3809 6019
3809 6032
3809 6038
3809 6043
3809 6044
3809 6076
3809 6077
3809 6080
3809 6087
3809 6089
3809 6092
3809 6105
3809 6109
3809 6113
3809 6117
3809 6119
3809 6128
3809 6132
3809 6147
3809 6148
3809 6153
3809 6154
3809 6157
3809 6161
3809 6162
3809 6163
3809 6164
3809 6166
3809 6168
3809 6173
3809 6182
3809 6185
3809 6186
3809 6192
3809 6196
3809 6207
3809 6212
3809 6213
3809 6215
3809 6216
3809 6226
3809 6227
3809 6228
3809 6238
3809 6246
3809 6249
3809 6252
3809 6275
3809 6283
3809 6288
3809 6294
3809 6295
3809 6306
3809 6313
3809 6327
3809 6328
3809 6330
3809 6344
3809 6349
3809 6350
3809 6351
3809 6366
3809 6368
3809 6372
3809 6373
3809 6375
3809 6382
3809 6396
3809 6403
3809 6404
3809 6405
3809 6425
3809 6428
3809 6429
3809 6437
3809 6447
3809 6454
3809 6459
3809 6461
3809 6463
3809 6464
3809 6465
3809 6477
3809 6489
3809 6493
3809 6496
3809 6505
3809 6517
3809 6519
3809 6540
3809 6541
3809 6550
3809 6552
3809 6581
3809 6586
3809 6595
3809 6601
3809 6613
3809 6615
3809 6626
3809 6629
3809 6633
3809 6645
3809 6654
3809 6659
3809 6668
3809 6681
3809 6688
3809 6699
3809 6706
3809 6710
3809 6711
3809 6720
3809 6725
3809 6729
3809 6732
3809 6740
3809 6746
3809 6753
3809 6757
3809 6759
3809 6767
3809 6772
3809 6773
3809 6778
3809 6779
3809 6785
3809 6786
3809 6792
3809 6802
3809 6803
3809 6811
3809 6818
3809 6819
3809 6820
3809 6821
3809 6822
3809 6830
3809 6839
3809 6843
3809 6855
3809 6862
3809 6865
3809 6868
3809 6876
3809 6879
3809 6884
3809 6885
3809 6887
3809 6889
3809 6891
3809 6894
3809 6896
3809 6897
3809 6901
3809 6904
3809 6915
3809 6922
3809 6932
3809 6936
3809 6937
3809 6949
3809 6950
3809 6955
3809 6974
3809 6976
3809 6987
3809 6990
3809 6991
3809 6993
3809 7009
3809 7016
3809 7021
3809 7024
3809 7036
3809 7037
3809 7038
3809 7043
3809 7046
3809 7048
3809 7050
3809 7051
3809 7057
3809 7064
3809 7077
3809 7084
3809 7085
3809 7087
3809 7099
3809 7102
3809 7107
3809 7117
3809 7124
3809 7141
3809 7158
3809 7161
3809 7164
3809 7185
3809 7198
3809 7207
3809 7209
3809 7213
3809 7218
3809 7230
3809 7234
3809 7235
3809 7236
3809 7239
3809 7246
3809 7253
3809 7266
3809 7267
3809 7268
3809 7272
3809 7294
3809 7297
3809 7316
3809 7317
3809 7328
3809 7329
3809 7350
3809 7359
3809 7362
3809 7365
3809 7374
3809 7380
3809 7382
3809 7390
3809 7398
3809 7414
3809 7418
3809 7424
3809 7425
3809 7432
3809 7437
3809 7440
3809 7443
3809 7448
3809 7458
3809 7459
3809 7474
3809 7479
3809 7481
3809 7485
3809 7491
3809 7492
3809 7499
3809 7500
3809 7516
3809 7528
3809 7532
3809 7538
3809 7543
3809 7545
3809 7546
3809 7559
3809 7561
3809 7565
3809 7568
3809 7570
3809 7577
3809 7579
3809 7583
3809 7585
3809 7586
3809 7591
3809 7592
3809 7597
3810 4105
3810 4289
3810 4561
3810 5028
3810 5679
3810 6002
3810 6069
3810 6308
3810 6357
3810 6386
3811 5383
3812 4231
3812 5331
3812 6291
3812 6890
3812 7589
3813 4430
3813 4803
3813 5061
3813 5864
3814 3960
3814 5636
3814 5777
3814 6230
3814 6259
3814 6917
3814 6930
3816 5816
3817 3969
3818 4252
3818 5658
3818 5877
3818 6202
3818 7309
3819 4046
3819 4191
3819 4427
3819 4760
3819 5062
3819 5165
3819 6256
3819 7177
3820 5290
3820 6442
3820 7130
3822 4539
3822 6139
3823 4014
3823 4236
3823 4283
3823 5006
3823 5360
3823 5463
3823 5660
3823 5691
3823 6181
3823 6442
3823 6599
3824 5331
3825 5132
3826 3847
3826 5511
3829 4166
3830 5513
3830 5971
3830 6175
3830 6230
3832 5592
3833 4771
3834 6323
3834 6689
3835 6542
3835 6868
3836 4087
3836 5375
3837 5166
3837 5895
3838 5005
3839 6680
3839 7571
3841 5218
3842 4856
3842 5274
3842 6434
3842 7108
3843 4718
3844 4553
3845 6781
3846 5917
3847 3906
3847 3959
3847 4422
3847 4500
3847 4786
3847 4938
3847 5026
3847 5672
3847 5700
3847 5745
3847 5763
3847 6416
3847 6476
3847 6693
3847 6888
3847 7190
3847 7574
3848 4052
3848 5527
3849 4319
3849 4546
3849 6470
3849 6526
3851 4480
3854 5132
3855 7571
3857 4993
3857 6423
3859 6242
3860 7174
3860 7223
3861 7560
3862 4759
3862 5408
3862 5500
3862 6175
3864 7205
3869 4454
3869 7555
3871 5718
3871 5735
3872 4116
3874 4139
3874 6201
3874 7527
3875 5211
3877 3915
3878 4259
3879 6242
3880 7174
3881 4746
3881 4852
3881 5860
3882 4520
3883 5211
3884 7400
3886 6108
3887 4635
3887 6254
3888 6619
3891 6048
3891 7518
3892 6030
3893 4078
3893 5817
3893 7101
3893 7223
3893 7280
3895 4366
3895 4428
3895 4786
3895 5270
3895 5429
3895 5571
3895 6558
3895 7560
3896 4682
3896 5132
3896 6868
3897 4628
3899 4859
3899 6454
3899 6891
3899 7096
3899 7403
3901 4032
3901 4781
3901 5889
3901 7020
3901 7584
3902 5632
3904 5513
3905 4635
3905 4816
3905 5262
3905 6224
3905 6374
3905 6416
3905 6715
3905 7283
3905 7385
3906 3971
3906 3976
3906 4161
3906 4468
3906 4549
3906 4714
3906 4922
3906 5008
3906 5012
3906 5163
3906 5385
3906 5437
3906 5600
3906 5615
3906 5636
3906 5679
3906 5787
3906 6149
3906 6156
3906 6373
3906 6386
3906 6416
3906 6669
3906 6765
3906 7199
3906 7280
3906 7365
3906 7450
3907 6677
3908 4480
3908 4943
3908 4990
3908 5350
3908 5518
3908 5560
3908 5710
3908 5877
3908 6596
3908 6769
3908 7207
3910 5172
3910 5879
3910 7548
3911 4718
3911 7386
3912 4179
3913 5729
3913 5845
3913 6976
3914 3955
3914 6896
3914 6963
3915 5192
3915 6175
3915 6230
3916 4826
3916 6108
3916 7545
3917 5165
3918 5925
3918 5968
3918 6755
3918 7245
3921 4686
3921 6867
3922 4398
3922 4901
3922 4938
3922 4983
3922 6509
3923 4031
3923 4826
3923 5257
3923 5539
3923 5636
3923 6552
3923 6559
3923 6802
3923 7180
3923 7571
3924 4559
3924 5299
3924 7082
3925 5306
3925 6626
3925 7589
3926 4826
3926 5117
3926 7496
3928 7402
3929 4032
3930 6239
3930 6384
3930 7278
3931 5496
3933 3972
3933 6822
3933 7531
3934 3975
3934 3976
3934 4219
3934 4293
3934 4296
3934 4571
3934 4631
3934 5068
3934 5430
3934 5529
3934 6563
3934 6680
3934 6693
3934 6799
3934 7493
3935 4819
3935 5951
3936 4635
3936 5697
3936 6281
3936 6915
3937 4066
3937 4257
3937 5658
3938 5841
3938 5928
3938 6816
3939 4142
3939 5026
3939 5043
3939 5191
3939 5437
3939 5763
3939 5862
3939 6292
3939 7074
3939 7090
3940 7098
3943 7220
3944 7121
3944 7407
3944 7420
3945 4046
3946 3960
3947 6817
3949 5175
3950 3959
3952 3966
3952 6238
3954 5148
3954 5603
3954 6445
3955 4076
3955 4938
3956 6075
3956 6508
3956 6592
3956 6628
3957 7261
3959 3971
3959 4066
3959 4217
3959 4219
3959 4257
3959 4262
3959 4457
3959 4463
3959 4676
3959 5026
3959 5446
3959 5467
3959 5615
3959 5623
3959 5730
3959 5740
3959 5921
3959 6076
3959 6267
3959 6479
3959 6559
3959 6580
3959 6600
3959 6640
3959 6850
3959 6895
3959 6961
3959 7082
3959 7117
3959 7385
3959 7401
3960 4450
3960 5331
3960 5397
3960 5670
3960 5882
3960 6218
3960 6422
3960 6438
3960 6902
3960 7447
3960 7508
3961 5483
3962 5211
3962 7071
3964 3966
3964 4021
3964 4643
3964 5597
3964 5769
3964 7067
3965 5959
3965 7571
3966 4029
3966 4199
3966 4431
3966 4639
3966 4736
3966 5182
3966 5205
3966 5679
3966 5875
3966 6386
3966 6416
3966 6722
3966 7171
3966 7571
3968 7301
3969 4306
3969 6924
3969 7096
3969 7115
3971 3974
3971 4034
3971 4089
3971 4099
3971 4239
3971 4293
3971 4416
3971 4432
3971 4447
3971 4600
3971 4619
3971 4709
3971 4748
3971 4862
3971 4872
3971 5029
3971 5034
3971 5135
3971 5139
3971 5209
3971 5230
3971 5291
3971 5338
3971 5439
3971 5565
3971 5636
3971 5678
3971 5713
3971 5797
3971 5804
3971 5896
3971 5910
3971 5989
3971 6006
3971 6054
3971 6077
3971 6098
3971 6186
3971 6204
3971 6219
3971 6282
3971 6298
3971 6330
3971 6388
3971 6464
3971 6477
3971 6538
3971 6563
3971 6693
3971 6699
3971 6840
3971 6895
3971 6990
3971 7084
3971 7096
3971 7143
3971 7194
3971 7206
3971 7256
3971 7271
3971 7283
3971 7502
3971 7578
3973 5537
3974 4765
3974 5261
3974 5605
3974 6961
3974 7002
3974 7502
3975 4990
3975 6555
3975 6609
3975 7571
3976 4113
3976 4953
3976 4991
3976 5258
3976 5434
3976 5669
3976 5832
3976 6048
3976 6282
3976 6386
3976 6476
3976 7124
3976 7207
3976 7256
3976 7578
3977 5004
3977 5709
3978 4803
3978 6759
3978 6858
3978 7021
3978 7283
3978 7312
3979 4392
3980 4277
3980 5202
3980 5672
3980 5736
3980 6180
3983 4858
3984 5331
3984 5842
3985 4757
3987 6979
3988 4131
3988 4779
3988 6067
3989 5763
3990 5399
3991 6218
3992 5358
3994 4310
3994 5139
3994 6951
3995 4470
3995 4823
3995 5792
3995 7283
3998 7543
3999 5271
3999 6675
3999 6682
4000 4235
4001 4031
4002 5664
4003 5388
4006 6308
4010 5583
4010 5777
4011 5457
4011 7121
4012 5132
4013 4439
4014 4121
4014 4283
4014 4504
4014 4744
4014 5463
4014 5958
4014 6307
4014 6463
4014 7245
4015 4064
4015 6623
4015 6802
4015 7383
4016 6653
4016 6663
4016 7150
4019 4241
4019 5443
4019 7257
4020 6619
4021 4197
4021 6879
4022 4933
4022 6215
4022 7156
4022 7166
4022 7527
4024 6896
4026 4881
4027 4682
4027 6426
4027 6551
4028 7574
4029 4127
4029 4442
4029 5412
4029 5702
4029 7392
4029 7511
4030 4722
4030 7149
4031 4127
4031 4135
4031 4422
4031 4533
4031 4539
4031 4618
4031 4758
4031 4871
4031 4943
4031 5026
4031 5062
4031 5098
4031 5202
4031 5372
4031 5585
4031 5723
4031 5778
4031 5921
4031 6374
4031 6391
4031 6416
4031 6559
4031 6876
4032 5235
4032 5371
4032 5438
4032 6396
4032 6510
4032 6622
4032 6788
4032 6916
4033 5537
4034 4787
4034 7393
4035 6312
4036 5452
4036 6724
4037 5006
4037 5834
4037 7110
4037 7419
4038 4251
4038 4427
4038 6756
4039 4182
4039 4578
4040 4116
4041 7191
4042 5861
4042 6924
4042 7202
4043 5390
4043 6575
4043 6693
4044 4427
4045 4046
4045 5026
4045 5712
4045 6035
4045 6812
4046 4277
4046 4765
4046 5675
4046 5811
4046 6048
4046 6292
4047 6542
4047 7545
4048 4428
4048 5927
4048 6282
4048 6453
4049 4629
4050 5982
4051 5133
4051 7393
4052 4405
4053 4146
4053 4200
4053 4299
4053 5366
4053 5409
4053 5811
4053 5998
4053 6121
4053 6218
4053 6644
4053 7082
4053 7307
4053 7399
4055 4291
4055 6076
4055 6335
4055 6580
4056 4221
4058 4238
4059 4938
4059 5389
4059 6099
4059 7116
4059 7175
4062 5869
4063 5864
4063 7446
4064 5199
4064 5212
4064 6043
4064 7223
4065 4785
4066 4330
4066 6476
4068 6637
4068 6975
4072 5933
4073 4488
4073 5140
4073 5984
4074 7222
4075 5783
4075 6570
4075 6924
4075 6986
4076 5162
4076 5958
4076 5978
4076 6090
4076 6120
4077 5846
4077 6300
4078 4224
4078 4313
4078 4941
4078 5012
4078 5139
4078 6135
4078 6650
4078 6891
4078 7283
4078 7469
4079 4296
4079 4620
4079 4844
4079 5792
4079 6873
4079 6967
4081 5991
4082 4852
4082 5872
4083 6515
4084 4806
4085 6284
4085 6463
4085 7146
4086 4588
4086 5185
4086 5560
4086 6498
4086 6799
4086 7256
4088 4115
4088 4313
4088 5028
4088 5398
4088 5518
4089 5713
4089 6831
4090 5478
4091 5349
4092 6323
4093 6081
4093 6899
4093 7130
4094 4198
4095 7335
4096 4279
4096 6164
4096 6386
4097 4804
4097 5813
4097 6518
4098 6886
4098 7482
4099 4102
4099 4135
4099 4862
4099 6282
4101 5176
4103 6870
4106 5871
4107 5216
4107 6849
4107 7501
4109 6275
4109 7509
4114 4864
4114 4972
4115 6869
4116 5357
4117 6140
4118 5009
4119 5434
4121 4150
4121 4893
4121 5443
4121 6355
4123 6416
4124 4295
4124 4313
4124 4341
4124 4502
4124 5107
4124 5151
4124 5388
4124 5560
4124 5562
4124 5978
4124 6370
4124 6745
4124 7166
4124 7571
4125 4400
4125 5371
4125 5460
4125 7248
4126 5294
4127 4279
4127 4304
4127 4551
4127 4552
4127 4724
4127 4725
4127 4921
4127 5516
4127 5539
4127 5837
4127 5990
4127 6077
4127 6424
4127 6428
4127 6511
4127 6812
4127 7217
4127 7410
4127 7475
4129 6681
4130 5800
4131 4430
4131 4779
4135 4202
4135 4224
4135 4267
4135 4296
4135 4690
4135 4701
4135 4711
4135 5116
4135 5367
4135 5754
4135 5865
4135 5877
4135 6061
4135 6378
4135 6986
4135 7019
4135 7021
4135 7053
4135 7079
4135 7391
4135 7475
4136 6889
4136 7545
4137 6371
4138 4352
4139 5537
4140 6320
4140 7245
4142 5026
4142 7177
4143 4695
4144 5039
4144 5929
4144 6048
4145 5009
4146 4308
4146 4868
4146 4911
4146 4972
4146 5981
4146 6468
4146 6870
4146 7082
4146 7197
4147 6100
4147 6384
4148 4717
4148 6551
4148 7518
4149 5026
4149 6559
4149 7571
4153 5513
4153 6279
4154 5784
4154 6097
4154 6720
4154 6828
4154 7211
4154 7581
4157 6870
4157 6979
4158 5463
4159 6140
4160 5782
4161 4202
4161 4422
4161 4539
4161 5239
4161 5605
4161 6167
4163 6284
4165 4358
4166 4217
4166 4257
4166 4785
4166 5932
4166 6799
4166 7049
4167 4876
4167 5094
4167 6989
4168 4441
4168 5132
4168 5736
4168 6180
4169 6956
4170 5548
4170 7047
4172 5187
4172 6256
4172 6847
4173 5780
4173 6230
4175 6834
4175 6990
4176 4430
4176 6418
4178 4201
4178 4766
4178 6724
4180 4426
4182 4307
4182 4804
4182 6108
4182 6120
4182 6930
4184 6159
4185 5132
4185 5202
4185 6977
4187 4683
4187 6343
4187 6464
4187 7069
4187 7110
4189 4881
4190 4256
4191 4633
4191 5981
4192 6542
4192 7383
4193 4694
4194 5455
4194 6432
4197 7507
4198 4922
4199 4539
4199 5132
4199 6733
4199 6915
4199 7207
4200 5981
4200 6075
4201 4257
4201 4315
4201 5367
4201 6224
4201 6434
4201 6603
4201 7197
4201 7524
4201 7571
4202 5506
4202 5597
4202 6577
4203 6967
4204 6651
4204 7379
4205 7110
4206 6441
4206 7419
4209 6795
4211 7154
4213 5555
4213 5724
4215 4845
4217 4379
4217 4532
4217 5328
4217 6567
4217 7190
4218 6533
4219 4426
4219 5467
4220 6491
4220 7498
4221 4734
4221 6119
4221 6215
4221 6232
4221 6574
4221 6870
4222 5117
4222 6438
4222 6890
4223 4362
4225 5651
4225 6376
4225 6874
4226 5255
4228 6751
4229 4618
4232 5132
4232 6594
4235 6551
4235 6555
4235 6563
4235 6886
4236 7342
4237 5516
4238 4261
4238 5429
4238 6730
4239 4511
4239 6420
4241 7429
4243 6693
4244 6051
4245 4453
4248 5026
4251 4284
4251 4535
4251 6279
4251 6719
4251 7054
4252 5360
4252 6416
4252 6864
4252 6868
4252 7069
4253 4715
4253 4729
4253 7116
4254 4775
4254 6819
4255 7255
4255 7262
4256 6016
4256 6443
4257 4803
4257 5139
4257 5262
4257 6135
4257 6344
4257 6416
4257 6563
4257 6603
4257 6662
4257 7426
4258 5854
4258 6917
4259 5712
4259 6371
4260 4282
4261 5914
4261 7075
4262 6203
4265 6799
4266 4732
4266 5172
4266 5289
4266 5647
4267 4859
4267 5262
4267 5875
4267 6891
4269 7061
4270 5359
4271 5541
4271 7118
4271 7390
4272 5930
4272 6138
4272 6722
4272 7580
4275 4811
4276 4577
4276 4956
4276 5259
4276 5265
4276 7011
4278 4379
4278 4664
4278 4803
4278 5877
4279 4432
4279 4475
4279 4733
4279 5028
4279 5208
4279 5472
4279 5598
4279 5618
4279 6015
4279 6386
4279 7124
4279 7201
4279 7223
4279 7350
4279 7383
4279 7531
4280 5880
4281 4296
4281 5374
4281 6763
4281 7109
4282 5967
4283 5384
4284 4413
4285 4701
4285 4839
4287 5271
4287 6360
4289 5875
4289 7124
4292 5127
4292 7207
4293 4392
4293 5804
4293 6981
4293 7283
4293 7446
4294 4620
4295 4847
4295 7110
4296 4664
4296 5374
4296 5861
4296 6215
4296 6420
4296 6558
4296 6704
4296 6873
4296 7051
4296 7256
4296 7331
4296 7590
4298 4387
4298 6390
4298 6452
4299 6391
4303 5062
4304 5837
4308 4534
4308 5170
4308 6838
4309 5359
4309 7177
4310 4992
4310 5608
4310 5712
4310 5808
4310 5955
4310 6489
4310 6503
4310 6635
4310 6945
4311 5294
4311 7210
4312 6423
4313 4727
4313 6439
4314 4389
4314 6048
4314 6287
4315 5262
4315 6272
4316 7088
4317 4488
4317 5384
4317 6898
4318 5191
4319 4694
4319 5409
4319 6204
4321 5697
4321 6211
4322 6034
4323 6018
4324 4687
4324 6891
4325 7283
4326 4682
4327 5276
4327 5330
4327 5385
4327 5481
4327 5712
4327 6563
4327 6579
4327 6640
4327 6862
4327 6924
4328 4362
4328 5380
4328 6883
4329 7000
4329 7224
4332 5906
4333 4471
4333 4835
4333 5744
4333 7571
4334 5819
4337 4358
4337 5062
4337 5298
4337 5346
4337 5591
4337 6068
4337 6106
4337 6126
4337 6257
4337 6335
4337 6470
4337 6472
4337 6663
4337 6783
4337 6870
4337 7118
4337 7225
4337 7563
4339 4436
4340 4551
4340 6876
4343 5818
4343 6678
4343 7168
4343 7400
4345 4735
4345 5132
4345 5490
4346 5491
4347 4658
4350 6754
4350 7056
4353 4413
4354 4616
4354 5052
4354 5103
4354 6774
4354 7260
4355 4604
4355 5524
4355 5905
4355 6665
4355 7074
4357 7110
4358 6435
4358 6551
4359 7033
4360 5629
4360 6774
4362 5825
4362 5916
4362 6208
4362 6776
4365 5963
4367 6518
4370 4961
4370 5410
4370 6090
4370 6412
4370 6900
4370 6917
4372 6409
4372 6479
4373 5165
4376 6038
4376 6518
4377 4961
4377 6881
4379 6878
4380 5663
4382 5143
4382 6087
4382 6655
4383 5670
4383 5813
4383 5967
4384 5792
4384 7174
4386 4701
4386 5921
4387 4506
4387 6812
4388 6784
4391 4426
4391 7118
4396 5744
4396 6131
4397 5725
4397 7161
4398 5410
4398 6608
4399 5124
4399 5877
4400 5443
4401 4738
4401 4881
4401 5837
4402 5773
4402 6990
4403 7071
4404 7000
4407 5782
4408 5396
4408 6145
4408 6167
4409 5065
4409 7035
4410 5927
4411 5790
4411 5846
4411 5936
4411 7326
4412 5035
4413 4471
4413 4519
4413 4929
4413 6236
4414 6036
4416 4449
4416 4558
4416 5191
4416 5331
4416 5390
4416 5637
4416 5765
4416 5769
4416 6287
4416 6386
4416 6510
4416 6724
4416 6961
4419 5491
4421 4961
4421 5971
4422 4733
4422 5560
4422 5699
4422 6043
4422 6546
4422 6705
4422 6891
4422 7578
4423 4790
4425 5453
4426 4794
4426 4833
4426 4993
4426 5537
4426 5736
4426 5833
4426 6014
4426 6898
4426 7486
4426 7502
4427 5415
4427 5443
4427 5635
4427 6181
4427 6500
4427 6536
4427 6756
4428 5375
4428 5736
4428 7157
4429 4805
4429 4910
4429 5689
4429 5819
4430 4801
4430 5122
4430 5814
4430 6026
4430 6339
4430 6525
4430 7178
4431 4521
4431 4943
4431 5569
4431 6580
4431 6743
4431 7223
4431 7365
4432 4682
4433 5750
4433 6774
4433 7473
4435 7567
4436 5477
4437 4566
4437 6534
4437 6551
4439 7204
4439 7534
4441 5047
4441 6657
4444 5211
4444 7082
4445 5903
4447 6436
4449 4543
4449 5458
4449 6037
4449 6274
4450 5271
4451 4799
4451 6239
4452 5555
4452 6784
4452 7406
4453 5838
4453 7479
4455 4743
4455 6262
4458 7496
4459 6235
4460 5423
4461 4800
4461 6378
4461 7296
4463 4571
4463 7544
4463 7571
4465 6036
4466 5330
4468 4682
4468 6170
4468 7038
4468 7096
4470 6063
4470 7485
4471 7391
4473 5360
4473 5493
4473 5541
4473 6214
4473 6666
4473 6890
4473 7248
4473 7326
4474 4844
4474 5347
4474 6693
4474 6840
4474 7519
4475 5849
4475 6164
4475 6386
4475 6520
4475 6548
4475 6863
4480 4618
4480 6088
4480 6416
4480 6879
4485 5408
4485 6916
4486 5100
4486 5127
4487 5956
4488 4664
4488 5360
4488 5828
4488 7405
4488 7556
4489 6175
4489 7398
4490 7407
4491 6668
4492 5111
4492 6548
4492 6891
4495 5363
4495 6146
4495 7272
4496 4639
4496 6708
4497 7478
4500 5745
4500 6665
4501 4982
4501 7364
4503 6174
4503 6808
4506 5794
4508 4609
4508 4718
4508 5921
4510 5104
4510 5211
4512 4961
4512 5655
4512 6141
4512 6279
4513 6224
4515 4589
4515 5854
4515 5917
4515 6282
4515 6298
4515 6961
4516 7414
4517 4751
4517 5006
4517 5709
4517 6755
4517 6817
4517 7174
4517 7515
4518 5981
4518 6542
4519 6961
4520 7373
4521 6416
4521 6476
4524 5895
4524 6398
4526 5350
4528 4682
4528 7283
4529 6755
4530 6479
4531 4795
4532 6381
4533 5517
4533 5598
4533 6408
4533 7110
4534 5322
4534 5882
4535 4773
4536 6440
4536 6708
4537 4648
4539 4635
4539 5927
4539 6281
4539 6579
4539 6830
4539 6867
4542 4574
4546 6434
4546 6526
4547 6673
4547 7025
4549 5094
4551 5624
4551 6496
4552 5362
4553 6343
4553 7138
4555 6828
4556 6240
4557 5787
4557 5847
4557 6919
4557 7502
4558 5965
4562 6292
4566 6619
4567 6899
4568 4666
4568 5382
4568 5834
4568 5978
4568 5987
4568 6708
4568 6756
4568 7118
4568 7442
4571 4682
4571 5932
4571 7426
4571 7544
4572 7210
4573 5445
4575 5404
4578 4972
4578 5464
4578 5495
4578 5712
4578 6141
4578 7197
4580 5201
4580 5705
4580 6456
4580 7088
4580 7154
4582 5543
4582 6416
4583 6416
4585 5162
4585 6104
4586 7542
4591 7545
4592 5714
4592 7189
4592 7545
4594 6812
4596 6933
4598 5487
4599 7282
4601 5458
4603 6579
4603 7382
4604 4931
4604 6146
4604 7075
4606 5404
4607 4683
4607 5132
4607 5505
4607 6663
4607 7103
4607 7283
4607 7401
4608 6988
4609 5205
4609 5921
4609 6580
4609 7184
4610 6052
4610 6925
4611 4796
4611 5921
4611 6515
4611 6573
4611 6635
4611 6686
4611 7210
4612 5852
4612 7020
4614 6416
4614 7190
4615 4949
4616 5052
4616 7205
4618 5539
4618 5837
4618 6063
4620 4845
4620 5338
4620 6563
4620 6935
4620 7557
4622 4927
4622 5330
4622 7416
4624 4766
4624 4859
4624 5047
4624 5093
4624 5770
4624 6260
4624 7142
4626 7573
4627 4765
4627 6329
4628 5084
4629 6220
4630 7023
4632 4803
4632 5131
4632 5170
4632 5991
4632 6551
4632 7426
4633 4774
4633 5889
4633 6730
4633 7208
4634 7091
4635 5257
4635 6048
4635 7392
4636 5360
4637 5015
4637 5424
4637 6825
4637 7283
4638 4640
4638 4961
4638 5458
4638 6316
4638 7383
4639 6048
4641 6715
4641 7223
4643 7391
4645 5463
4646 4963
4646 5294
4646 5862
4646 6218
4647 7268
4648 5172
4648 7063
4649 5262
4650 5691
4651 5712
4652 5373
4654 5259
4655 4813
4657 6133
4658 6126
4658 6656
4658 7109
4660 6885
4660 7351
4661 7552
4663 5315
4664 6251
4664 6329
4667 5647
4668 6724
4670 7175
4671 5539
4672 5244
4672 5962
4672 6577
4675 5788
4677 6550
4677 7195
4680 7123
4682 4878
4682 5096
4682 5213
4682 5372
4682 5532
4682 5560
4682 6140
4682 6170
4682 6224
4682 6344
4682 6409
4682 6416
4682 6458
4682 6563
4682 6799
4682 6802
4682 7033
4682 7190
4683 4701
4684 7200
4684 7560
4685 4879
4687 5469
4687 6067
4687 6156
4687 6426
4687 7538
4688 7272
4689 5677
4692 6378
4692 6759
4692 7096
4692 7426
4693 7507
4694 4828
4694 7560
4696 7326
4698 7567
4699 5294
4701 5112
4701 5476
4701 6082
4701 6565
4702 4864
4702 4956
4702 7245
4703 5772
4703 6445
4705 6420
4705 6924
4706 5436
4706 6364
4706 7427
4707 5006
4708 4835
4708 7358
4708 7555
4710 6312
4711 6386
4711 6625
4712 6118
4712 6258
4715 5183
4715 6010
4716 6619
4716 7358
4716 7445
4717 5520
4718 4843
4718 4877
4718 4902
4718 4955
4718 6315
4718 6818
4718 6881
4718 6984
4718 7022
4720 4997
4720 6208
4720 7042
4721 6242
4721 7367
4721 7480
4722 5332
4722 7545
4723 5312
4725 4925
4725 5082
4725 5344
4725 6033
4725 7012
4725 7191
4726 6960
4727 6961
4728 7207
4731 6843
4731 6891
4733 6596
4734 7258
4736 4865
4736 5428
4736 7149
4737 6126
4737 6815
4738 5271
4738 5274
4738 5925
4738 6021
4738 6564
4738 6890
4740 5493
4742 5241
4742 6416
4746 4919
4746 5042
4746 5451
4746 5525
4746 6136
4746 6542
4746 6812
4746 7491
4748 5986
4749 7174
4750 4927
4750 7207
4752 7337
4754 5722
4755 7479
4756 5570
4757 5967
4757 7155
4758 5202
4760 5059
4760 7477
4763 5646
4763 7446
4766 4921
4767 6551
4767 7405
4769 6576
4769 7065
4772 5690
4772 5769
4772 6274
4772 6343
4772 7139
4773 5792
4776 6555
4777 6812
4777 7298
4779 4859
4781 4812
4781 4873
4781 6033
4781 6553
4781 6901
4781 7174
4781 7495
4782 6435
4782 6791
4782 7403
4782 7581
4784 5404
4785 6416
4785 6420
4785 6693
4785 7426
4786 4968
4786 5359
4786 5792
4786 6813
4790 5631
4790 7166
4793 6135
4796 6108
4796 6686
4796 6860
4796 7210
4799 4800
4799 6405
4799 7156
4800 5250
4800 5459
4800 6112
4800 7513
4801 5814
4801 6934
4802 5803
4803 5262
4803 5267
4803 5417
4803 5742
4803 6163
4803 6416
4803 6828
4803 6882
4808 6141
4808 6518
4808 6967
4808 7332
4809 5803
4809 6681
4809 6896
4809 6917
4811 5338
4813 6519
4814 7174
4815 7207
4817 6291
4818 5233
4820 6070
4822 4859
4822 6702
4822 7443
4824 6366
4824 7489
4826 5127
4826 5146
4826 5280
4826 5703
4826 5835
4826 6421
4826 6626
4826 6812
4826 6872
4827 6416
4828 5805
4828 6961
4833 6230
4833 6980
4835 5325
4835 5769
4835 6070
4836 6442
4837 5396
4839 5999
4841 5738
4842 7135
4842 7254
4844 5805
4845 4886
4845 5338
4845 5694
4845 6793
4849 5777
4850 5201
4850 5426
4850 7379
4851 5981
4852 5312
4852 6961
4852 7072
4852 7190
4852 7223
4852 7324
4853 4943
4854 5030
4856 6356
4857 6181
4857 7220
4858 7426
4859 4928
4859 4994
4859 5111
4859 5150
4859 5229
4859 5658
4859 5870
4859 6164
4859 6261
4859 6459
4859 6548
4859 6698
4859 6843
4859 6859
4859 7119
4859 7485
4859 7530
4860 5560
4861 7082
4862 5896
4863 6590
4864 5206
4864 5211
4864 5651
4864 6037
4864 6416
4864 6559
4864 6912
4864 7438
4865 5428
4866 6797
4870 5526
4870 5573
4870 5846
4870 6108
4870 6899
4870 7241
4871 7579
4874 5399
4877 6070
4877 7326
4878 5008
4878 6260
4878 6535
4878 6567
4878 6932
4878 7319
4879 6551
4879 6577
4881 5795
4881 6434
4881 7205
4881 7368
4882 7326
4883 5645
4885 7070
4886 5338
4886 6577
4886 7098
4888 6529
4891 5201
4891 5271
4891 6651
4893 5813
4893 5997
4893 6036
4893 7056
4894 6374
4894 6570
4895 5614
4895 7237
4896 7333
4897 6312
4900 6614
4903 5038
4904 5526
4904 6442
4905 6967
4905 7404
4906 6445
4909 5436
4910 5019
4910 7237
4912 5921
4912 7184
4913 7497
4917 5645
4918 6352
4919 5882
4919 7545
4922 5404
4922 5967
4922 5973
4922 6875
4922 7086
4923 5670
4924 5311
4926 5905
4927 5330
4927 6915
4927 6963
4927 7190
4928 7001
4929 6714
4929 7485
4930 6139
4931 6146
4931 6232
4933 5862
4934 5544
4938 5266
4938 5715
4938 6013
4938 6514
4939 5525
4939 5712
4939 5929
4939 6230
4939 6284
4939 6329
4939 6632
4939 7479
4939 7512
4940 7523
4941 6163
4941 7426
4942 6057
4942 7174
4943 5539
4943 5697
4944 4961
4944 5712
4944 5852
4946 5359
4947 5320
4947 5592
4947 6440
4948 7002
4948 7326
4950 5314
4950 6127
4950 7272
4951 6951
4951 7143
4953 6555
4953 6615
4953 7475
4955 5478
4955 7396
4956 6433
4956 6506
4956 6790
4956 7545
4957 5613
4959 6209
4959 6965
4960 6183
4960 7378
4960 7476
4961 5009
4961 6165
4961 6578
4961 7245
4961 7383
4961 7558
4964 7479
4965 5098
4966 7426
4968 5030
4972 5876
4972 6073
4972 6437
4974 5217
4974 6255
4974 7074
4978 7288
4980 5323
4980 7088
4985 5274
4985 7555
4986 5493
4986 7260
4988 5767
4990 6192
4996 5282
4996 5638
4998 5487
5003 5811
5005 6275
5005 7296
5006 5624
5006 5660
5006 6755
5006 7485
5007 5063
5007 5267
5008 5132
5008 5139
5008 6551
5008 7403
5008 7571
5009 5294
5009 5360
5009 5442
5009 7033
5011 6593
5011 7560
5012 5932
5013 6807
5013 6816
5014 6018
5014 7382
5015 5518
5015 6551
5016 6032
5016 6610
5016 6889
5016 7257
5016 7425
5017 5262
5018 5877
5019 5146
5019 5260
5019 5651
5019 6356
5019 6398
5019 6999
5021 5472
5022 7581
5024 5985
5025 5648
5025 5956
5025 7272
5026 5350
5026 5485
5026 5694
5026 6357
5026 6376
5026 6802
5026 6990
5026 7117
5028 5867
5030 5560
5030 5650
5030 6400
5030 6537
5030 7541
5032 6787
5033 6122
5033 6335
5035 6831
5038 5320
5038 6377
5039 5387
5039 5769
5039 6257
5039 7129
5039 7131
5040 5790
5041 6457
5041 7005
5042 7326
5046 6175
5047 5464
5047 6341
5048 5090
5051 5083
5051 5866
5053 7400
5054 5204
5056 5536
5056 6508
5056 6860
5056 6995
5057 6918
5059 6738
5060 5139
5060 6537
5062 6265
5062 6441
5062 6755
5065 6615
5066 6079
5067 5888
5067 6881
5068 6416
5068 6799
5068 7223
5068 7385
5069 5840
5071 5217
5072 5081
5074 6915
5077 5981
5079 5610
5080 7551
5085 5197
5087 5825
5088 6046
5089 5625
5089 7424
5090 5632
5090 7288
5091 5544
5091 5873
5091 6392
5091 6484
5091 6736
5092 6416
5094 6579
5098 6730
5100 5636
5101 5837
5101 6902
5101 7177
5103 7272
5104 7413
5105 5372
5107 5203
5107 5499
5107 6251
5107 7000
5107 7056
5107 7166
5107 7441
5110 5653
5111 6714
5111 7051
5114 5452
5116 5462
5116 5573
5116 5938
5116 6647
5116 7542
5117 6194
5118 6108
5123 5542
5124 5849
5125 6484
5125 6774
5125 7383
5126 6027
5127 6133
5127 6489
5127 7364
5127 7389
5128 5147
5132 5219
5132 5452
5132 6050
5132 6319
5132 6409
5132 6563
5132 6650
5132 6886
5132 7181
5132 7207
5134 5740
5135 6811
5136 5537
5139 5350
5139 6387
5139 6812
5139 7096
5139 7207
5141 5589
5142 5271
5142 5473
5142 6010
5142 6024
5142 6193
5144 5294
5145 6424
5146 7082
5147 5550
5147 5831
5147 6265
5148 6461
5148 6960
5149 5782
5149 6284
5151 5837
5151 5839
5155 5740
5157 5544
5157 7109
5157 7266
5157 7576
5158 6550
5159 6323
5160 7174
5162 5342
5162 5534
5162 6075
5162 6637
5162 6906
5162 7065
5163 5913
5163 7571
5164 7157
5165 5342
5165 5993
5165 6648
5165 6870
5168 5404
5169 6050
5171 5589
5171 5894
5171 7326
5172 5289
5172 6166
5172 6583
5172 7478
5175 5417
5175 5434
5175 5751
5175 6416
5175 6563
5175 6840
5175 7494
5175 7571
5175 7578
5176 6335
5176 7572
5178 5787
5178 5791
5178 6330
5178 6693
5178 7103
5178 7250
5178 7283
5178 7518
5179 5537
5182 7571
5183 5383
5183 6609
5183 7189
5183 7288
5184 6019
5185 6693
5185 7256
5185 7571
5186 5501
5186 7313
5188 5651
5188 5699
5189 5464
5189 7110
5191 5543
5191 6426
5192 6347
5193 5396
5193 5525
5193 6421
5195 5541
5198 7088
5200 6770
5200 7363
5202 5427
5202 5585
5202 6037
5202 6268
5202 7174
5202 7571
5203 6251
5204 6734
5204 7245
5207 7228
5208 6386
5209 7477
5211 5242
5211 5769
5211 6036
5211 6357
5215 6001
5216 6849
5216 7501
5217 5823
5217 7247
5219 5642
5219 6693
5219 7082
5219 7312
5221 5527
5221 7177
5222 6530
5223 6683
5224 7505
5226 6827
5230 5679
5230 5792
5230 6416
5230 7393
5230 7426
5231 5382
5231 6475
5235 5722
5238 6715
5238 7280
5243 6551
5247 5461
5253 6889
5255 6547
5257 5481
5257 5574
5257 5792
5257 6139
5257 6695
5257 7290
5258 6567
5260 5681
5260 6514
5260 6675
5260 6881
5260 7347
5262 5350
5262 5494
5262 5704
5262 5931
5262 6149
5262 6577
5262 6715
5262 7010
5262 7424
5263 5294
5263 5383
5265 6663
5267 6551
5267 6981
5268 6378
5268 7204
5271 5522
5271 5554
5271 5587
5271 5805
5271 5811
5271 6075
5271 6239
5271 6332
5271 6394
5271 6626
5271 6763
5271 6776
5271 6870
5271 6879
5271 7088
5271 7146
5271 7496
5271 7574
5272 5658
5272 7300
5274 5317
5274 6167
5275 6421
5277 5967
5287 6034
5289 5737
5294 5421
5294 5546
5294 5593
5294 6175
5294 6302
5294 6761
5294 6795
5294 6851
5296 5608
5298 7183
5299 5624
5299 7069
5301 7154
5303 7560
5304 5645
5305 5712
5308 6756
5309 6756
5310 5477
5311 6340
5311 6642
5312 6979
5313 6344
5314 6127
5317 5881
5317 6214
5317 6635
5318 6714
5319 6931
5319 7337
5321 7177
5323 6037
5327 6431
5328 7369
5330 6265
5330 6416
5330 6929
5330 7430
5331 5374
5331 5716
5331 5735
5331 5761
5331 5808
5331 6042
5331 6055
5331 6065
5331 6108
5331 6257
5331 6354
5331 6686
5331 6690
5331 6783
5331 6817
5331 7205
5332 7149
5335 5655
5335 6911
5337 5660
5338 7174
5338 7354
5340 7191
5341 6647
5342 6628
5342 6729
5343 7485
5347 5769
5347 5955
5347 7125
5347 7485
5349 5359
5349 5739
5349 6478
5349 6972
5350 6196
5350 6759
5351 7347
5352 5590
5352 6222
5357 5811
5358 6001
5360 5751
5360 6395
5360 7040
5360 7182
5360 7332
5360 7406
5363 7332
5363 7405
5363 7540
5364 7033
5365 7360
5371 6817
5372 5871
5372 6037
5372 6333
5374 5429
5375 5468
5375 6024
5375 6218
5375 6542
5376 5458
5380 6883
5382 5673
5383 5823
5383 6561
5383 6661
5383 6761
5384 5492
5384 5499
5384 7558
5388 6956
5389 5391
5389 5547
5389 5967
5390 6327
5390 6466
5391 5894
5391 6515
5392 5462
5392 7203
5393 6794
5394 6018
5394 6131
5395 5405
5395 6886
5396 5525
5396 6283
5396 6441
5396 7165
5398 7426
5401 6123
5404 5563
5404 6361
5404 6379
5408 6812
5409 5712
5410 5630
5410 5826
5410 6127
5410 7550
5411 5722
5412 6116
5413 6961
5414 6329
5414 7179
5415 5790
5417 6374
5417 6416
5419 7445
5420 7065
5421 5967
5421 6033
5421 6560
5421 6565
5422 6694
5423 5905
5423 6985
5424 7021
5426 6928
5429 6870
5430 7103
5430 7283
5434 6297
5434 7465
5436 5846
5436 6108
5437 7382
5439 5870
5440 5513
5442 7258
5443 6258
5444 6640
5445 5854
5445 6088
5445 6378
5445 7393
5445 7400
5446 5730
5446 6835
5447 6975
5448 5962
5452 5713
5452 5769
5453 5935
5455 6432
5456 6721
5458 6037
5458 6898
5458 7562
5459 5843
5462 5588
5462 5712
5462 7272
5462 7289
5463 6438
5463 6847
5463 6945
5464 7177
5465 7571
5467 6551
5470 5907
5470 7021
5471 6961
5472 7149
5472 7558
5477 6635
5477 6870
5477 7470
5478 7055
5478 7355
5481 6048
5483 5942
5484 5895
5485 6724
5485 7389
5486 6540
5486 7263
5488 5614
5488 6416
5489 6600
5489 6624
5489 6879
5489 7541
5490 5673
5490 7141
5491 5965
5491 7016
5493 7137
5494 6416
5495 7167
5496 7261
5498 6567
5499 6037
5499 7000
5499 7269
5500 6841
5500 7022
5506 5788
5506 6333
5510 6310
5511 5649
5511 6677
5511 7326
5514 6635
5514 7472
5516 6549
5516 7110
5518 7098
5518 7426
5519 7560
5521 6191
5525 5712
5525 5934
5525 6632
5525 7165
5526 6081
5528 6352
5531 5587
5532 6386
5537 6294
5537 6812
5540 6082
5541 6269
5541 7248
5543 6015
5543 6260
5544 5805
5548 6951
5550 6387
5554 6870
5555 5724
5556 6359
5557 6239
5560 5854
5560 5885
5560 5967
5560 6220
5560 6281
5560 6357
5560 6600
5560 6638
5560 6868
5560 6932
5560 7044
5560 7087
5560 7207
5560 7300
5560 7544
5565 6880
5566 5862
5568 6134
5569 6551
5570 7121
5571 5712
5571 6200
5571 6491
5571 6717
5572 6861
5573 6230
5576 6037
5580 7082
5581 6323
5582 6491
5583 6805
5584 6542
5587 7120
5588 6126
5590 6681
5590 6926
5592 6024
5592 6898
5595 6047
5595 6595
5596 6192
5596 7223
5598 5699
5598 6076
5598 6559
5598 6833
5598 7277
5598 7350
5600 7038
5603 6279
5605 5681
5605 5712
5605 6428
5606 7301
5608 6558
5610 6519
5611 5758
5612 7207
5616 7373
5617 6501
5619 6199
5622 5921
5623 6479
5623 6512
5624 5732
5624 5790
5624 6077
5624 7156
5625 6668
5625 6759
5625 6886
5629 5636
5629 7388
5631 5749
5631 7069
5631 7166
5633 6241
5634 7256
5634 7309
5636 6007
5636 6215
5636 6265
5636 6558
5636 6695
5636 7082
5636 7171
5636 7237
5636 7578
5643 7558
5645 6774
5649 6630
5649 7195
5651 6377
5651 6515
5651 6817
5651 6874
5651 6999
5651 7177
5651 7197
5651 7532
5653 7100
5653 7588
5655 5948
5656 6786
5657 6817
5658 5877
5658 6041
5658 6050
5658 6140
5658 6202
5658 6260
5658 6429
5658 6924
5659 6967
5661 6596
5662 7082
5663 7426
5664 5984
5664 7344
5664 7419
5665 6568
5666 5712
5667 5763
5670 7326
5671 6140
5673 5805
5673 6224
5673 6479
5673 6490
5673 6915
5673 6920
5673 7096
5673 7143
5679 5688
5679 5727
5679 5770
5679 5792
5679 6224
5679 6889
5679 7426
5679 7444
5680 6761
5681 6144
5681 6812
5682 6146
5683 6792
5684 5803
5684 6099
5684 6126
5684 6449
5684 6584
5684 6822
5684 7215
5684 7574
5685 5777
5685 6398
5685 7487
5688 7571
5689 6766
5689 7133
5690 6050
5690 7096
5691 6587
5692 6967
5693 6662
5695 6508
5697 6048
5697 6419
5697 7309
5697 7475
5697 7579
5699 5798
5699 6224
5699 6434
5699 6802
5699 6868
5699 7426
5699 7559
5700 7445
5702 7392
5706 6645
5706 7584
5708 6569
5708 7006
5711 7548
5712 5782
5712 5858
5712 6323
5712 6511
5712 6518
5712 7334
5713 6559
5714 5800
5715 5805
5715 5861
5718 7326
5719 7212
5720 5980
5721 6371
5722 5868
5722 6187
5722 6189
5722 6220
5722 6258
5722 6845
5722 6908
5722 7121
5722 7179
5722 7332
5725 6889
5726 7272
5728 5769
5728 5951
5731 6567
5732 6747
5732 7109
5732 7284
5732 7576
5733 7479
5736 5781
5736 6123
5736 7468
5738 6378
5738 6386
5738 6414
5738 6668
5740 6541
5740 6917
5743 6505
5743 7100
5744 6488
5746 7548
5748 6644
5749 7088
5749 7166
5750 5905
5750 5956
5752 6420
5752 7350
5754 7223
5760 6463
5762 7372
5763 6647
5763 7397
5763 7560
5764 6396
5765 5984
5766 6333
5766 6741
5767 6898
5769 5792
5769 5895
5769 6124
5769 6564
5769 6881
5769 7105
5769 7129
5769 7341
5771 6386
5771 6579
5772 5928
5772 6542
5775 7467
5777 6591
5777 6700
5777 6877
5779 6202
5783 6026
5783 6110
5783 6717
5784 6713
5784 6811
5784 7076
5784 7312
5787 5854
5787 5955
5788 5861
5788 6077
5788 6378
5788 7174
5789 7532
5790 6405
5790 7109
5790 7427
5791 6767
5792 5796
5792 6202
5792 6256
5792 7426
5792 7430
5792 7474
5793 5864
5793 7096
5796 7571
5797 7283
5798 6275
5801 6265
5801 6929
5803 6175
5803 6422
5803 6685
5803 7315
5805 6139
5805 6555
5805 6719
5805 7385
5805 7571
5808 7317
5810 6081
5810 6995
5811 5871
5811 6271
5811 6756
5811 6870
5811 7208
5811 7326
5811 7468
5813 5938
5813 5948
5813 6242
5813 6441
5813 6632
5813 6764
5813 6919
5813 7135
5814 6858
5817 6383
5818 6678
5819 6253
5820 6545
5820 7164
5824 6761
5827 6292
5827 6906
5830 6063
5831 6116
5832 6551
5833 7558
5834 6787
5834 6817
5834 6923
5834 7122
5834 7223
5834 7240
5834 7415
5834 7419
5834 7496
5834 7515
5836 6260
5837 5984
5837 6682
5837 7226
5837 7546
5838 6666
5838 7479
5840 5905
5840 7154
5847 7445
5847 7474
5848 6063
5848 7400
5850 6947
5851 7326
5853 6297
5854 5910
5854 6369
5855 6700
5857 7171
5858 6323
5859 6639
5860 6777
5861 6196
5861 6420
5861 6567
5861 6717
5861 7321
5861 7332
5862 6518
5862 6710
5862 6982
5862 7560
5863 7383
5864 6471
5864 6548
5864 6844
5867 6416
5869 6898
5870 6714
5871 5917
5871 5980
5871 6037
5871 6046
5871 6891
5871 6971
5873 5937
5874 6036
5875 6799
5875 6953
5875 7283
5875 7309
5876 6024
5876 6416
5876 7545
5877 6202
5877 7051
5877 7188
5877 7382
5877 7531
5878 6416
5878 6668
5878 7309
5878 7426
5882 6412
5882 6626
5882 6705
5882 7191
5882 7213
5882 7384
5882 7545
5883 6789
5884 6920
5884 7373
5884 7527
5891 7317
5892 6470
5893 6240
5893 7463
5894 6774
5895 6147
5895 6479
5895 7543
5896 7283
5900 6434
5902 5984
5902 7177
5904 6453
5905 6389
5905 7108
5909 6299
5913 6400
5913 6415
5913 6416
5914 6499
5914 6719
5914 7132
5921 6415
5921 6530
5921 6565
5921 6580
5921 6915
5921 6951
5921 7170
5921 7184
5921 7533
5922 6078
5922 6239
5922 6906
5924 6112
5924 6518
5924 6682
5924 7082
5925 7405
5925 7502
5927 6963
5927 7416
5928 6421
5928 7165
5929 6410
5929 6438
5929 6468
5931 7096
5932 6676
5932 6693
5932 7038
5933 6093
5933 6504
5933 7593
5934 6217
5934 7303
5935 6012
5935 6070
5937 5991
5937 6551
5937 7518
5939 6284
5942 6152
5948 7056
5950 6377
5955 6426
5956 7242
5962 6156
5962 6416
5964 6298
5965 6239
5965 6917
5965 7305
5965 7434
5967 7372
5967 7373
5971 6553
5972 6321
5977 6551
5978 7118
5981 6099
5981 7150
5981 7477
5983 7527
5984 5987
5984 7269
5986 7019
5987 7512
5990 6225
5992 7174
5992 7413
5997 6857
6001 6043
6001 6393
6006 7156
6010 6890
6011 6812
6012 6072
6012 6146
6015 6836
6015 7274
6017 6253
6019 6208
6022 6902
6024 6230
6024 6508
6024 7072
6027 7127
6028 7297
6029 7321
6031 6416
6031 6551
6031 7076
6031 7124
6032 6126
6032 7054
6034 6038
6034 6259
6035 6445
6035 7082
6036 6593
6036 7220
6036 7496
6037 6539
6037 6971
6038 6398
6039 7316
6040 6298
6040 7098
6043 6580
6043 6680
6043 7316
6043 7444
6043 7571
6050 6567
6050 6891
6050 7292
6051 6697
6055 6457
6057 6673
6057 6924
6060 6972
6061 6378
6061 7403
6062 6547
6063 6596
6063 7448
6070 6464
6070 6737
6070 7401
6071 7414
6072 6077
6075 6258
6075 6422
6075 7033
6076 6097
6076 6203
6076 6811
6077 6464
6077 6758
6078 7257
6079 6230
6081 6180
6081 6442
6083 7226
6085 6468
6085 6518
6085 7566
6086 6681
6087 6769
6087 6808
6087 6928
6087 7001
6090 6307
6090 6400
6090 7032
6090 7452
6091 6189
6091 6290
6091 6542
6091 6787
6094 6489
6095 6181
6096 6120
6098 6333
6098 6693
6099 6175
6099 6822
6099 7231
6104 6380
6104 6564
6104 6872
6104 7272
6107 6179
6108 6384
6108 6441
6108 6508
6108 6620
6108 6860
6108 7118
6108 7165
6108 7177
6109 6551
6111 6879
6112 7326
6114 6468
6115 7322
6116 7509
6117 7132
6118 6172
6118 6444
6120 6423
6121 6635
6123 6552
6123 7112
6125 7309
6126 7560
6127 7272
6131 6994
6133 6220
6133 7442
6134 6343
6134 7423
6135 6676
6136 7140
6137 6417
6140 6416
6140 6567
6140 6765
6141 7156
6145 6821
6146 6543
6150 7082
6154 7082
6162 6332
6162 6972
6162 7110
6167 6291
6167 7044
6169 6175
6170 6891
6175 6230
6175 7249
6178 6574
6178 7502
6180 6240
6181 7131
6181 7326
6181 7398
6181 7422
6184 7176
6186 6436
6188 7272
6189 6621
6190 6982
6190 7006
6201 7116
6202 6567
6202 7515
6203 6297
6204 6258
6206 7210
6208 6374
6208 6852
6208 6953
6208 7021
6210 6626
6211 6722
6215 7225
6219 6873
6220 7121
6220 7263
6221 7189
6224 6285
6224 6416
6224 6563
6224 6579
6224 6915
6224 6961
6224 7190
6224 7385
6226 7223
6227 6440
6230 6434
6230 6682
6230 6795
6230 7002
6230 7108
6230 7186
6230 7468
6230 7471
6234 7560
6235 7105
6235 7248
6241 7051
6242 7466
6243 7379
6246 7263
6250 6567
6256 6355
6256 7033
6258 6626
6258 6682
6258 7288
6260 6267
6260 6563
6260 6886
6260 6932
6260 7207
6262 6286
6262 7468
6263 6812
6264 7496
6265 6317
6265 6929
6266 6924
6268 7557
6274 6343
6277 7174
6278 6423
6279 6813
6279 6918
6281 7322
6282 6600
6282 6708
6282 7190
6284 6392
6284 6919
6285 7283
6287 6782
6287 7082
6289 6686
6290 6371
6290 7245
6291 7056
6292 7566
6294 7121
6297 6416
6299 6675
6300 6346
6302 6782
6304 6743
6305 6693
6307 7522
6308 6719
6308 7383
6318 6973
6318 7575
6319 6680
6320 7082
6323 6415
6323 6515
6323 6813
6323 7232
6329 7247
6330 6811
6333 6741
6333 6891
6335 7470
6335 7576
6336 7197
6338 6817
6339 6868
6341 7274
6341 7364
6342 6449
6343 6537
6343 6600
6343 7414
6344 6482
6344 6563
6344 6769
6346 6783
6352 6468
6352 6692
6352 7191
6354 6860
6355 6700
6355 7111
6356 7304
6356 7325
6359 6434
6359 7082
6359 7197
6359 7571
6362 6720
6364 6457
6364 7470
6371 7550
6372 7041
6374 6716
6376 6489
6377 6812
6378 7332
6378 7543
6381 6964
6384 7278
6386 6416
6386 6680
6386 7201
6386 7426
6386 7475
6392 7383
6395 6814
6396 7449
6397 7174
6398 7044
6398 7313
6398 7346
6398 7468
6400 6557
6400 7365
6401 7411
6404 6693
6405 6444
6407 6654
6408 6958
6409 6693
6409 7038
6410 7045
6411 6508
6411 7333
6415 6717
6415 6810
6416 6476
6416 6567
6416 6600
6416 6889
6416 7096
6416 7153
6416 7206
6416 7283
6416 7349
6416 7397
6416 7423
6416 7448
6416 7494
6416 7539
6416 7556
6420 7162
6421 7165
6422 6518
6422 6979
6423 6870
6423 7406
6423 7574
6424 7041
6426 6693
6426 6811
6426 7096
6426 7174
6426 7426
6433 7071
6436 7082
6438 6553
6449 7135
6450 7288
6451 6879
6458 7096
6458 7223
6462 7083
6462 7399
6463 6626
6463 6750
6463 7045
6464 6737
6464 7401
6466 6705
6467 7292
6468 7515
6470 7480
6471 7581
6473 7109
6475 6591
6476 7206
6476 7221
6479 7023
6480 7082
6487 6719
6490 7450
6493 6585
6495 7020
6496 6925
6496 7571
6503 7397
6508 7589
6510 6622
6510 6855
6515 7231
6518 6628
6518 6837
6518 7146
6518 7589
6521 6652
6525 7136
6528 7065
6530 7411
6535 7190
6542 7150
6542 7249
6546 7223
6546 7280
6549 7082
6550 6654
6550 6853
6550 7427
6551 6813
6551 7019
6551 7299
6552 6889
6555 6567
6555 6828
6555 7188
6555 7223
6556 7240
6558 6812
6559 7219
6560 6693
6560 6861
6562 7082
6563 6886
6563 7124
6563 7309
6567 6730
6567 7096
6567 7190
6567 7206
6567 7223
6569 7006
6570 7154
6572 7043
6577 7223
6581 6893
6583 7548
6585 7272
6587 7356
6593 7229
6600 6812
6600 7038
6600 7132
6600 7393
6600 7433
6600 7507
6600 7575
6602 7574
6603 6873
6603 7027
6603 7143
6603 7292
6603 7394
6607 6700
6614 6876
6614 7017
6616 7479
6618 6795
6619 7326
6621 6691
6621 7056
6621 7108
6628 7419
6628 7479
6632 7369
6632 7520
6635 7073
6635 7094
6635 7551
6640 6967
6646 6872
6647 7032
6659 7426
6660 7283
6663 6763
6663 6764
6663 7468
6667 6681
6667 6904
6667 7210
6675 7364
6679 6956
6680 7571
6687 7333
6690 6783
6692 7527
6693 7096
6693 7180
6693 7275
6694 6886
6699 7451
6700 6917
6700 7111
6701 6788
6703 6745
6705 7257
6705 7459
6711 6828
6712 7325
6713 7349
6714 6843
6714 7485
6718 7389
6723 6755
6723 6979
6727 7479
6730 6901
6737 7401
6749 7272
6751 6986
6755 7045
6755 7515
6756 7390
6757 7444
6759 6799
6759 6886
6760 6880
6774 6919
6774 7155
6774 7205
6774 7598
6776 6822
6784 7261
6787 7082
6791 7283
6791 7436
6796 7117
6799 6868
6799 7309
6801 7096
6803 6891
6805 7337
6807 7293
6811 7096
6811 7124
6811 7538
6812 6854
6812 6889
6812 6997
6812 7022
6812 7265
6812 7272
6812 7555
6813 7390
6814 7177
6815 7266
6822 7231
6823 7427
6824 7426
6824 7571
6826 6848
6826 6879
6827 7575
6839 7192
6840 7280
6854 7207
6855 6972
6856 7051
6868 7047
6868 7223
6868 7227
6868 7485
6870 7377
6870 7593
6874 6901
6874 7571
6875 7065
6879 6988
6879 6989
6879 7272
6879 7393
6879 7453
6879 7549
6879 7575
6881 7572
6882 6885
6882 7319
6886 7207
6888 7256
6889 7290
6890 7243
6891 7314
6891 7581
6898 7190
6900 6960
6902 7379
6902 7562
6903 7430
6904 7122
6910 7326
6917 7087
6917 7118
6917 7425
6919 7067
6919 7425
6919 7571
6923 7121
6923 7233
6924 7299
6924 7326
6929 7059
6931 7337
6932 7426
6938 6979
6941 7498
6946 7288
6946 7326
6953 7574
6956 6982
6959 7411
6961 7090
6965 7293
6967 7082
6968 7426
6975 7257
6975 7377
6976 7500
6979 7270
6979 7353
6979 7599
6986 7154
6987 7152
6991 7038
6997 7272
6998 7220
7002 7263
7002 7306
7003 7562
7004 7260
7009 7157
7014 7444
7021 7211
7032 7255
7032 7310
7033 7056
7035 7426
7039 7445
7040 7056
7041 7217
7044 7056
7044 7146
7044 7555
7049 7445
7049 7571
7051 7430
7056 7205
7064 7444
7067 7190
7069 7583
7070 7238
7072 7357
7072 7468
7075 7122
7075 7542
7082 7189
7082 7334
7082 7372
7082 7383
7082 7527
7082 7551
7084 7103
7088 7092
7088 7207
7088 7560
7089 7405
7095 7217
7096 7115
7096 7283
7096 7514
7101 7190
7101 7493
7112 7337
7124 7426
7129 7174
7130 7461
7134 7326
7146 7205
7148 7299
7161 7458
7164 7428
7165 7318
7174 7281
7179 7326
7183 7423
7189 7542
7190 7283
7190 7390
7190 7426
7205 7411
7207 7316
7211 7283
7215 7374
7218 7321
7223 7311
7223 7493
7238 7563
7245 7272
7256 7309
7260 7515
7263 7306
7263 7477
7272 7516
7275 7426
7280 7557
7283 7309
7283 7536
7284 7423
7286 7479
7290 7495
7292 7578
7295 7504
7306 7477
7309 7426
7326 7381
7326 7464
7327 7515
7332 7426
7336 7497
7373 7404
7377 7560
7401 7406
7402 7513
7404 7574
7405 7556
7409 7527
7411 7516
7425 7560
7426 7432
7426 7571
7431 7467
7435 7527
7447 7489
7452 7479
7477 7560
7509 7532
7518 7578
7556 7590
