0 1
0 15
0 16
0 23
0 59
0 71
0 87
0 91
0 92
0 102
0 104
0 111
0 135
0 142
0 148
0 153
0 203
0 206
0 221
0 225
0 228
0 231
0 235
0 260
0 269
0 274
0 286
0 310
0 316
0 323
0 333
0 372
0 383
0 384
0 387
0 398
0 405
0 407
0 409
0 438
0 457
0 509
0 537
0 554
0 561
0 562
0 574
0 579
0 605
0 626
0 644
0 649
0 678
0 696
0 705
0 708
0 717
0 741
0 759
0 780
0 792
0 796
0 805
0 806
0 848
0 850
0 852
0 863
0 866
0 888
0 891
0 893
0 903
1 15
1 18
1 87
1 90
1 121
1 146
1 193
1 203
1 221
1 235
1 242
1 274
1 283
1 289
1 307
1 323
1 327
1 378
1 384
1 415
1 418
1 452
1 528
1 573
1 574
1 579
1 598
1 601
1 613
1 704
1 757
1 803
1 805
1 829
1 848
1 865
1 869
1 897
1 956
1 957
2 678
3 4
3 20
3 209
3 270
3 591
3 800
3 930
4 9
4 46
4 77
4 82
4 121
4 174
4 241
4 337
4 366
4 427
4 433
4 466
4 520
4 524
4 526
4 534
4 548
4 568
4 575
4 709
4 759
4 762
4 821
4 878
4 895
4 913
5 63
5 203
5 414
5 423
5 560
5 794
5 805
5 943
6 33
6 60
6 118
6 170
6 173
6 220
6 260
6 366
6 372
6 415
6 466
6 471
6 489
6 544
6 568
6 573
6 583
6 678
6 750
6 770
6 796
6 827
6 874
6 888
6 889
7 60
7 102
7 115
7 131
7 152
7 261
7 338
7 407
7 409
7 600
7 795
7 832
7 851
8 18
8 55
8 85
8 133
8 149
8 159
8 160
8 203
8 259
8 272
8 292
8 301
8 426
8 430
8 439
8 487
8 494
8 520
8 556
8 561
8 577
8 580
8 581
8 596
8 626
8 706
8 722
8 737
8 782
8 784
8 789
8 867
8 876
8 879
8 894
8 905
8 958
9 15
9 18
9 29
9 53
9 63
9 72
9 80
9 84
9 148
9 153
9 159
9 161
9 183
9 213
9 221
9 243
9 264
9 274
9 307
9 311
9 333
9 347
9 370
9 372
9 392
9 418
9 454
9 470
9 488
9 524
9 528
9 554
9 569
9 573
9 578
9 606
9 632
9 658
9 668
9 678
9 698
9 746
9 747
9 757
9 772
9 812
9 859
9 873
9 877
9 944
9 947
9 948
9 953
10 20
10 37
10 43
10 109
10 371
10 372
10 458
10 466
10 477
10 498
10 531
10 575
10 607
10 625
10 709
10 724
10 725
10 726
10 821
10 827
10 841
10 845
10 922
10 924
10 951
11 177
11 299
11 562
12 160
12 248
12 424
12 442
12 446
12 573
12 656
12 658
12 745
12 809
12 844
13 865
13 909
14 248
14 314
14 383
14 561
14 705
14 743
14 780
14 796
14 961
15 23
15 63
15 149
15 203
15 231
15 274
15 286
15 323
15 325
15 327
15 336
15 365
15 372
15 415
15 554
15 560
15 573
15 574
15 579
15 626
15 643
15 698
15 757
15 794
15 803
15 812
15 829
15 836
15 846
15 848
15 865
15 872
15 957
16 24
16 71
16 144
16 145
16 153
16 183
16 221
16 229
16 243
16 250
16 264
16 274
16 290
16 327
16 380
16 395
16 402
16 403
16 412
16 455
16 500
16 537
16 574
16 578
16 632
16 651
16 690
16 721
16 730
16 741
16 760
16 804
16 807
16 824
16 851
16 911
16 923
16 939
17 44
17 54
17 60
17 112
17 141
17 146
17 185
17 195
17 258
17 275
17 281
17 306
17 409
17 421
17 435
17 492
17 496
17 529
17 619
17 631
17 695
17 702
17 707
17 791
17 797
17 811
17 863
17 872
17 888
18 47
18 63
18 76
18 95
18 148
18 171
18 185
18 229
18 231
18 261
18 267
18 274
18 287
18 307
18 308
18 310
18 314
18 327
18 330
18 338
18 342
18 399
18 403
18 409
18 412
18 423
18 438
18 451
18 479
18 525
18 539
18 554
18 562
18 571
18 626
18 631
18 684
18 691
18 696
18 702
18 705
18 711
18 730
18 738
18 753
18 796
18 805
18 840
18 850
18 855
18 872
18 881
18 905
18 937
18 942
18 943
18 957
18 958
19 43
19 157
19 546
19 575
19 621
19 899
19 923
20 57
20 207
20 369
20 625
20 800
20 845
20 930
21 100
21 112
21 162
21 213
21 245
21 383
21 428
21 447
21 490
21 497
21 644
21 708
21 722
21 732
21 746
21 831
21 868
21 872
22 89
22 128
22 292
22 298
22 535
22 615
22 707
22 860
22 883
23 203
23 307
23 323
23 626
24 71
24 97
24 102
24 148
24 149
24 153
24 159
24 183
24 213
24 215
24 229
24 243
24 247
24 264
24 274
24 331
24 352
24 372
24 455
24 578
24 632
24 645
24 678
24 690
24 696
24 711
24 730
24 807
24 824
24 865
24 887
24 888
24 904
24 918
24 923
25 102
25 203
25 216
25 235
25 301
25 316
25 342
25 376
25 405
25 529
25 585
25 717
25 737
25 888
25 892
25 961
26 631
26 654
26 758
27 43
27 82
27 161
27 204
27 450
27 531
27 575
27 583
27 632
27 726
27 821
27 837
27 845
27 907
27 930
28 48
28 405
28 561
28 639
28 888
29 34
29 51
29 97
29 120
29 182
29 202
29 205
29 227
29 237
29 244
29 259
29 260
29 272
29 307
29 318
29 353
29 378
29 414
29 416
29 418
29 422
29 425
29 429
29 443
29 454
29 455
29 482
29 509
29 517
29 523
29 525
29 541
29 554
29 579
29 601
29 628
29 645
29 713
29 746
29 747
29 757
29 761
29 772
29 774
29 804
29 853
29 859
29 875
29 907
29 954
29 957
29 959
30 142
30 156
30 181
30 236
30 385
30 469
30 591
30 615
30 648
30 708
30 759
30 851
30 873
30 925
30 926
30 949
31 34
31 39
31 56
31 198
31 244
31 287
31 322
31 327
31 438
31 442
31 560
31 643
31 804
31 846
31 897
32 45
33 43
33 56
33 99
33 115
33 118
33 220
33 245
33 251
33 366
33 372
33 466
33 489
33 531
33 575
33 607
33 620
33 709
33 770
33 949
34 63
34 205
34 228
34 229
34 241
34 259
34 292
34 325
34 443
34 489
34 525
34 531
34 609
34 626
34 678
34 743
34 804
34 869
34 907
34 932
34 954
35 75
35 238
35 264
35 267
35 308
35 397
35 482
35 488
35 515
35 903
35 959
36 300
36 678
37 101
37 137
37 251
37 427
37 541
37 544
37 632
37 779
37 841
37 888
37 889
38 47
38 73
38 98
38 133
38 135
38 159
38 203
38 205
38 235
38 255
38 273
38 274
38 287
38 314
38 325
38 368
38 409
38 425
38 487
38 541
38 561
38 609
38 645
38 646
38 650
38 678
38 689
38 717
38 737
38 773
38 810
38 855
38 872
38 957
39 58
39 75
39 198
39 209
39 238
39 244
39 283
39 292
39 294
39 378
39 413
39 438
39 455
39 470
39 507
39 630
39 804
39 856
39 859
39 872
39 928
40 75
40 179
40 194
40 214
40 270
40 548
40 671
40 682
40 951
41 102
42 783
43 65
43 82
43 137
43 140
43 162
43 170
43 184
43 224
43 245
43 251
43 252
43 291
43 318
43 336
43 337
43 412
43 420
43 450
43 456
43 462
43 526
43 575
43 583
43 724
43 725
43 732
43 742
43 749
43 754
43 758
43 769
43 770
43 779
43 845
43 945
44 49
44 102
44 125
44 154
44 156
44 225
44 230
44 235
44 255
44 258
44 264
44 275
44 298
44 306
44 314
44 339
44 409
44 460
44 525
44 586
44 631
44 667
44 678
44 711
44 728
44 759
44 791
44 807
44 820
44 831
44 862
44 894
44 958
45 76
45 78
45 102
45 154
45 193
45 200
45 248
45 250
45 261
45 314
45 320
45 373
45 447
45 460
45 529
45 655
45 667
45 715
45 743
45 760
45 780
45 791
45 901
45 961
46 58
46 95
46 100
46 138
46 146
46 165
46 175
46 193
46 203
46 226
46 229
46 325
46 410
46 428
46 470
46 473
46 475
46 541
46 557
46 560
46 617
46 644
46 650
46 741
46 759
46 791
46 805
46 836
46 867
46 914
46 957
47 74
47 127
47 130
47 136
47 145
47 163
47 200
47 231
47 247
47 255
47 259
47 269
47 300
47 314
47 381
47 395
47 419
47 431
47 468
47 474
47 480
47 487
47 529
47 530
47 533
47 557
47 561
47 570
47 589
47 599
47 603
47 614
47 616
47 623
47 632
47 645
47 655
47 678
47 681
47 690
47 714
47 718
47 721
47 737
47 738
47 768
47 835
47 862
47 867
47 888
47 893
47 912
47 936
48 112
48 127
48 135
48 159
48 175
48 260
48 269
48 298
48 314
48 375
48 555
48 561
48 594
48 619
48 676
48 687
48 712
48 728
48 733
48 820
48 832
48 873
49 94
49 189
49 190
49 200
49 215
49 231
49 284
49 352
49 359
49 460
49 630
49 631
49 665
49 718
49 791
49 888
50 552
50 727
50 754
50 869
50 916
51 52
51 71
51 72
51 131
51 145
51 146
51 157
51 162
51 175
51 197
51 204
51 207
51 213
51 228
51 229
51 233
51 240
51 245
51 254
51 263
51 292
51 298
51 307
51 327
51 328
51 350
51 360
51 397
51 399
51 402
51 406
51 418
51 422
51 431
51 457
51 463
51 475
51 488
51 494
51 500
51 525
51 538
51 554
51 561
51 562
51 645
51 658
51 664
51 680
51 687
51 689
51 708
51 712
51 732
51 741
51 745
51 746
51 747
51 750
51 754
51 769
51 774
51 793
51 794
51 795
51 804
51 807
51 812
51 823
51 832
51 836
51 855
51 868
51 872
51 888
51 899
51 907
51 915
51 916
51 928
51 939
52 102
52 149
52 229
52 255
52 287
52 303
52 406
52 412
52 442
52 480
52 501
52 617
52 649
52 756
52 863
52 872
52 875
52 949
53 153
53 161
53 162
53 213
53 228
53 328
53 372
53 402
53 406
53 412
53 415
53 423
53 475
53 494
53 538
53 578
53 654
53 804
54 70
54 98
54 102
54 185
54 195
54 225
54 235
54 258
54 285
54 310
54 314
54 460
54 501
54 515
54 594
54 636
54 680
54 703
54 760
54 840
54 875
54 894
54 912
55 131
55 142
55 146
55 154
55 160
55 165
55 259
55 277
55 310
55 314
55 435
55 487
55 488
55 520
55 586
55 591
55 600
55 615
55 709
55 784
55 832
55 836
55 851
55 859
55 921
55 949
55 958
56 74
56 80
56 118
56 138
56 159
56 165
56 167
56 230
56 231
56 245
56 283
56 300
56 311
56 312
56 416
56 428
56 466
56 470
56 520
56 521
56 525
56 645
56 646
56 649
56 668
56 670
56 700
56 708
56 710
56 745
56 747
56 759
56 788
56 792
56 810
56 869
56 874
56 879
56 888
56 891
56 921
56 926
56 940
56 949
56 952
57 620
57 635
58 74
58 110
58 138
58 140
58 141
58 143
58 144
58 159
58 165
58 193
58 202
58 205
58 228
58 231
58 245
58 300
58 311
58 312
58 324
58 327
58 342
58 372
58 387
58 428
58 435
58 473
58 495
58 560
58 609
58 616
58 617
58 631
58 655
58 668
58 678
58 687
58 700
58 711
58 747
58 792
58 807
58 855
58 871
58 879
58 885
58 887
58 891
58 940
58 956
59 74
59 102
59 111
59 126
59 181
59 191
59 203
59 316
59 342
59 361
59 387
59 398
59 407
59 428
59 483
59 521
59 557
59 592
59 649
59 669
59 700
59 708
59 717
59 747
59 787
59 801
59 805
59 850
59 863
59 937
59 939
59 952
60 101
60 102
60 145
60 177
60 198
60 205
60 210
60 213
60 229
60 251
60 252
60 255
60 264
60 282
60 290
60 292
60 307
60 347
60 361
60 378
60 380
60 404
60 406
60 455
60 457
60 465
60 475
60 478
60 507
60 525
60 541
60 561
60 569
60 573
60 593
60 601
60 645
60 650
60 651
60 684
60 699
60 715
60 779
60 780
60 791
60 792
60 794
60 831
60 888
60 897
60 933
61 678
62 87
62 153
62 161
62 198
62 215
62 219
62 237
62 240
62 363
62 454
62 457
62 549
62 557
62 579
62 688
62 753
62 804
62 805
62 807
62 829
62 844
62 853
62 878
62 956
63 71
63 90
63 97
63 102
63 125
63 144
63 149
63 153
63 154
63 180
63 183
63 187
63 198
63 205
63 209
63 216
63 219
63 228
63 244
63 254
63 267
63 274
63 292
63 308
63 322
63 327
63 347
63 350
63 402
63 404
63 407
63 423
63 432
63 454
63 455
63 463
63 475
63 481
63 482
63 507
63 525
63 549
63 554
63 562
63 601
63 634
63 643
63 708
63 743
63 793
63 794
63 811
63 829
63 830
63 856
63 859
63 875
63 914
63 915
63 939
63 942
63 943
64 145
64 159
64 269
64 437
64 479
64 487
64 616
64 703
64 865
64 885
64 894
64 928
64 929
64 934
65 170
65 181
65 213
65 234
65 248
65 291
65 411
65 450
65 829
65 882
66 107
66 130
66 131
66 135
66 146
66 150
66 245
66 277
66 301
66 322
66 338
66 376
66 392
66 474
66 539
66 556
66 561
66 585
66 612
66 715
66 720
66 741
66 761
66 801
66 870
66 872
66 888
66 902
66 958
67 172
67 200
67 263
67 265
67 295
67 306
67 310
67 314
67 320
67 461
67 570
67 603
67 606
67 718
67 753
68 348
68 753
69 111
69 339
69 368
69 530
69 623
69 678
69 711
69 728
69 738
70 102
70 125
70 156
70 203
70 275
70 281
70 290
70 301
70 306
70 314
70 320
70 342
70 435
70 459
70 460
70 492
70 516
70 530
70 561
70 585
70 602
70 643
70 644
70 655
70 684
70 707
70 766
70 774
70 791
70 872
71 81
71 84
71 104
71 127
71 144
71 145
71 153
71 171
71 183
71 187
71 205
71 219
71 221
71 229
71 237
71 301
71 307
71 323
71 333
71 376
71 380
71 392
71 422
71 429
71 454
71 488
71 493
71 500
71 524
71 549
71 554
71 578
71 598
71 632
71 645
71 659
71 678
71 696
71 710
71 715
71 736
71 747
71 757
71 772
71 773
71 804
71 807
71 812
71 829
71 848
71 873
71 923
71 944
71 953
72 131
72 162
72 197
72 198
72 213
72 229
72 245
72 324
72 328
72 347
72 412
72 418
72 455
72 488
72 500
72 503
72 538
72 541
72 650
72 687
72 708
72 709
72 725
72 745
72 812
72 823
72 829
72 836
72 869
72 907
72 939
72 958
73 310
73 316
73 368
73 398
73 451
73 614
73 711
73 733
73 737
73 740
73 760
73 798
73 840
74 131
74 145
74 146
74 154
74 162
74 171
74 193
74 202
74 213
74 254
74 255
74 259
74 310
74 338
74 372
74 387
74 418
74 455
74 487
74 493
74 504
74 561
74 573
74 577
74 592
74 668
74 680
74 687
74 709
74 745
74 746
74 769
74 780
74 789
74 823
74 887
75 267
75 283
75 294
75 410
75 433
75 515
75 584
75 591
75 814
75 841
75 876
75 959
76 127
76 131
76 133
76 176
76 187
76 228
76 232
76 249
76 258
76 263
76 269
76 283
76 292
76 301
76 375
76 383
76 399
76 433
76 459
76 480
76 561
76 611
76 615
76 665
76 670
76 687
76 708
76 739
76 748
76 752
76 852
76 857
76 872
76 894
76 905
76 921
76 936
77 103
77 173
77 364
77 415
77 489
77 531
77 568
77 621
77 633
77 750
77 827
77 828
77 922
78 108
78 274
78 281
78 322
78 339
78 372
78 440
78 473
78 623
78 645
78 666
78 678
78 715
78 717
78 721
78 730
78 779
78 807
78 808
78 810
78 847
78 888
79 186
79 196
79 450
79 486
79 499
79 661
79 770
79 804
80 231
80 311
80 312
80 429
80 554
80 700
80 759
80 807
80 879
80 887
80 928
80 948
81 144
81 153
81 159
81 161
81 163
81 183
81 213
81 219
81 245
81 372
81 450
81 538
81 565
81 573
81 661
81 689
81 747
81 769
81 794
81 872
81 887
82 174
82 427
82 534
82 635
82 759
82 821
82 845
83 136
83 175
83 189
83 352
83 441
83 760
83 776
83 785
83 840
84 146
84 171
84 183
84 205
84 215
84 221
84 233
84 248
84 310
84 316
84 336
84 372
84 376
84 406
84 457
84 502
84 573
84 678
84 696
84 717
84 755
84 812
84 957
85 107
85 116
85 150
85 673
85 902
86 89
86 154
86 327
86 342
86 492
86 496
86 522
86 585
86 615
86 631
86 641
86 721
86 722
86 728
86 768
86 789
86 808
86 859
86 961
87 94
87 102
87 108
87 129
87 153
87 155
87 161
87 171
87 183
87 190
87 213
87 215
87 231
87 235
87 237
87 278
87 287
87 328
87 363
87 412
87 451
87 454
87 455
87 475
87 494
87 500
87 514
87 551
87 579
87 626
87 627
87 666
87 680
87 688
87 689
87 698
87 753
87 804
87 807
87 844
87 848
87 876
87 878
87 888
87 915
87 956
88 125
88 136
88 275
88 298
88 324
88 381
88 654
88 678
88 748
88 785
88 885
88 891
88 905
89 102
89 133
89 172
89 203
89 235
89 263
89 292
89 298
89 306
89 320
89 460
89 474
89 490
89 492
89 582
89 585
89 611
89 612
89 615
89 641
89 667
89 702
89 703
89 717
89 753
89 785
89 795
89 872
89 912
89 921
89 937
90 148
90 183
90 231
90 274
90 404
90 551
90 626
90 696
90 741
90 756
90 792
90 805
90 836
90 876
91 102
91 235
91 497
91 501
91 644
91 759
91 863
92 148
92 274
92 310
92 357
92 376
92 398
92 589
92 639
92 717
92 738
92 888
93 522
93 714
93 759
93 760
93 791
93 802
93 831
94 101
94 104
94 148
94 153
94 206
94 215
94 316
94 352
94 359
94 551
94 678
94 696
94 718
94 737
94 740
94 751
94 753
94 841
94 888
94 948
95 102
95 235
95 276
95 351
95 372
95 577
95 596
95 662
95 744
95 751
95 757
95 791
95 937
95 940
95 946
96 531
96 608
96 725
96 742
96 800
97 120
97 190
97 219
97 221
97 227
97 229
97 289
97 292
97 323
97 327
97 328
97 365
97 392
97 397
97 422
97 429
97 433
97 455
97 489
97 500
97 528
97 554
97 560
97 578
97 601
97 628
97 634
97 645
97 655
97 757
97 761
97 804
97 836
97 837
97 853
97 897
97 914
97 919
97 939
97 948
98 102
98 105
98 111
98 146
98 163
98 202
98 235
98 258
98 283
98 292
98 410
98 417
98 419
98 435
98 549
98 562
98 565
98 584
98 591
98 644
98 666
98 668
98 684
98 692
98 700
98 719
98 751
98 791
98 850
98 856
98 915
98 934
98 940
99 114
99 259
99 267
99 344
99 488
99 597
99 709
99 756
99 836
100 102
100 110
100 131
100 133
100 203
100 213
100 233
100 237
100 247
100 263
100 308
100 330
100 338
100 344
100 353
100 354
100 399
100 418
100 433
100 447
100 473
100 511
100 521
100 555
100 560
100 574
100 580
100 585
100 638
100 647
100 654
100 680
100 684
100 708
100 746
100 759
100 769
100 780
100 787
100 793
100 804
100 822
100 823
100 829
100 832
100 872
100 907
100 934
100 949
100 954
101 137
101 173
101 251
101 282
101 336
101 372
101 382
101 408
101 682
101 704
101 779
101 796
101 841
101 911
102 105
102 111
102 125
102 127
102 135
102 144
102 154
102 156
102 158
102 159
102 160
102 161
102 168
102 172
102 187
102 190
102 191
102 195
102 203
102 209
102 222
102 228
102 230
102 236
102 254
102 255
102 263
102 265
102 276
102 284
102 285
102 290
102 300
102 301
102 310
102 311
102 320
102 321
102 327
102 342
102 351
102 368
102 387
102 388
102 399
102 401
102 415
102 428
102 435
102 437
102 442
102 447
102 459
102 473
102 495
102 497
102 501
102 504
102 509
102 516
102 517
102 520
102 525
102 529
102 530
102 542
102 551
102 560
102 565
102 570
102 571
102 577
102 581
102 582
102 585
102 588
102 596
102 605
102 606
102 610
102 611
102 616
102 632
102 636
102 638
102 643
102 644
102 645
102 649
102 662
102 675
102 680
102 681
102 684
102 685
102 692
102 693
102 717
102 729
102 743
102 759
102 766
102 784
102 790
102 791
102 792
102 805
102 811
102 844
102 853
102 855
102 860
102 863
102 865
102 866
102 870
102 872
102 883
102 888
102 891
102 900
102 917
102 921
102 925
102 940
102 946
102 950
102 956
103 124
103 157
103 177
103 178
103 192
103 207
103 239
103 329
103 393
103 415
103 420
103 453
103 456
103 526
103 531
103 583
103 605
103 625
103 742
103 749
103 750
103 764
103 830
103 906
103 907
103 913
103 922
104 153
104 155
104 189
104 191
104 200
104 215
104 221
104 227
104 274
104 286
104 327
104 328
104 342
104 370
104 376
104 380
104 398
104 520
104 623
104 629
104 645
104 715
104 717
104 730
104 738
104 755
104 804
104 911
105 265
105 461
105 610
105 644
105 678
105 753
105 844
105 956
106 185
106 303
106 362
106 373
106 631
106 636
106 647
106 677
106 825
106 892
106 909
107 327
107 460
107 556
107 585
107 615
107 902
108 155
108 190
108 240
108 278
108 289
108 347
108 365
108 415
108 472
108 481
108 485
108 507
108 514
108 528
108 540
108 568
108 626
108 629
108 731
108 735
108 740
109 114
109 137
109 140
109 151
109 204
109 251
109 266
109 283
109 309
109 319
109 336
109 371
109 520
109 540
109 575
109 691
109 742
109 846
109 898
109 933
109 957
110 199
110 228
110 283
110 294
110 447
110 527
110 557
110 600
110 678
111 129
111 138
111 223
111 263
111 265
111 290
111 292
111 298
111 409
111 443
111 567
111 595
111 630
111 645
111 666
111 688
111 694
111 791
111 832
111 844
111 888
111 917
112 142
112 160
112 195
112 202
112 203
112 253
112 285
112 290
112 292
112 298
112 320
112 342
112 349
112 381
112 419
112 435
112 467
112 528
112 530
112 584
112 603
112 631
112 670
112 675
112 684
112 685
112 703
112 719
112 722
112 728
112 752
112 784
112 839
112 867
112 936
113 205
113 248
113 267
113 336
113 372
113 404
113 406
113 425
113 465
113 470
113 473
113 579
113 650
113 678
113 690
113 794
113 805
113 807
113 817
113 859
113 908
113 957
114 149
114 167
114 193
114 237
114 238
114 267
114 328
114 406
114 414
114 433
114 438
114 500
114 524
114 597
114 626
114 654
114 709
114 713
114 756
114 837
114 863
115 118
115 230
115 366
115 410
115 466
115 470
115 503
115 520
115 527
115 535
115 549
115 557
115 607
115 644
115 645
115 788
115 837
115 865
115 891
115 926
115 949
116 150
116 580
116 720
117 120
117 135
117 138
117 146
117 162
117 190
117 226
117 228
117 249
117 256
117 296
117 308
117 320
117 328
117 386
117 433
117 434
117 536
117 560
117 613
117 626
117 649
117 668
117 682
117 718
117 745
117 751
117 774
117 781
117 855
117 887
117 891
117 907
117 927
117 961
118 170
118 220
118 256
118 531
118 534
118 575
118 607
118 742
118 770
118 821
119 181
119 213
119 224
119 248
119 450
119 456
119 829
120 146
120 147
120 182
120 183
120 202
120 227
120 237
120 245
120 256
120 267
120 286
120 309
120 312
120 372
120 417
120 524
120 561
120 579
120 609
120 613
120 640
120 643
120 655
120 745
120 761
120 774
120 804
120 835
120 853
120 954
121 829
122 429
122 747
123 156
123 287
123 313
123 491
123 678
123 835
124 251
124 453
124 455
124 562
124 764
124 951
125 141
125 263
125 290
125 308
125 310
125 374
125 381
125 419
125 435
125 459
125 561
125 582
125 584
125 591
125 603
125 655
125 666
125 717
125 728
125 743
125 791
125 862
125 864
125 888
125 891
125 905
125 956
126 131
126 162
126 163
126 197
126 213
126 242
126 245
126 259
126 289
126 361
126 372
126 387
126 390
126 402
126 412
126 418
126 448
126 517
126 538
126 543
126 553
126 592
126 670
126 687
126 708
126 717
126 732
126 746
126 772
126 793
126 794
126 804
126 805
126 823
126 829
126 836
126 863
126 868
126 872
126 950
127 146
127 154
127 162
127 172
127 175
127 191
127 203
127 221
127 235
127 254
127 259
127 265
127 274
127 298
127 306
127 308
127 312
127 314
127 320
127 388
127 392
127 412
127 434
127 435
127 440
127 492
127 493
127 495
127 497
127 524
127 577
127 586
127 588
127 606
127 630
127 644
127 647
127 668
127 669
127 677
127 688
127 696
127 702
127 708
127 709
127 715
127 736
127 746
127 747
127 753
127 769
127 870
127 872
127 878
127 888
127 891
127 894
127 921
127 927
127 934
127 939
127 949
127 956
127 958
128 154
128 231
128 258
128 294
128 320
128 330
128 535
128 591
128 631
128 773
128 872
128 894
128 950
129 284
129 310
129 352
129 567
129 614
129 678
129 717
129 737
129 753
129 760
129 891
130 189
130 199
130 200
130 230
130 295
130 316
130 327
130 342
130 357
130 362
130 373
130 460
130 480
130 648
130 737
130 738
130 795
130 825
130 831
130 860
130 872
130 892
130 958
131 133
131 154
131 162
131 164
131 165
131 171
131 193
131 197
131 202
131 213
131 254
131 255
131 260
131 292
131 312
131 326
131 328
131 387
131 399
131 442
131 467
131 488
131 501
131 504
131 517
131 538
131 554
131 571
131 573
131 581
131 592
131 594
131 605
131 641
131 646
131 649
131 658
131 687
131 703
131 708
131 709
131 710
131 732
131 746
131 769
131 780
131 784
131 795
131 823
131 866
131 878
131 879
131 893
131 921
131 939
131 947
131 958
132 678
133 139
133 142
133 146
133 150
133 156
133 160
133 178
133 180
133 229
133 248
133 255
133 259
133 260
133 298
133 308
133 310
133 311
133 314
133 383
133 409
133 435
133 479
133 492
133 515
133 555
133 561
133 591
133 611
133 615
133 645
133 670
133 674
133 681
133 708
133 709
133 712
133 722
133 744
133 745
133 747
133 780
133 790
133 793
133 829
133 832
133 842
133 864
133 883
133 912
133 921
133 949
133 956
133 958
134 154
134 228
134 249
134 320
134 409
134 449
134 619
134 703
134 722
135 146
135 152
135 175
135 222
135 228
135 230
135 269
135 301
135 310
135 332
135 339
135 350
135 387
135 405
135 436
135 437
135 480
135 492
135 493
135 497
135 516
135 533
135 539
135 554
135 561
135 616
135 638
135 649
135 678
135 711
135 715
135 730
135 810
135 855
135 857
135 885
135 888
135 891
135 907
135 936
135 958
136 231
136 314
136 320
136 468
136 529
136 672
136 678
136 728
136 785
136 840
136 881
136 905
137 145
137 147
137 229
137 251
137 309
137 336
137 360
137 372
137 393
137 408
137 411
137 450
137 498
137 625
137 632
137 637
137 779
137 841
137 845
137 874
137 891
137 911
137 923
137 951
138 143
138 228
138 237
138 248
138 325
138 326
138 327
138 347
138 410
138 564
138 591
138 616
138 643
138 649
138 710
138 752
138 759
138 829
138 863
138 874
138 903
138 907
138 957
139 146
139 269
139 339
139 561
139 719
139 733
139 888
140 160
140 183
140 209
140 232
140 238
140 263
140 264
140 267
140 294
140 310
140 320
140 327
140 356
140 438
140 463
140 474
140 515
140 525
140 547
140 584
140 635
140 859
140 885
140 887
140 959
141 142
141 259
141 314
141 327
141 338
141 374
141 435
141 511
141 560
141 561
141 602
141 728
141 743
141 791
141 796
142 250
142 260
142 264
142 269
142 281
142 298
142 314
142 385
142 436
142 469
142 493
142 495
142 561
142 581
142 600
142 670
142 681
142 703
142 705
142 715
142 721
142 784
142 792
142 796
142 820
142 832
142 851
142 865
142 879
142 888
142 893
143 290
143 312
143 372
143 473
143 495
143 525
143 530
143 593
143 631
143 697
143 711
143 759
143 871
143 904
143 907
143 958
144 145
144 149
144 154
144 161
144 165
144 171
144 183
144 205
144 229
144 245
144 274
144 292
144 300
144 311
144 312
144 327
144 352
144 363
144 372
144 404
144 429
144 433
144 455
144 460
144 494
144 495
144 500
144 528
144 541
144 549
144 551
144 560
144 565
144 578
144 601
144 645
144 655
144 690
144 696
144 698
144 709
144 721
144 732
144 753
144 794
144 823
144 824
144 836
144 875
144 887
144 923
144 935
144 944
144 950
145 161
145 208
145 229
145 269
145 274
145 283
145 311
145 336
145 372
145 387
145 406
145 412
145 415
145 433
145 455
145 456
145 470
145 471
145 487
145 495
145 500
145 504
145 525
145 541
145 554
145 574
145 578
145 601
145 616
145 626
145 632
145 645
145 666
145 667
145 668
145 675
145 678
145 690
145 709
145 736
145 792
145 794
145 804
145 824
145 835
145 836
145 860
145 887
145 904
145 908
145 917
145 923
145 929
145 933
145 935
145 937
145 950
145 953
145 957
146 148
146 159
146 160
146 162
146 175
146 191
146 202
146 205
146 209
146 213
146 222
146 226
146 229
146 235
146 247
146 249
146 254
146 258
146 260
146 264
146 269
146 272
146 274
146 283
146 290
146 292
146 295
146 298
146 301
146 302
146 307
146 308
146 319
146 320
146 354
146 368
146 373
146 378
146 384
146 397
146 399
146 402
146 404
146 407
146 410
146 416
146 419
146 428
146 431
146 433
146 443
146 455
146 465
146 467
146 469
146 471
146 473
146 495
146 500
146 501
146 530
146 541
146 553
146 557
146 577
146 578
146 593
146 602
146 609
146 614
146 616
146 626
146 630
146 644
146 648
146 650
146 666
146 667
146 668
146 669
146 672
146 680
146 684
146 703
146 705
146 708
146 737
146 738
146 739
146 743
146 745
146 747
146 752
146 753
146 773
146 774
146 791
146 796
146 804
146 810
146 812
146 844
146 846
146 855
146 857
146 859
146 860
146 862
146 865
146 872
146 873
146 885
146 888
146 893
146 894
146 905
146 907
146 908
146 927
146 949
146 957
146 958
147 196
147 220
147 266
147 268
147 309
147 372
147 378
147 382
147 389
147 661
147 671
147 678
147 828
147 899
147 933
148 153
148 171
148 208
148 219
148 221
148 228
148 254
148 264
148 269
148 274
148 298
148 307
148 310
148 311
148 316
148 327
148 350
148 361
148 363
148 368
148 370
148 380
148 395
148 406
148 409
148 434
148 457
148 472
148 475
148 488
148 501
148 504
148 507
148 524
148 528
148 554
148 557
148 561
148 573
148 613
148 623
148 634
148 645
148 648
148 678
148 696
148 705
148 715
148 717
148 718
148 738
148 741
148 794
148 810
148 851
148 855
148 885
148 891
148 911
148 917
148 923
148 953
149 155
149 202
149 205
149 213
149 227
149 228
149 229
149 267
149 301
149 322
149 325
149 327
149 333
149 347
149 380
149 404
149 429
149 471
149 482
149 493
149 494
149 503
149 504
149 524
149 538
149 549
149 560
149 571
149 573
149 580
149 581
149 601
149 643
149 659
149 668
149 678
149 696
149 747
149 757
149 792
149 794
149 812
149 823
149 829
149 904
149 918
149 942
149 953
150 373
150 435
150 556
150 561
150 580
150 612
150 647
150 673
150 720
150 790
150 894
150 902
151 336
151 498
151 575
151 632
151 691
151 742
151 799
151 951
151 957
152 265
152 295
152 320
152 425
152 560
152 603
152 636
152 638
152 807
152 842
152 855
153 159
153 161
153 183
153 188
153 190
153 200
153 215
153 221
153 242
153 254
153 264
153 311
153 323
153 324
153 327
153 335
153 347
153 363
153 372
153 402
153 412
153 423
153 454
153 457
153 463
153 487
153 494
153 500
153 542
153 554
153 557
153 563
153 601
153 616
153 632
153 634
153 643
153 645
153 651
153 678
153 688
153 689
153 696
153 708
153 732
153 780
153 804
153 807
153 812
153 829
153 836
153 840
153 872
153 929
153 931
153 939
153 944
153 950
154 165
154 183
154 185
154 195
154 221
154 229
154 231
154 247
154 248
154 250
154 263
154 269
154 275
154 298
154 311
154 320
154 327
154 338
154 342
154 349
154 361
154 372
154 400
154 409
154 431
154 435
154 440
154 448
154 449
154 455
154 465
154 467
154 479
154 487
154 488
154 492
154 493
154 494
154 496
154 522
154 530
154 549
154 555
154 561
154 586
154 605
154 617
154 631
154 632
154 644
154 645
154 650
154 667
154 673
154 675
154 708
154 709
154 717
154 719
154 722
154 724
154 743
154 746
154 748
154 760
154 784
154 791
154 792
154 793
154 795
154 807
154 829
154 832
154 836
154 859
154 860
154 867
154 883
154 888
154 894
154 932
154 935
155 206
155 211
155 221
155 274
155 278
155 289
155 344
155 347
155 457
155 551
155 554
155 689
155 709
155 741
155 805
155 836
155 878
155 897
156 222
156 228
156 230
156 236
156 259
156 263
156 275
156 283
156 356
156 375
156 405
156 442
156 465
156 492
156 494
156 530
156 591
156 599
156 634
156 708
156 773
156 793
156 811
156 883
156 912
156 935
156 958
156 961
157 178
157 360
157 382
157 561
157 727
157 750
157 754
157 854
157 869
157 888
157 916
157 933
158 399
158 516
158 585
158 872
159 189
159 190
159 213
159 219
159 222
159 225
159 226
159 235
159 248
159 254
159 260
159 283
159 290
159 335
159 357
159 363
159 375
159 377
159 399
159 410
159 423
159 431
159 435
159 437
159 451
159 467
159 479
159 483
159 492
159 494
159 500
159 507
159 516
159 521
159 528
159 529
159 565
159 573
159 577
159 584
159 585
159 612
159 616
159 639
159 645
159 646
159 651
159 692
159 693
159 738
159 791
159 801
159 805
159 855
159 871
159 876
159 885
159 891
159 894
159 926
159 927
159 934
159 936
159 937
160 175
160 193
160 203
160 208
160 233
160 247
160 292
160 294
160 321
160 326
160 327
160 338
160 448
160 488
160 494
160 504
160 517
160 543
160 555
160 634
160 641
160 649
160 668
160 712
160 727
160 746
160 784
160 791
160 814
160 829
160 872
160 883
160 887
160 896
160 903
160 917
160 929
160 935
160 959
161 163
161 183
161 197
161 213
161 221
161 229
161 233
161 282
161 339
161 352
161 355
161 358
161 365
161 369
161 372
161 402
161 454
161 475
161 486
161 533
161 537
161 541
161 553
161 554
161 573
161 579
161 628
161 632
161 690
161 709
161 721
161 746
161 780
161 792
161 807
161 864
161 936
161 939
161 950
162 197
162 205
162 213
162 245
162 259
162 263
162 274
162 300
162 308
162 312
162 321
162 324
162 327
162 328
162 335
162 340
162 347
162 358
162 361
162 368
162 372
162 397
162 399
162 402
162 412
162 418
162 455
162 457
162 485
162 488
162 524
162 575
162 592
162 605
162 648
162 654
162 655
162 670
162 678
162 679
162 684
162 687
162 689
162 708
162 709
162 713
162 732
162 769
162 780
162 794
162 811
162 812
162 823
162 829
162 835
162 865
162 872
162 918
162 943
163 236
163 255
163 259
163 283
163 355
163 361
163 406
163 434
163 473
163 484
163 507
163 518
163 519
163 549
163 553
163 565
163 658
163 670
163 688
163 752
163 780
163 855
163 939
163 940
163 950
164 191
164 255
164 428
164 460
164 501
164 588
164 669
164 687
164 700
164 708
164 722
164 865
164 866
164 872
164 893
165 167
165 175
165 193
165 202
165 231
165 245
165 259
165 292
165 300
165 311
165 312
165 470
165 504
165 525
165 668
165 687
165 703
165 709
165 722
165 747
165 753
165 791
165 805
165 859
165 869
165 879
165 883
165 887
165 935
165 940
166 411
166 608
166 671
166 815
166 827
166 884
167 193
167 300
167 311
167 363
167 418
167 432
167 451
167 517
167 610
167 617
167 654
167 668
167 810
167 837
167 850
167 876
167 919
168 259
168 353
168 445
168 515
168 521
168 591
168 636
168 756
168 829
168 831
168 846
168 863
168 926
169 678
169 728
170 173
170 234
170 336
170 489
170 749
170 758
170 764
170 783
170 891
170 949
171 183
171 205
171 215
171 221
171 227
171 264
171 274
171 310
171 316
171 317
171 365
171 372
171 376
171 380
171 398
171 457
171 478
171 488
171 554
171 696
171 717
171 730
171 736
171 755
171 801
171 807
171 829
171 850
171 873
171 923
172 263
172 275
172 298
172 306
172 421
172 536
172 570
172 630
172 645
173 207
173 251
173 334
173 507
173 546
173 632
173 754
173 807
173 828
173 841
174 241
174 296
174 337
174 427
174 759
174 821
175 197
175 203
175 294
175 410
175 467
175 504
175 673
175 680
175 703
175 712
175 746
175 805
175 812
175 829
175 865
175 935
176 187
176 199
176 247
176 250
176 269
176 272
176 292
176 298
176 320
176 383
176 399
176 419
176 535
176 603
176 609
176 619
176 648
176 655
176 678
176 711
176 714
176 728
176 768
176 862
176 894
176 905
176 912
176 936
177 251
177 282
177 453
177 455
177 462
177 562
177 625
177 830
178 192
178 224
178 239
178 282
178 334
178 372
178 415
178 453
178 462
178 605
178 625
178 678
178 750
178 764
178 799
178 841
178 854
178 906
178 913
178 922
178 933
179 194
179 270
179 366
179 575
179 682
179 742
179 764
179 951
179 959
180 294
180 555
181 353
181 385
181 469
181 482
181 501
181 509
181 557
181 591
181 645
181 685
181 726
181 761
181 801
181 810
181 814
181 829
181 853
181 903
181 926
182 183
182 205
182 232
182 256
182 259
182 267
182 301
182 327
182 353
182 409
182 417
182 418
182 455
182 524
182 528
182 547
182 560
182 591
182 616
182 629
182 678
182 719
182 769
182 780
182 804
182 832
182 859
182 885
182 957
183 197
183 205
183 209
183 213
183 219
183 221
183 238
183 243
183 267
183 316
183 347
183 367
183 370
183 376
183 380
183 406
183 412
183 429
183 443
183 455
183 457
183 475
183 507
183 517
183 528
183 554
183 598
183 601
183 632
183 651
183 655
183 668
183 696
183 709
183 780
183 792
183 807
183 848
183 864
183 872
183 877
183 887
183 907
183 923
183 928
183 944
183 953
184 575
184 758
185 199
185 228
185 327
185 373
185 449
185 492
185 577
185 603
185 617
185 678
185 685
185 703
185 739
185 760
185 825
185 840
185 888
186 499
186 544
186 661
186 804
186 911
187 247
187 250
187 258
187 269
187 292
187 314
187 404
187 419
187 440
187 460
187 525
187 535
187 609
187 613
187 616
187 655
187 667
187 678
187 705
187 714
187 743
187 752
187 773
187 777
187 796
187 804
187 872
187 885
187 894
187 905
187 908
187 925
187 932
188 198
188 245
188 287
188 325
188 335
188 402
188 412
188 418
188 423
188 689
188 730
188 918
189 314
189 320
189 368
189 370
189 373
189 395
189 436
189 441
189 581
189 639
189 715
189 737
189 840
189 881
190 203
190 215
190 221
190 278
190 336
190 363
190 457
190 472
190 475
190 507
190 514
190 526
190 588
190 628
190 807
190 844
190 956
191 221
191 264
191 265
191 274
191 301
191 316
191 320
191 333
191 376
191 380
191 398
191 610
191 688
191 696
191 702
191 708
191 717
191 737
191 745
191 753
191 757
191 791
191 822
191 844
191 872
191 878
191 888
191 956
192 239
192 453
192 764
192 913
193 202
193 229
193 245
193 255
193 259
193 292
193 300
193 311
193 327
193 404
193 407
193 451
193 479
193 495
193 504
193 525
193 549
193 557
193 577
193 588
193 605
193 617
193 668
193 700
193 709
193 710
193 745
193 753
193 792
193 795
193 829
193 836
193 865
193 872
193 879
193 887
193 908
193 940
193 952
194 270
194 682
195 203
195 230
195 235
195 247
195 254
195 285
195 318
195 381
195 406
195 455
195 522
195 555
195 561
195 603
195 617
195 631
195 644
195 654
195 684
195 685
195 728
195 753
195 780
195 837
195 874
195 907
196 224
196 499
196 508
196 821
197 202
197 213
197 221
197 228
197 233
197 237
197 312
197 324
197 328
197 340
197 347
197 397
197 450
197 455
197 475
197 488
197 500
197 524
197 528
197 678
197 684
197 686
197 687
197 708
197 713
197 732
197 746
197 747
197 780
197 794
197 811
197 812
197 823
197 837
197 859
197 868
197 869
197 872
197 907
197 915
197 939
198 203
198 219
198 244
198 256
198 287
198 312
198 328
198 335
198 344
198 347
198 404
198 455
198 457
198 524
198 525
198 601
198 643
198 689
198 732
198 743
198 756
198 804
198 807
198 820
198 885
198 897
198 914
198 928
199 362
199 383
199 447
199 600
199 648
199 787
199 811
199 932
200 221
200 228
200 231
200 264
200 274
200 295
200 298
200 314
200 316
200 327
200 352
200 372
200 409
200 461
200 479
200 529
200 536
200 559
200 614
200 616
200 639
200 645
200 655
200 669
200 672
200 678
200 717
200 718
200 728
200 738
200 753
200 755
200 776
200 798
200 860
200 929
200 936
200 944
201 283
201 308
201 319
201 404
201 774
201 925
202 203
202 229
202 235
202 237
202 243
202 245
202 259
202 292
202 308
202 311
202 312
202 338
202 390
202 435
202 459
202 467
202 470
202 471
202 493
202 504
202 555
202 557
202 591
202 605
202 615
202 663
202 668
202 670
202 700
202 708
202 709
202 719
202 746
202 747
202 753
202 773
202 792
202 811
202 824
202 836
202 872
202 879
202 883
202 887
202 907
202 921
202 935
202 954
203 205
203 206
203 221
203 228
203 231
203 235
203 247
203 254
203 259
203 273
203 283
203 285
203 286
203 290
203 292
203 300
203 306
203 308
203 312
203 378
203 384
203 387
203 407
203 410
203 421
203 428
203 439
203 440
203 442
203 447
203 455
203 459
203 474
203 487
203 494
203 497
203 501
203 507
203 515
203 520
203 525
203 528
203 551
203 561
203 565
203 570
203 574
203 584
203 591
203 594
203 595
203 603
203 632
203 646
203 655
203 666
203 668
203 675
203 685
203 688
203 700
203 702
203 703
203 708
203 719
203 722
203 739
203 745
203 747
203 751
203 753
203 759
203 811
203 836
203 837
203 844
203 848
203 850
203 866
203 872
203 876
203 878
203 887
203 891
203 897
203 908
203 912
203 928
203 934
203 936
203 940
203 959
204 257
204 304
204 329
204 360
204 382
204 450
204 552
204 624
204 750
204 754
204 846
204 869
204 913
205 209
205 229
205 259
205 262
205 274
205 285
205 308
205 321
205 325
205 333
205 356
205 372
205 404
205 406
205 407
205 415
205 423
205 425
205 429
205 440
205 451
205 454
205 455
205 459
205 494
205 500
205 504
205 518
205 523
205 524
205 533
205 541
205 554
205 562
205 616
205 621
205 632
205 650
205 686
205 690
205 698
205 705
205 757
205 769
205 773
205 780
205 790
205 791
205 793
205 804
205 810
205 812
205 823
205 855
205 859
205 865
205 869
205 875
205 876
205 882
205 894
205 907
205 908
205 939
205 957
206 215
206 219
206 454
206 457
206 688
206 753
206 844
207 229
207 251
207 304
207 309
207 334
207 365
207 369
207 382
207 427
207 450
207 464
207 500
207 578
207 637
207 704
207 727
207 741
207 754
207 764
207 779
207 807
207 841
207 899
207 916
208 233
208 263
208 338
208 435
208 511
208 634
208 641
208 794
208 829
208 855
208 957
209 226
209 232
209 238
209 267
209 283
209 294
209 389
209 412
209 463
209 501
209 560
209 584
209 591
209 635
209 709
209 752
209 756
209 761
209 780
209 800
209 814
209 869
209 907
209 926
209 953
209 957
209 959
210 481
210 540
210 626
210 654
210 699
210 829
210 882
211 221
211 245
211 331
211 344
211 551
211 574
211 732
211 741
211 746
211 836
212 865
213 225
213 242
213 245
213 249
213 255
213 263
213 300
213 324
213 328
213 355
213 358
213 361
213 372
213 399
213 402
213 404
213 406
213 417
213 473
213 481
213 500
213 526
213 553
213 575
213 601
213 625
213 632
213 643
213 678
213 679
213 684
213 708
213 709
213 725
213 727
213 732
213 742
213 745
213 746
213 773
213 794
213 801
213 807
213 811
213 829
213 836
213 847
213 918
213 932
213 939
213 950
213 957
214 466
215 274
215 310
215 316
215 376
215 398
215 457
215 488
215 500
215 553
215 574
215 584
215 606
215 614
215 616
215 626
215 645
215 658
215 689
215 717
215 730
215 737
215 738
215 753
215 755
215 807
215 832
215 850
215 888
215 923
215 937
215 939
215 956
216 258
216 261
216 381
216 419
216 562
216 603
216 702
216 825
216 894
216 961
217 432
217 463
217 478
217 931
218 260
218 279
218 678
218 681
219 221
219 226
219 254
219 256
219 274
219 292
219 307
219 323
219 328
219 335
219 347
219 350
219 423
219 525
219 632
219 651
219 661
219 678
219 689
219 743
219 804
219 829
219 836
219 840
219 856
219 939
220 366
220 607
220 757
220 788
221 228
221 235
221 245
221 269
221 274
221 278
221 289
221 301
221 307
221 323
221 327
221 331
221 333
221 335
221 338
221 344
221 350
221 363
221 368
221 370
221 376
221 380
221 401
221 409
221 412
221 423
221 429
221 442
221 457
221 488
221 507
221 551
221 554
221 578
221 579
221 616
221 645
221 669
221 678
221 686
221 688
221 690
221 700
221 709
221 718
221 741
221 746
221 747
221 753
221 756
221 772
221 780
221 794
221 804
221 805
221 832
221 836
221 873
221 914
221 917
221 923
221 948
221 956
222 229
222 235
222 301
222 405
222 437
222 497
222 533
222 692
222 717
222 891
222 908
222 958
224 234
224 248
224 291
224 450
224 462
224 466
224 575
224 624
224 635
224 725
224 734
224 764
224 769
224 821
224 829
225 250
225 255
225 258
225 269
225 312
225 323
225 339
225 383
225 398
225 493
225 525
225 528
225 537
225 557
225 561
225 616
225 702
225 705
225 728
225 796
225 807
225 852
225 872
225 888
225 934
225 952
226 264
226 410
226 455
226 562
226 579
226 601
226 613
226 743
226 855
226 907
226 911
227 229
227 380
227 392
227 412
227 429
227 524
227 578
227 678
227 698
227 717
227 817
227 853
227 953
228 229
228 235
228 237
228 242
228 250
228 254
228 261
228 272
228 275
228 287
228 310
228 311
228 314
228 316
228 328
228 330
228 342
228 349
228 372
228 378
228 398
228 399
228 405
228 406
228 407
228 412
228 416
228 435
228 449
228 455
228 495
228 525
228 533
228 536
228 554
228 573
228 584
228 591
228 600
228 616
228 619
228 631
228 636
228 663
228 665
228 680
228 702
228 717
228 722
228 728
228 737
228 746
228 747
228 751
228 792
228 805
228 807
228 840
228 867
228 872
228 875
228 887
228 891
228 907
228 926
228 940
228 953
229 251
229 260
229 267
229 269
229 277
229 321
229 325
229 331
229 336
229 338
229 356
229 365
229 368
229 412
229 415
229 416
229 422
229 442
229 453
229 454
229 455
229 465
229 479
229 487
229 504
229 509
229 528
229 557
229 561
229 562
229 566
229 578
229 605
229 610
229 614
229 616
229 629
229 632
229 646
229 697
229 709
229 710
229 717
229 721
229 730
229 736
229 737
229 741
229 746
229 756
229 760
229 773
229 774
229 794
229 805
229 817
229 823
229 837
229 846
229 869
229 874
229 875
229 888
229 889
229 891
229 904
229 907
229 908
229 911
229 912
229 935
229 936
229 954
229 957
230 235
230 298
230 362
230 373
230 383
230 405
230 410
230 433
230 440
230 480
230 533
230 554
230 561
230 617
230 631
230 638
230 648
230 649
230 711
230 745
230 747
230 810
230 873
230 874
230 926
230 932
230 949
230 958
231 245
231 249
231 292
231 300
231 312
231 314
231 316
231 348
231 352
231 378
231 395
231 441
231 443
231 474
231 523
231 529
231 533
231 551
231 557
231 561
231 570
231 598
231 630
231 639
231 650
231 668
231 672
231 709
231 714
231 715
231 718
231 739
231 741
231 747
231 753
231 776
231 777
231 785
231 813
231 832
231 836
231 848
231 859
231 862
231 869
231 879
231 881
231 887
231 894
231 949
232 236
232 237
232 259
232 353
232 412
232 423
232 647
232 719
232 814
232 829
232 845
232 853
232 859
232 954
233 245
233 247
233 273
233 459
233 467
233 488
233 511
233 746
233 829
233 872
234 393
234 561
234 608
234 632
234 749
234 796
234 829
234 841
235 236
235 255
235 263
235 265
235 274
235 285
235 289
235 290
235 292
235 300
235 320
235 327
235 344
235 350
235 359
235 384
235 387
235 407
235 435
235 440
235 442
235 459
235 460
235 474
235 495
235 501
235 525
235 528
235 530
235 570
235 574
235 585
235 588
235 594
235 602
235 603
235 622
235 636
235 638
235 673
235 680
235 681
235 688
235 693
235 700
235 709
235 711
235 717
235 719
235 721
235 722
235 741
235 743
235 753
235 756
235 759
235 784
235 790
235 791
235 792
235 804
235 811
235 835
235 836
235 844
235 851
235 862
235 866
235 870
235 872
235 876
235 878
235 887
235 888
235 891
235 894
235 907
235 908
235 912
235 917
235 949
235 958
236 245
236 253
236 259
236 290
236 308
236 383
236 405
236 419
236 527
236 591
236 600
236 605
236 617
236 709
236 719
236 752
236 773
236 925
237 242
237 267
237 272
237 292
237 311
237 323
237 333
237 353
237 363
237 392
237 422
237 448
237 454
237 470
237 482
237 503
237 522
237 528
237 538
237 542
237 554
237 561
237 578
237 579
237 591
237 634
237 642
237 645
237 655
237 666
237 703
237 736
237 745
237 757
237 761
237 772
237 774
237 807
237 829
237 872
237 887
237 915
237 928
237 937
237 953
237 954
237 957
238 308
238 325
238 406
238 547
238 584
238 688
238 780
238 805
238 878
238 959
239 605
239 764
239 913
240 278
240 363
240 365
240 380
240 415
240 457
240 481
240 528
240 626
240 666
240 689
240 888
240 928
241 242
241 296
241 337
241 366
241 427
241 534
241 759
241 821
242 272
242 287
242 289
242 294
242 310
242 311
242 404
242 412
242 423
242 427
242 578
242 689
242 698
242 746
242 793
242 804
242 836
242 837
242 846
242 875
242 883
242 888
242 897
242 956
243 264
243 274
243 292
243 372
243 455
243 471
243 500
243 504
243 554
243 573
243 650
243 689
243 690
243 794
243 807
243 810
243 923
243 935
243 956
244 245
244 273
244 287
244 415
244 423
244 435
244 438
244 455
244 634
244 928
244 931
245 249
245 254
245 263
245 283
245 289
245 292
245 311
245 312
245 322
245 327
245 331
245 335
245 336
245 340
245 358
245 372
245 387
245 395
245 397
245 399
245 406
245 412
245 418
245 454
245 485
245 488
245 504
245 517
245 551
245 560
245 574
245 616
245 632
245 643
245 668
245 679
245 684
245 687
245 707
245 708
245 709
245 724
245 741
245 747
245 756
245 769
245 792
245 794
245 807
245 812
245 823
245 829
245 835
245 859
245 935
245 939
245 954
245 958
246 311
246 358
246 372
246 412
246 488
246 504
246 554
246 612
246 632
246 668
246 678
246 746
246 759
246 793
246 887
246 935
247 258
247 259
247 260
247 263
247 285
247 292
247 314
247 338
247 372
247 381
247 399
247 409
247 419
247 435
247 443
247 460
247 525
247 536
247 594
247 603
247 606
247 609
247 630
247 634
247 644
247 667
247 668
247 678
247 685
247 702
247 714
247 739
247 747
247 753
247 829
247 888
247 894
247 907
247 912
247 917
247 929
248 252
248 290
248 292
248 298
248 308
248 324
248 342
248 372
248 389
248 402
248 435
248 437
248 445
248 450
248 465
248 479
248 487
248 497
248 524
248 525
248 529
248 555
248 585
248 615
248 616
248 645
248 650
248 686
248 702
248 733
248 805
248 807
248 855
248 864
248 869
248 872
248 897
248 902
248 907
248 912
248 917
248 929
249 253
249 258
249 259
249 294
249 298
249 301
249 314
249 319
249 352
249 358
249 402
249 409
249 415
249 419
249 449
249 451
249 479
249 483
249 523
249 528
249 535
249 536
249 539
249 561
249 599
249 609
249 619
249 644
249 670
249 680
249 685
249 722
249 752
249 768
249 773
249 774
249 832
249 862
249 874
249 885
249 894
249 905
249 925
249 934
249 949
249 950
249 957
250 260
250 263
250 269
250 279
250 320
250 327
250 383
250 399
250 419
250 460
250 537
250 561
250 609
250 623
250 643
250 648
250 681
250 705
250 715
250 717
250 721
250 728
250 768
250 807
250 820
250 851
250 873
250 894
250 912
250 932
251 257
251 282
251 283
251 304
251 336
251 393
251 408
251 450
251 462
251 489
251 498
251 544
251 575
251 625
251 691
251 725
251 726
251 754
251 764
251 774
251 779
251 828
251 841
251 845
251 854
251 899
251 957
252 561
252 750
253 259
253 290
253 655
253 719
253 867
254 292
254 301
254 308
254 310
254 318
254 319
254 328
254 387
254 412
254 434
254 440
254 473
254 483
254 487
254 488
254 493
254 500
254 504
254 524
254 530
254 554
254 565
254 573
254 577
254 592
254 593
254 601
254 644
254 645
254 655
254 668
254 680
254 708
254 709
254 736
254 746
254 747
254 792
254 794
254 795
254 807
254 851
254 857
254 859
254 869
254 872
254 875
254 885
254 927
254 929
254 940
254 946
254 956
254 958
255 259
255 269
255 322
255 324
255 372
255 398
255 415
255 425
255 428
255 442
255 494
255 502
255 521
255 549
255 557
255 561
255 570
255 596
255 601
255 616
255 639
255 641
255 643
255 644
255 649
255 653
255 668
255 670
255 687
255 717
255 738
255 739
255 745
255 747
255 791
255 801
255 855
255 866
255 872
255 888
255 919
255 929
255 934
255 936
255 937
255 947
255 952
256 267
256 288
256 294
256 310
256 319
256 330
256 397
256 404
256 417
256 418
256 525
256 579
256 613
256 747
256 761
256 793
256 804
256 807
256 837
256 885
256 949
256 957
257 304
257 382
257 531
257 607
257 624
257 742
257 750
257 765
257 859
257 869
257 916
258 269
258 283
258 295
258 301
258 319
258 341
258 352
258 383
258 404
258 439
258 492
258 501
258 535
258 549
258 580
258 599
258 609
258 613
258 685
258 687
258 702
258 718
258 719
258 739
258 818
258 832
258 862
258 867
258 875
258 894
258 905
258 925
258 932
258 934
258 958
259 260
259 265
259 267
259 283
259 292
259 308
259 311
259 314
259 353
259 361
259 399
259 422
259 439
259 459
259 460
259 487
259 488
259 515
259 520
259 523
259 525
259 535
259 549
259 551
259 582
259 591
259 594
259 609
259 611
259 615
259 619
259 643
259 647
259 654
259 655
259 665
259 687
259 703
259 708
259 709
259 710
259 719
259 722
259 729
259 739
259 745
259 747
259 748
259 752
259 761
259 766
259 773
259 787
259 794
259 797
259 804
259 811
259 812
259 823
259 836
259 859
259 865
259 866
259 869
259 872
259 876
259 891
259 893
259 894
259 897
259 912
259 921
259 926
259 936
260 264
260 269
260 292
260 298
260 308
260 314
260 327
260 431
260 438
260 444
260 455
260 479
260 487
260 533
260 537
260 541
260 549
260 557
260 560
260 561
260 562
260 646
260 649
260 653
260 655
260 678
260 681
260 705
260 708
260 721
260 739
260 745
260 747
260 753
260 796
260 801
260 807
260 808
260 811
260 851
260 852
260 862
260 872
260 873
260 876
260 888
260 891
260 893
260 904
260 907
260 912
260 926
260 936
260 937
260 957
261 558
261 622
261 639
261 678
261 702
261 795
262 327
262 328
262 644
262 654
263 275
263 292
263 298
263 320
263 324
263 367
263 418
263 421
263 488
263 511
263 535
263 538
263 594
263 602
263 606
263 611
263 617
263 639
263 645
263 655
263 670
263 681
263 684
263 687
263 702
263 708
263 732
263 746
263 753
263 766
263 769
263 773
263 780
263 794
263 811
263 823
263 865
263 872
263 883
263 912
264 269
264 274
264 286
264 295
264 301
264 314
264 327
264 331
264 363
264 406
264 418
264 440
264 457
264 465
264 471
264 507
264 528
264 561
264 574
264 578
264 579
264 581
264 588
264 601
264 623
264 626
264 628
264 645
264 651
264 681
264 689
264 690
264 708
264 728
264 741
264 804
264 805
264 808
264 811
264 812
264 847
264 851
264 852
264 875
264 878
264 911
264 936
265 388
265 644
265 669
265 688
265 702
265 736
265 753
265 844
265 925
265 956
266 309
266 364
266 372
266 389
267 283
267 322
267 325
267 327
267 404
267 406
267 415
267 418
267 440
267 455
267 463
267 475
267 500
267 503
267 515
267 517
267 520
267 523
267 525
267 528
267 541
267 574
267 591
267 605
267 719
267 733
267 756
267 759
267 773
267 804
267 853
267 859
267 864
267 876
267 908
267 959
268 304
268 336
268 389
268 526
268 548
268 621
269 271
269 279
269 286
269 295
269 301
269 323
269 331
269 339
269 373
269 381
269 385
269 395
269 409
269 419
269 435
269 438
269 444
269 465
269 471
269 493
269 495
269 500
269 523
269 525
269 528
269 529
269 533
269 535
269 537
269 549
269 555
269 562
269 566
269 578
269 581
269 609
269 619
269 623
269 626
269 639
269 645
269 648
269 650
269 655
269 678
269 684
269 690
269 697
269 702
269 705
269 711
269 721
269 722
269 728
269 741
269 768
269 791
269 796
269 808
269 810
269 831
269 840
269 847
269 851
269 852
269 860
269 862
269 873
269 891
269 904
269 905
269 911
269 912
269 917
269 919
269 923
269 932
269 934
269 936
269 958
270 682
270 716
270 959
272 342
272 368
272 407
272 557
272 562
272 639
272 640
272 648
272 678
272 853
272 856
272 891
272 952
272 954
273 327
273 353
273 402
273 435
273 482
273 487
273 517
273 685
273 698
273 772
273 829
274 278
274 284
274 286
274 307
274 314
274 320
274 327
274 336
274 368
274 370
274 372
274 384
274 395
274 406
274 412
274 415
274 425
274 434
274 494
274 526
274 557
274 574
274 578
274 598
274 623
274 632
274 639
274 643
274 645
274 648
274 650
274 651
274 678
274 680
274 689
274 709
274 779
274 793
274 794
274 796
274 804
274 805
274 824
274 841
274 848
274 850
274 851
274 869
274 876
274 878
274 888
274 917
274 923
274 944
275 292
275 298
275 301
275 306
275 320
275 350
275 566
275 645
275 667
275 670
275 678
275 905
275 932
276 310
276 401
276 495
276 645
276 744
276 757
276 940
276 946
277 306
277 320
277 492
277 494
277 673
277 678
277 703
277 715
277 722
277 784
277 863
277 902
277 905
278 365
278 415
278 454
278 455
278 472
278 481
278 514
278 540
278 554
278 626
278 678
278 735
278 803
278 882
278 888
279 561
279 678
279 681
279 894
279 912
280 310
280 545
280 614
281 314
281 327
281 435
281 492
281 561
281 600
281 711
281 715
281 792
281 806
281 888
281 891
282 369
282 462
282 486
282 561
282 625
282 635
282 704
282 721
282 779
282 796
282 841
282 854
283 294
283 326
283 330
283 353
283 356
283 413
283 416
283 463
283 498
283 525
283 562
283 574
283 577
283 579
283 584
283 605
283 613
283 712
283 752
283 759
283 774
283 807
283 836
283 850
283 907
283 908
283 915
283 927
283 959
284 290
284 320
284 359
284 409
284 435
284 460
284 475
284 529
284 573
284 577
284 623
284 627
284 645
284 688
284 746
284 776
284 791
284 832
284 844
284 855
284 888
284 912
284 917
285 353
285 383
285 455
285 459
285 617
285 631
285 644
285 650
285 703
285 722
285 795
285 837
285 872
285 912
286 307
286 310
286 331
286 352
286 378
286 384
286 457
286 465
286 500
286 551
286 574
286 598
286 613
286 626
286 643
286 650
286 678
286 690
286 741
286 755
286 824
286 829
286 836
286 848
286 923
286 957
287 293
287 322
287 327
287 328
287 412
287 428
287 438
287 475
287 485
287 503
287 520
287 541
287 549
287 560
287 647
287 655
287 678
287 686
287 745
287 772
287 790
287 794
287 829
287 836
287 837
287 846
287 872
287 875
287 883
287 902
287 914
287 915
287 957
289 365
289 494
289 579
289 678
289 709
289 735
289 804
289 829
289 897
290 314
290 320
290 327
290 350
290 368
290 395
290 399
290 407
290 419
290 440
290 460
290 497
290 501
290 509
290 530
290 533
290 560
290 561
290 567
290 571
290 574
290 578
290 579
290 585
290 591
290 595
290 598
290 615
290 616
290 643
290 644
290 678
290 684
290 688
290 693
290 702
290 715
290 717
290 753
290 759
290 766
290 791
290 810
290 820
290 831
290 835
290 871
290 883
290 886
290 888
290 891
290 905
290 923
290 925
290 929
290 937
290 952
290 956
291 420
291 450
291 456
291 734
291 829
292 294
292 298
292 300
292 311
292 312
292 314
292 320
292 338
292 347
292 352
292 390
292 409
292 412
292 419
292 422
292 431
292 432
292 435
292 443
292 449
292 460
292 473
292 474
292 487
292 488
292 493
292 495
292 500
292 525
292 549
292 555
292 586
292 591
292 595
292 601
292 615
292 617
292 619
292 631
292 644
292 645
292 667
292 670
292 684
292 700
292 703
292 708
292 709
292 714
292 721
292 722
292 739
292 746
292 747
292 748
292 757
292 768
292 784
292 791
292 794
292 795
292 796
292 804
292 859
292 867
292 869
292 872
292 879
292 883
292 887
292 894
292 907
292 908
292 914
292 936
292 957
292 958
293 327
293 438
293 915
294 413
294 416
294 442
294 447
294 451
294 460
294 463
294 467
294 470
294 504
294 527
294 557
294 584
294 591
294 600
294 649
294 705
294 712
294 721
294 733
294 747
294 793
294 817
294 864
294 882
294 934
294 935
294 959
295 298
295 301
295 320
295 342
295 362
295 368
295 373
295 390
295 439
295 460
295 465
295 536
295 556
295 561
295 566
295 576
295 589
295 639
295 648
295 655
295 669
295 672
295 678
295 712
295 728
295 785
295 851
295 872
296 427
296 466
296 520
296 534
296 759
296 762
297 845
298 301
298 306
298 320
298 361
298 395
298 409
298 425
298 435
298 443
298 460
298 501
298 523
298 524
298 535
298 555
298 570
298 588
298 599
298 606
298 619
298 630
298 631
298 670
298 678
298 685
298 702
298 711
298 712
298 722
298 760
298 785
298 791
298 832
298 836
298 837
298 855
298 862
298 879
298 905
298 961
300 311
300 358
300 495
300 533
300 557
300 594
300 658
300 668
300 670
300 678
300 700
300 708
300 737
300 753
300 831
300 869
300 879
300 939
301 308
301 310
301 312
301 314
301 338
301 352
301 435
301 443
301 460
301 492
301 497
301 522
301 529
301 537
301 578
301 585
301 611
301 616
301 623
301 643
301 645
301 648
301 665
301 669
301 681
301 697
301 711
301 717
301 736
301 743
301 745
301 790
301 832
301 851
301 883
301 885
301 888
301 891
301 894
301 912
301 927
301 953
301 958
302 897
303 459
303 528
303 617
303 619
303 647
303 678
303 728
303 752
303 774
303 798
303 855
303 881
304 329
304 360
304 727
304 746
304 754
304 933
305 399
306 419
306 421
306 443
306 492
306 536
306 556
306 561
306 570
306 580
306 591
306 630
306 668
306 685
306 718
306 912
307 312
307 327
307 335
307 353
307 361
307 372
307 376
307 378
307 380
307 384
307 423
307 425
307 488
307 500
307 520
307 554
307 573
307 579
307 634
307 643
307 678
307 709
307 772
307 804
307 829
307 853
307 859
307 919
307 928
307 948
307 957
308 312
308 319
308 326
308 327
308 353
308 377
308 397
308 440
308 463
308 469
308 473
308 493
308 495
308 504
308 507
308 517
308 528
308 547
308 555
308 557
308 562
308 577
308 584
308 585
308 591
308 593
308 602
308 605
308 609
308 643
308 644
308 647
308 667
308 668
308 670
308 675
308 678
308 693
308 698
308 705
308 719
308 732
308 752
308 759
308 791
308 792
308 796
308 800
308 804
308 808
308 837
308 845
308 852
308 865
308 869
308 872
308 876
308 887
308 891
308 895
308 907
308 908
308 919
308 925
308 926
308 932
308 934
308 940
308 956
308 959
309 366
309 372
309 389
309 661
309 761
309 828
309 933
310 314
310 316
310 327
310 342
310 347
310 352
310 361
310 370
310 387
310 405
310 415
310 428
310 437
310 460
310 472
310 473
310 487
310 492
310 525
310 528
310 529
310 545
310 551
310 574
310 613
310 614
310 616
310 632
310 636
310 645
310 649
310 658
310 678
310 686
310 705
310 707
310 717
310 730
310 733
310 737
310 738
310 751
310 753
310 755
310 778
310 780
310 784
310 790
310 795
310 805
310 824
310 835
310 840
310 855
310 864
310 872
310 881
310 883
310 885
310 891
310 911
310 917
310 934
310 946
310 956
311 312
311 316
311 358
311 363
311 372
311 404
311 433
311 440
311 452
311 471
311 493
311 503
311 515
311 525
311 528
311 551
311 601
311 645
311 658
311 678
311 689
311 700
311 709
311 711
311 747
311 792
311 793
311 836
311 850
311 869
311 879
311 883
311 887
311 927
311 935
311 947
311 958
312 319
312 339
312 361
312 406
312 415
312 434
312 473
312 493
312 500
312 530
312 541
312 570
312 593
312 613
312 649
312 668
312 670
312 687
312 708
312 709
312 711
312 713
312 746
312 747
312 753
312 780
312 790
312 792
312 796
312 829
312 850
312 852
312 865
312 866
312 872
312 888
312 891
312 927
312 939
312 940
312 956
313 491
313 678
313 696
313 767
313 941
314 321
314 322
314 324
314 327
314 339
314 350
314 352
314 368
314 373
314 383
314 404
314 435
314 437
314 460
314 468
314 471
314 473
314 495
314 501
314 515
314 528
314 537
314 555
314 560
314 561
314 581
314 589
314 591
314 600
314 603
314 609
314 619
314 622
314 623
314 636
314 647
314 648
314 655
314 660
314 675
314 677
314 678
314 684
314 705
314 707
314 717
314 721
314 728
314 738
314 751
314 781
314 784
314 787
314 789
314 790
314 797
314 807
314 822
314 847
314 851
314 852
314 860
314 862
314 865
314 878
314 888
314 894
314 905
314 917
314 921
314 929
314 932
314 937
314 956
314 958
314 961
315 562
316 328
316 330
316 342
316 350
316 352
316 357
316 359
316 368
316 376
316 392
316 398
316 399
316 415
316 457
316 533
316 574
316 614
316 636
316 645
316 648
316 658
316 669
316 689
316 696
316 715
316 717
316 737
316 751
316 753
316 840
316 850
316 855
316 872
316 888
316 891
316 929
316 937
317 475
317 698
317 775
317 786
317 829
318 328
318 402
318 406
318 455
318 467
318 494
318 520
318 528
318 541
318 562
318 644
318 654
318 803
318 814
318 869
318 872
318 876
318 939
319 356
319 386
319 404
319 473
319 540
319 616
319 650
319 686
319 705
319 774
319 925
319 957
320 327
320 352
320 365
320 395
320 405
320 409
320 426
320 431
320 435
320 442
320 443
320 447
320 460
320 468
320 474
320 483
320 500
320 511
320 517
320 529
320 533
320 539
320 570
320 585
320 586
320 589
320 599
320 603
320 606
320 627
320 630
320 636
320 645
320 648
320 655
320 681
320 685
320 714
320 718
320 739
320 745
320 751
320 753
320 760
320 768
320 773
320 791
320 798
320 811
320 832
320 840
320 860
320 865
320 867
320 872
320 878
320 879
320 883
320 909
320 912
320 917
320 929
320 932
320 935
320 936
320 961
321 326
321 336
321 368
321 455
321 617
321 645
321 648
321 689
321 756
321 805
321 825
321 829
321 903
322 327
322 412
322 527
322 614
322 631
322 673
322 678
322 746
322 895
322 902
323 335
323 353
323 378
323 381
323 383
323 406
323 412
323 463
323 528
323 549
323 561
323 579
323 705
323 780
323 796
323 853
323 885
323 931
323 939
324 333
324 399
324 405
324 412
324 457
324 516
324 524
324 525
324 538
324 573
324 584
324 585
324 616
324 619
324 639
324 677
324 687
324 692
324 708
324 780
324 823
324 829
324 872
324 907
324 937
324 961
325 372
325 389
325 402
325 404
325 406
325 410
325 425
325 445
325 465
325 489
325 494
325 524
325 531
325 541
325 573
325 616
325 645
325 650
325 686
325 736
325 757
325 805
325 817
325 829
325 846
325 869
325 897
325 908
325 953
326 327
326 389
326 398
326 471
326 494
326 504
326 515
326 518
326 557
326 560
326 571
326 593
326 605
326 617
326 645
326 708
326 733
326 745
326 747
326 791
326 822
326 865
326 866
326 872
326 900
326 908
326 952
327 328
327 333
327 349
327 378
327 391
327 399
327 402
327 406
327 423
327 432
327 438
327 449
327 459
327 487
327 492
327 493
327 500
327 501
327 518
327 524
327 525
327 530
327 537
327 542
327 554
327 557
327 561
327 562
327 573
327 579
327 605
327 614
327 616
327 623
327 626
327 632
327 645
327 648
327 668
327 680
327 681
327 689
327 696
327 698
327 709
327 715
327 722
327 736
327 745
327 746
327 747
327 757
327 794
327 796
327 805
327 807
327 814
327 816
327 829
327 836
327 855
327 859
327 866
327 868
327 869
327 872
327 885
327 902
327 908
327 935
327 940
327 943
327 947
327 953
328 335
328 347
328 350
328 353
328 412
328 417
328 450
328 455
328 456
328 459
328 488
328 494
328 500
328 507
328 541
328 549
328 601
328 644
328 654
328 684
328 689
328 709
328 730
328 732
328 741
328 746
328 780
328 794
328 829
328 868
328 911
328 928
328 939
328 957
329 360
329 382
329 552
329 764
329 869
330 407
330 415
330 527
330 560
330 675
330 678
330 759
330 793
330 795
330 883
330 885
331 356
331 404
331 406
331 455
331 465
331 509
331 551
331 678
331 686
331 715
331 741
331 756
331 772
331 836
331 859
331 934
332 405
332 631
332 665
332 680
332 717
333 392
333 524
333 569
333 636
333 698
333 736
333 747
333 757
333 804
333 829
333 929
333 947
333 948
333 953
334 637
334 725
334 779
334 807
334 841
334 854
334 858
335 404
335 423
335 454
335 455
335 579
335 645
335 651
335 690
335 774
335 794
335 829
335 914
335 939
335 954
336 356
336 360
336 378
336 393
336 406
336 425
336 450
336 498
336 534
336 541
336 574
336 583
336 625
336 632
336 650
336 678
336 724
336 726
336 804
336 836
336 841
336 845
336 854
336 911
336 945
336 957
337 427
337 450
337 526
337 534
337 575
337 632
337 635
337 759
337 762
337 821
337 845
337 930
338 345
338 361
338 400
338 405
338 422
338 435
338 442
338 443
338 459
338 520
338 521
338 540
338 561
338 626
338 645
338 649
338 668
338 669
338 678
338 703
338 712
338 772
338 788
338 831
338 832
338 842
338 865
338 878
339 383
339 440
339 561
339 602
339 616
339 623
339 678
339 684
339 721
339 776
339 807
339 820
339 851
339 864
339 891
339 900
339 925
340 418
340 538
340 708
340 794
340 829
340 872
340 939
341 381
341 599
341 949
342 354
342 361
342 372
342 390
342 398
342 409
342 428
342 467
342 492
342 551
342 567
342 573
342 585
342 612
342 639
342 678
342 702
342 737
342 760
342 776
342 789
342 840
342 902
342 917
342 937
343 810
343 888
344 414
344 574
344 597
344 643
344 709
344 713
344 741
344 756
344 829
344 836
344 837
344 863
344 907
344 943
346 524
347 367
347 370
347 376
347 412
347 417
347 470
347 520
347 524
347 538
347 554
347 579
347 601
347 649
347 689
347 709
347 745
347 746
347 755
347 769
347 794
347 801
347 805
347 807
347 812
347 846
347 855
347 872
347 877
347 897
347 904
347 907
347 943
347 953
348 753
348 813
349 703
349 722
350 370
350 380
350 398
350 401
350 405
350 450
350 545
350 567
350 614
350 616
350 678
350 688
350 696
350 698
350 737
350 776
350 805
350 835
350 840
350 850
350 855
350 878
350 937
350 941
351 495
351 571
351 662
351 744
351 904
352 428
352 469
352 475
352 493
352 551
352 573
352 588
352 602
352 611
352 626
352 632
352 669
352 672
352 708
352 737
352 739
352 751
352 760
352 776
352 778
352 785
352 787
352 791
352 798
352 832
352 836
352 881
352 936
352 937
352 949
352 956
353 378
353 397
353 412
353 515
353 732
353 752
353 761
353 774
353 814
353 846
353 849
353 853
353 954
354 579
354 668
354 957
355 358
355 402
355 418
355 474
355 475
355 479
355 495
355 673
355 780
355 907
356 404
356 455
356 465
356 541
356 650
356 686
356 774
356 791
356 805
356 857
356 895
356 908
356 925
356 927
356 957
357 648
357 738
358 418
358 475
358 554
358 632
358 658
358 668
358 708
358 709
358 769
358 780
358 793
358 869
358 939
359 405
359 737
359 751
359 776
359 778
359 840
360 552
360 727
360 869
360 899
361 370
361 372
361 392
361 418
361 501
361 592
361 680
361 687
361 709
361 717
361 738
361 757
361 790
361 835
361 855
361 859
361 872
361 894
361 902
361 939
362 383
362 648
362 684
362 825
362 831
363 372
363 423
363 454
363 475
363 488
363 507
363 538
363 554
363 573
363 579
363 588
363 651
363 708
363 837
363 853
363 878
363 915
363 928
363 956
364 371
364 372
364 450
364 489
364 544
364 568
364 632
364 933
365 372
365 415
365 481
365 483
365 494
365 549
365 553
365 569
365 626
365 629
365 636
365 643
365 645
365 678
365 696
365 717
365 768
365 803
365 807
365 836
365 846
365 888
365 937
365 943
365 957
366 372
366 450
366 466
366 531
366 543
366 561
366 583
366 607
366 624
366 757
366 764
366 770
366 788
366 874
367 370
367 433
367 479
367 558
367 755
367 894
368 409
368 422
368 436
368 473
368 495
368 557
368 561
368 571
368 578
368 600
368 623
368 648
368 711
368 715
368 737
368 738
368 747
368 751
368 776
368 872
368 915
368 917
369 414
369 427
369 456
369 479
369 486
369 515
369 635
369 682
369 749
369 833
369 945
370 376
370 398
370 457
370 574
370 614
370 632
370 678
370 696
370 730
370 737
370 741
370 755
370 850
370 855
370 937
371 709
371 799
371 899
371 922
372 380
372 404
372 412
372 450
372 455
372 457
372 465
372 475
372 483
372 489
372 494
372 500
372 526
372 538
372 541
372 553
372 554
372 573
372 574
372 592
372 632
372 651
372 658
372 665
372 668
372 703
372 708
372 711
372 718
372 746
372 764
372 769
372 779
372 805
372 807
372 824
372 827
372 841
372 845
372 853
372 854
372 855
372 859
372 860
372 872
372 873
372 876
372 887
372 918
372 923
372 933
372 939
372 940
372 944
372 957
372 958
373 390
373 405
373 415
373 480
373 561
373 576
373 618
373 639
373 715
373 768
373 888
373 932
373 949
374 435
374 602
374 743
374 806
375 383
375 469
375 479
375 591
375 739
375 926
375 927
376 380
376 398
376 574
376 645
376 678
376 689
376 730
376 805
376 829
376 850
376 937
376 947
377 410
377 712
377 927
378 384
378 412
378 423
378 579
378 601
378 643
378 724
378 732
378 774
378 812
378 829
378 956
379 836
380 392
380 429
380 524
380 569
380 573
380 628
380 669
380 688
380 690
380 696
380 698
380 717
380 732
380 747
380 757
380 804
380 937
380 948
381 383
381 394
381 419
381 440
381 460
381 474
381 480
381 528
381 556
381 579
381 595
381 609
381 617
381 655
381 685
381 714
381 719
381 728
381 733
381 768
381 818
381 867
381 885
381 894
381 925
381 932
381 936
382 704
382 727
382 750
382 754
382 858
382 869
383 419
383 438
383 471
383 480
383 487
383 561
383 617
383 619
383 667
383 670
383 678
383 705
383 780
383 852
383 864
383 888
383 961
384 412
384 517
384 551
384 574
384 579
384 626
384 648
384 678
384 807
385 469
385 605
385 619
385 670
385 814
385 829
385 851
385 863
385 903
385 926
385 932
386 428
386 473
386 561
386 751
386 925
387 390
387 428
387 573
387 606
387 614
387 626
387 648
387 708
387 709
387 737
387 757
387 769
387 780
387 807
387 840
387 859
387 902
387 937
387 952
388 627
388 666
388 736
388 844
388 878
388 956
389 418
389 444
389 467
389 471
389 504
389 524
389 525
389 537
389 561
389 571
389 605
389 608
389 617
389 668
389 736
389 747
389 808
389 822
389 887
389 900
389 907
389 933
389 952
390 488
390 492
390 574
390 631
390 720
390 865
391 649
391 759
391 810
391 952
392 402
392 473
392 483
392 524
392 696
392 747
392 757
392 853
392 947
392 948
393 397
393 575
393 888
393 891
393 899
393 949
394 419
394 530
394 678
394 709
394 728
394 768
394 818
394 905
395 412
395 428
395 455
395 465
395 474
395 509
395 529
395 557
395 574
395 585
395 598
395 609
395 616
395 650
395 678
395 693
395 697
395 753
395 760
395 785
395 810
395 848
395 851
395 872
395 885
395 888
395 891
395 911
395 923
395 932
395 937
395 952
396 477
397 399
397 402
397 415
397 418
397 455
397 475
397 708
397 713
397 732
397 746
397 756
397 769
397 807
397 811
397 829
397 868
397 876
397 950
398 428
398 441
398 487
398 497
398 501
398 590
398 596
398 614
398 616
398 678
398 687
398 737
398 755
398 908
398 934
398 937
398 952
399 418
399 431
399 490
399 538
399 560
399 594
399 602
399 643
399 678
399 684
399 703
399 708
399 721
399 746
399 794
399 811
399 863
399 865
399 872
399 893
399 917
399 926
399 958
400 435
400 836
401 744
401 757
401 946
402 406
402 412
402 450
402 457
402 474
402 501
402 503
402 507
402 517
402 528
402 538
402 553
402 601
402 636
402 643
402 658
402 670
402 675
402 680
402 713
402 721
402 732
402 746
402 747
402 780
402 829
402 859
402 872
402 914
402 939
402 950
402 957
403 500
403 651
403 678
404 415
404 416
404 423
404 425
404 455
404 465
404 503
404 523
404 541
404 549
404 562
404 601
404 632
404 645
404 668
404 685
404 686
404 690
404 696
404 709
404 733
404 746
404 774
404 804
404 805
404 807
404 817
404 847
404 862
404 875
404 876
404 887
404 908
404 927
404 957
405 479
405 497
405 530
405 539
405 554
405 558
405 638
405 692
405 730
405 795
405 855
405 891
405 907
405 958
406 418
406 425
406 444
406 455
406 525
406 541
406 549
406 554
406 560
406 573
406 650
406 654
406 678
406 690
406 696
406 715
406 756
406 780
406 792
406 804
406 805
406 807
406 923
406 957
407 467
407 473
407 475
407 509
407 562
407 591
407 668
407 678
407 684
407 702
407 759
407 810
407 871
407 883
407 885
407 888
407 908
407 919
407 944
408 450
408 704
408 756
408 858
408 899
409 417
409 431
409 492
409 496
409 497
409 528
409 555
409 557
409 566
409 585
409 587
409 600
409 630
409 641
409 644
409 645
409 648
409 655
409 667
409 672
409 695
409 706
409 717
409 718
409 743
409 785
409 795
409 832
409 840
409 860
409 878
409 883
409 888
409 891
409 912
409 917
409 934
410 445
410 526
410 557
410 638
410 700
410 705
410 759
410 791
410 805
410 876
410 927
410 957
411 458
411 575
411 632
411 734
411 884
411 898
411 920
411 924
411 945
412 415
412 423
412 435
412 450
412 464
412 495
412 503
412 517
412 520
412 525
412 528
412 538
412 549
412 551
412 560
412 563
412 574
412 578
412 601
412 643
412 645
412 654
412 668
412 686
412 689
412 690
412 698
412 709
412 724
412 732
412 741
412 747
412 764
412 769
412 790
412 793
412 807
412 812
412 822
412 823
412 846
412 853
412 872
412 875
412 885
412 909
412 928
412 935
412 939
412 943
412 953
412 958
413 416
413 527
413 557
413 600
414 528
414 794
414 837
414 943
415 429
415 440
415 453
415 459
415 470
415 494
415 501
415 504
415 517
415 523
415 528
415 549
415 554
415 574
415 578
415 605
415 609
415 613
415 639
415 645
415 658
415 668
415 675
415 690
415 710
415 761
415 764
415 788
415 799
415 807
415 826
415 836
415 837
415 856
415 859
415 874
415 876
415 882
415 885
415 888
415 895
415 904
415 907
415 915
415 917
415 926
416 521
416 527
416 557
416 599
416 733
416 859
416 925
417 578
417 579
417 616
417 632
417 689
417 761
417 791
417 829
417 847
417 876
417 885
417 891
417 918
417 927
417 939
418 432
418 457
418 463
418 475
418 488
418 500
418 504
418 515
418 528
418 546
418 553
418 573
418 579
418 591
418 596
418 625
418 658
418 670
418 709
418 725
418 732
418 742
418 745
418 746
418 769
418 780
418 811
418 812
418 823
418 829
418 836
418 869
418 872
418 907
418 915
418 918
418 931
418 939
418 950
418 957
419 421
419 460
419 522
419 528
419 536
419 560
419 591
419 599
419 603
419 617
419 619
419 678
419 714
419 719
419 720
419 721
419 768
419 818
419 867
419 885
419 925
420 575
420 605
421 460
421 536
421 556
421 561
421 595
421 619
421 631
421 666
421 668
421 905
422 525
422 574
422 601
422 632
422 635
422 645
422 709
422 711
422 722
422 743
422 794
422 853
422 887
422 914
422 954
422 957
422 959
423 435
423 442
423 493
423 560
423 563
423 601
423 630
423 634
423 651
423 678
423 747
423 804
423 829
424 658
425 438
425 445
425 455
425 541
425 561
425 571
425 578
425 616
425 645
425 650
425 678
425 686
425 791
425 794
425 804
425 805
425 817
425 829
425 869
425 891
425 908
425 912
426 539
426 595
426 678
426 888
427 466
427 520
427 526
427 534
427 759
427 762
427 779
427 841
427 880
428 437
428 497
428 501
428 557
428 568
428 577
428 588
428 616
428 643
428 666
428 669
428 678
428 684
428 687
428 737
428 747
428 792
428 795
428 840
428 872
428 878
428 888
429 524
429 528
429 549
429 560
429 579
429 643
429 659
429 677
429 678
429 686
429 696
429 698
429 732
429 757
429 803
429 807
429 869
429 908
429 947
429 948
429 953
429 957
430 603
430 722
431 487
431 530
431 533
431 553
431 645
431 646
431 670
431 678
431 714
431 832
431 862
431 894
431 932
432 433
432 560
432 678
432 713
432 804
432 897
433 438
433 494
433 517
433 557
433 645
433 793
433 803
433 810
433 849
433 919
433 938
434 484
434 519
434 610
434 844
434 878
434 888
434 934
435 440
435 473
435 495
435 504
435 511
435 517
435 528
435 536
435 537
435 555
435 560
435 582
435 586
435 605
435 617
435 634
435 641
435 644
435 645
435 703
435 721
435 722
435 753
435 759
435 791
435 804
435 812
435 822
435 865
435 867
435 878
435 883
435 894
436 533
436 616
436 638
436 648
436 678
436 832
436 851
436 855
436 873
436 891
436 958
437 616
437 678
437 692
437 693
437 717
437 795
437 855
437 891
437 907
437 929
437 932
437 961
438 467
438 500
438 524
438 528
438 537
438 546
438 561
438 678
438 689
438 705
438 721
438 740
438 796
438 815
438 824
438 847
438 928
438 939
438 953
439 644
439 715
439 722
439 739
439 894
440 467
440 493
440 520
440 524
440 525
440 562
440 577
440 708
440 712
440 759
440 773
440 774
440 796
440 807
440 855
440 887
440 891
440 907
440 908
440 952
440 958
441 776
442 463
442 494
442 521
442 523
442 555
442 606
442 630
442 641
442 649
442 668
442 712
442 745
442 831
442 856
442 865
442 872
442 883
442 891
442 896
442 910
442 912
442 928
443 460
443 496
443 523
443 529
443 585
443 645
443 649
443 715
443 785
443 917
444 471
444 504
444 537
444 561
444 578
444 645
444 705
444 728
444 745
444 808
444 875
444 911
444 961
445 465
445 541
445 643
445 678
445 805
445 863
447 449
447 527
447 622
447 648
447 722
447 787
447 831
447 842
447 872
447 929
448 746
448 829
449 615
449 619
449 631
449 811
449 894
450 456
450 464
450 503
450 583
450 632
450 635
450 661
450 724
450 734
450 749
450 750
450 794
450 828
450 829
450 872
450 888
450 901
450 945
451 467
451 502
451 528
451 557
451 561
451 610
451 616
451 645
451 650
451 678
451 699
451 715
451 774
451 817
451 849
451 891
451 938
451 949
451 952
452 816
453 562
453 734
453 749
453 750
453 764
453 845
453 913
453 951
454 455
454 457
454 521
454 553
454 713
454 732
454 877
454 878
454 888
454 915
455 462
455 465
455 500
455 528
455 541
455 554
455 562
455 578
455 579
455 643
455 644
455 645
455 650
455 654
455 655
455 689
455 696
455 705
455 746
455 769
455 774
455 780
455 801
455 804
455 805
455 807
455 810
455 817
455 830
455 846
455 872
455 875
455 888
455 891
455 895
455 907
455 918
455 923
455 927
455 939
455 957
456 477
456 575
456 632
456 724
456 734
456 749
456 750
456 829
456 951
457 475
457 481
457 500
457 507
457 554
457 574
457 585
457 616
457 628
457 632
457 654
457 688
457 696
457 708
457 740
457 746
457 755
457 801
457 807
457 823
457 829
457 840
457 844
457 872
457 878
457 888
457 939
457 950
458 632
458 819
458 884
459 467
459 492
459 494
459 497
459 561
459 600
459 602
459 617
459 644
459 684
459 703
459 705
459 829
459 859
459 865
459 870
459 888
459 935
460 474
460 588
460 594
460 595
460 599
460 603
460 609
460 611
460 619
460 641
460 648
460 655
460 681
460 708
460 714
460 717
460 745
460 768
460 785
460 808
460 862
460 872
460 894
460 901
460 912
460 925
460 936
461 678
461 753
462 562
462 764
462 830
463 547
463 571
463 584
463 761
463 772
463 804
463 836
463 849
463 859
463 923
463 957
463 959
464 635
464 637
464 691
464 750
464 764
464 807
464 878
464 888
465 541
465 574
465 586
465 645
465 650
465 655
465 715
465 741
465 746
465 774
465 805
465 869
465 888
465 891
465 911
465 957
466 499
466 531
466 534
466 575
466 607
466 624
466 682
466 727
466 750
466 757
466 762
466 770
466 788
466 821
466 874
466 945
467 479
467 482
467 504
467 527
467 579
467 591
467 596
467 616
467 680
467 708
467 733
467 772
467 796
467 803
467 805
467 817
467 865
467 866
467 887
467 894
467 900
467 903
467 934
468 536
468 614
468 639
468 648
468 678
468 785
469 493
469 542
469 571
469 616
469 631
469 643
469 647
469 648
469 670
469 678
469 761
469 791
469 792
469 806
469 864
469 865
469 873
469 926
469 949
470 520
470 549
470 579
470 645
470 649
470 690
470 710
470 745
470 747
470 807
470 837
470 876
470 895
470 910
470 919
470 926
470 941
470 949
471 525
471 537
471 561
471 577
471 605
471 668
471 670
471 705
471 721
471 728
471 863
471 904
471 940
472 514
472 678
472 731
472 751
472 886
473 487
473 494
473 525
473 541
473 593
473 632
473 650
473 651
473 668
473 678
473 688
473 708
473 722
473 793
473 796
473 805
473 822
473 829
473 836
473 859
473 869
473 907
473 911
473 919
473 927
473 959
474 492
474 595
474 678
474 714
474 715
474 728
474 768
474 860
474 863
474 892
474 912
475 495
475 525
475 573
475 613
475 626
475 632
475 644
475 658
475 678
475 688
475 689
475 741
475 774
475 776
475 780
475 804
475 807
475 832
475 844
475 853
475 864
475 872
475 878
475 888
475 891
475 925
475 939
475 956
476 572
476 575
476 607
476 771
477 531
477 725
477 933
479 486
479 487
479 494
479 500
479 516
479 525
479 555
479 588
479 609
479 632
479 649
479 678
479 700
479 704
479 708
479 711
479 745
479 751
479 773
479 805
479 817
479 820
479 842
479 864
479 872
479 888
479 894
479 904
479 926
479 949
479 957
480 533
480 561
480 599
480 602
480 617
480 639
480 648
480 768
480 905
480 932
481 528
481 554
481 626
481 636
481 678
481 803
481 882
481 888
482 488
482 736
482 772
482 804
482 829
482 836
482 954
483 487
483 507
483 719
483 773
483 872
483 926
483 927
483 950
483 952
484 518
484 519
485 503
485 626
485 888
486 575
486 704
486 724
486 854
487 492
487 525
487 561
487 565
487 571
487 610
487 639
487 644
487 646
487 653
487 655
487 670
487 680
487 685
487 696
487 717
487 759
487 774
487 805
487 929
487 934
487 952
487 957
488 492
488 494
488 501
488 511
488 517
488 541
488 543
488 549
488 579
488 617
488 634
488 650
488 708
488 709
488 732
488 745
488 746
488 793
488 794
488 805
488 812
488 829
488 836
488 872
488 873
488 875
488 903
488 935
488 953
489 544
489 568
489 725
489 807
489 827
489 828
489 897
490 678
490 687
490 732
490 745
490 787
491 678
491 767
491 855
491 941
492 497
492 577
492 585
492 631
492 647
492 665
492 677
492 678
492 707
492 776
492 795
492 888
492 917
492 929
493 524
493 530
493 577
493 586
493 593
493 655
493 668
493 688
493 708
493 773
493 780
493 784
493 851
493 855
493 872
493 887
493 908
493 925
493 927
493 932
493 953
493 956
494 502
494 528
494 538
494 549
494 554
494 573
494 579
494 588
494 642
494 644
494 645
494 649
494 650
494 654
494 673
494 709
494 712
494 717
494 719
494 745
494 747
494 757
494 759
494 780
494 791
494 793
494 824
494 829
494 837
494 855
494 865
494 878
494 883
494 935
494 938
495 504
495 525
495 562
495 571
495 581
495 596
495 606
495 617
495 643
495 649
495 668
495 678
495 688
495 700
495 710
495 711
495 747
495 753
495 792
495 808
495 851
495 866
495 872
495 873
495 887
495 907
495 918
495 934
495 940
495 946
495 958
496 631
496 743
496 797
496 909
497 501
497 625
497 643
497 663
497 692
497 715
498 742
498 933
498 951
499 508
499 607
499 661
499 742
499 765
499 891
500 504
500 524
500 538
500 541
500 551
500 554
500 561
500 573
500 574
500 578
500 626
500 632
500 645
500 678
500 690
500 696
500 730
500 746
500 748
500 753
500 769
500 794
500 824
500 829
500 855
500 868
500 869
500 887
500 888
500 923
500 929
500 957
501 509
501 518
501 571
501 593
501 616
501 632
501 643
501 644
501 649
501 669
501 680
501 708
501 717
501 745
501 747
501 752
501 756
501 759
501 829
501 844
501 855
501 863
501 866
501 868
501 903
501 926
501 953
501 956
502 616
502 645
502 649
503 696
503 745
503 794
503 804
503 812
503 817
503 837
503 846
504 525
504 557
504 577
504 584
504 605
504 617
504 632
504 668
504 690
504 700
504 708
504 709
504 712
504 746
504 792
504 795
504 814
504 863
504 869
504 872
504 883
504 900
504 903
504 908
504 935
505 678
506 532
506 678
506 863
507 565
507 613
507 644
507 678
507 686
507 735
507 807
507 829
507 872
507 929
507 950
509 578
509 593
509 616
509 636
509 708
509 745
509 759
509 810
509 822
509 863
509 868
509 891
509 926
510 549
510 876
511 536
511 549
511 634
511 635
511 641
511 829
511 865
512 749
513 531
513 764
514 557
514 614
514 731
514 737
514 751
514 888
515 547
515 584
515 591
515 593
515 605
515 617
515 678
515 680
515 703
515 719
515 814
515 831
515 859
515 864
516 518
516 533
516 561
516 585
516 588
516 613
516 616
516 696
516 753
516 785
516 796
516 801
516 855
516 888
517 591
517 645
517 689
517 746
517 759
517 793
517 859
517 872
517 903
517 939
518 525
518 545
518 557
518 560
518 610
518 614
518 636
518 666
518 678
518 737
518 829
518 866
519 610
519 666
519 678
519 888
520 535
520 560
520 573
520 644
520 645
520 649
520 654
520 703
520 745
520 759
520 762
520 772
520 784
520 788
520 837
520 865
520 876
520 907
520 919
520 926
520 928
520 949
521 527
521 560
521 605
521 614
521 626
521 649
521 700
521 710
521 747
521 759
521 787
521 810
521 865
521 872
521 921
521 926
521 933
521 952
522 537
522 721
522 768
522 807
522 825
522 932
523 562
523 585
523 626
523 743
523 862
523 907
523 917
524 538
524 579
524 601
524 668
524 696
524 698
524 708
524 740
524 747
524 759
524 769
524 773
524 794
524 804
524 829
524 875
524 935
524 947
524 953
525 528
525 530
525 557
525 571
525 577
525 584
525 591
525 594
525 596
525 603
525 604
525 605
525 617
525 646
525 655
525 666
525 687
525 705
525 708
525 710
525 712
525 715
525 743
525 745
525 759
525 773
525 792
525 804
525 807
525 851
525 865
525 873
525 878
525 887
525 888
525 904
525 905
525 932
525 934
525 940
525 952
525 953
525 958
525 959
526 531
526 534
526 544
526 779
526 933
526 952
527 557
527 584
527 792
527 872
528 538
528 540
528 541
528 549
528 554
528 557
528 573
528 578
528 584
528 604
528 613
528 616
528 617
528 636
528 639
528 650
528 670
528 719
528 728
528 753
528 773
528 774
528 793
528 796
528 803
528 804
528 807
528 808
528 810
528 820
528 837
528 852
528 864
528 865
528 888
528 907
528 923
528 925
528 927
528 932
528 939
528 958
528 961
529 542
529 630
529 639
529 648
529 672
529 684
529 739
529 753
529 791
529 798
529 832
529 912
529 917
530 560
530 561
530 590
530 591
530 602
530 609
530 615
530 617
530 643
530 649
530 655
530 670
530 709
530 711
530 714
530 773
530 792
530 796
530 855
530 871
530 887
530 891
530 905
530 925
530 927
530 940
530 958
531 568
531 575
531 607
531 742
531 750
531 762
531 764
531 771
531 817
531 828
531 897
531 933
533 594
533 599
533 602
533 655
533 714
533 768
533 776
533 791
533 810
533 831
533 855
533 862
533 891
533 936
534 759
534 762
535 549
535 645
535 752
535 867
535 894
535 905
536 558
536 606
536 630
536 759
536 956
536 961
537 561
537 578
537 623
537 648
537 678
537 681
537 705
537 715
537 721
537 794
537 805
537 806
537 820
537 847
537 903
538 570
538 573
538 656
538 708
538 709
538 732
538 746
538 780
538 794
538 811
538 823
538 829
538 855
538 953
538 958
539 623
539 649
539 707
539 842
539 888
540 554
540 626
540 636
540 645
540 686
540 804
540 807
540 882
540 897
541 542
541 544
541 645
541 647
541 651
541 677
541 678
541 686
541 714
541 746
541 759
541 769
541 773
541 774
541 804
541 805
541 812
541 817
541 853
541 875
541 889
541 904
541 907
541 908
541 918
541 936
541 957
542 643
542 709
542 756
542 774
542 820
542 829
542 853
542 857
542 885
542 908
542 912
543 732
543 772
543 829
543 869
544 575
544 770
544 889
544 899
545 614
545 737
546 550
546 621
546 843
548 682
548 691
548 933
548 951
549 573
549 578
549 601
549 616
549 649
549 650
549 686
549 690
549 708
549 710
549 732
549 747
549 793
549 794
549 829
549 837
549 846
549 859
549 865
549 875
549 876
549 919
549 949
551 579
551 598
551 609
551 626
551 655
551 708
551 709
551 711
551 720
551 792
551 824
551 836
551 865
551 894
552 727
552 750
552 916
553 626
553 632
553 713
553 774
553 804
553 807
553 808
553 842
553 847
553 943
553 957
554 561
554 574
554 578
554 626
554 645
554 666
554 688
554 690
554 696
554 700
554 709
554 746
554 747
554 756
554 793
554 794
554 795
554 804
554 805
554 815
554 836
554 848
554 855
554 856
554 859
554 869
554 879
554 882
554 884
554 887
554 914
554 943
555 615
555 663
555 670
555 674
555 684
555 708
555 712
555 719
555 722
555 842
555 864
555 865
555 883
555 912
555 921
555 934
556 580
556 585
556 603
556 673
556 678
556 685
556 720
556 728
556 774
556 894
556 902
557 560
557 561
557 577
557 578
557 588
557 600
557 603
557 605
557 610
557 616
557 617
557 623
557 636
557 644
557 645
557 648
557 658
557 668
557 678
557 687
557 688
557 708
557 718
557 728
557 738
557 753
557 759
557 791
557 792
557 837
557 872
557 926
557 929
557 940
558 631
558 638
558 855
560 561
560 562
560 648
560 681
560 687
560 696
560 709
560 728
560 736
560 745
560 836
560 859
560 953
560 961
561 577
561 581
561 582
561 592
561 600
561 602
561 611
561 613
561 616
561 623
561 626
561 627
561 632
561 636
561 638
561 644
561 646
561 648
561 653
561 655
561 666
561 669
561 670
561 678
561 681
561 684
561 688
561 690
561 697
561 705
561 715
561 721
561 733
561 741
561 743
561 745
561 747
561 751
561 766
561 780
561 785
561 791
561 794
561 796
561 804
561 807
561 821
561 822
561 844
561 851
561 852
561 865
561 866
561 872
561 873
561 874
561 878
561 885
561 886
561 888
561 904
561 932
561 936
561 943
561 949
561 956
562 564
562 644
562 654
562 668
562 684
562 688
562 700
562 702
562 721
562 759
562 791
562 804
562 810
562 830
562 907
562 943
562 952
562 957
563 794
564 728
564 852
565 616
565 872
565 950
566 912
566 936
567 614
567 639
567 760
567 776
567 888
568 735
568 827
568 828
568 937
569 642
569 696
569 698
569 747
569 757
569 872
570 630
570 678
570 717
570 744
571 577
571 596
571 604
571 610
571 678
571 687
571 700
571 728
571 792
571 836
571 866
571 887
571 908
571 940
571 953
573 601
573 626
573 629
573 632
573 665
573 708
573 717
573 718
573 730
573 780
573 805
573 807
573 855
573 887
573 907
573 914
573 919
573 947
573 952
573 956
574 579
574 601
574 613
574 614
574 616
574 626
574 650
574 678
574 690
574 709
574 711
574 737
574 738
574 746
574 755
574 756
574 792
574 793
574 805
574 822
574 840
574 899
574 911
574 914
574 957
575 607
575 654
575 742
575 749
575 750
575 758
575 807
575 812
575 823
575 829
575 904
575 923
575 933
576 639
576 715
576 738
577 610
577 688
577 708
577 855
577 887
577 893
577 900
577 908
577 932
577 940
577 946
578 598
578 645
578 648
578 678
578 690
578 696
578 697
578 715
578 741
578 759
578 760
578 804
578 807
578 851
578 853
578 855
578 888
578 897
578 908
578 939
578 954
579 591
579 602
579 613
579 616
579 628
579 680
579 710
579 713
579 740
579 761
579 774
579 812
579 835
579 859
579 876
579 877
579 885
579 908
579 918
579 923
579 939
580 585
580 612
580 647
580 673
580 677
580 680
580 720
580 790
580 894
580 902
581 600
581 609
581 655
581 660
581 670
581 688
581 715
581 721
581 792
581 820
581 851
581 873
581 888
581 894
583 607
583 771
583 854
583 907
583 951
584 605
584 663
584 668
584 702
584 703
584 709
584 733
584 757
584 759
584 772
584 792
584 842
584 859
584 872
584 873
584 876
584 879
584 905
585 611
585 673
585 678
585 692
585 717
585 743
585 766
585 810
585 888
585 891
585 902
585 929
586 615
586 722
586 784
586 785
586 836
586 879
586 894
588 591
588 611
588 665
588 668
588 669
588 684
588 688
588 717
588 798
588 832
588 844
588 870
588 872
588 878
588 888
588 912
588 937
589 648
589 892
589 894
589 961
590 617
590 623
590 639
590 649
590 850
590 888
590 891
590 938
591 605
591 609
591 615
591 617
591 618
591 641
591 645
591 663
591 674
591 681
591 682
591 702
591 703
591 709
591 727
591 728
591 756
591 759
591 773
591 784
591 811
591 814
591 829
591 845
591 855
591 859
591 865
591 885
591 903
591 921
591 925
591 926
591 927
591 931
591 949
591 956
591 959
592 680
592 701
592 708
592 769
592 859
592 958
593 605
593 822
593 829
593 863
593 866
593 903
593 908
593 927
594 603
594 648
594 655
594 684
594 708
594 709
594 713
594 714
594 739
594 746
594 769
594 862
594 872
594 888
594 907
594 908
594 912
594 936
595 606
595 630
595 715
595 753
595 905
595 961
596 668
596 792
596 808
596 900
598 632
598 730
598 774
598 793
598 836
598 914
599 602
599 648
599 894
600 678
600 728
600 752
600 787
600 806
600 825
600 873
600 879
601 645
601 696
601 736
601 743
601 793
601 856
601 865
601 875
601 897
601 914
601 938
601 939
601 952
601 953
602 603
602 609
602 617
602 643
602 684
602 743
602 766
602 864
602 865
602 927
602 932
602 949
602 956
603 655
603 685
603 708
603 733
603 739
603 747
603 825
603 912
603 936
604 685
604 774
604 808
604 900
605 617
605 636
605 644
605 668
605 703
605 708
605 745
605 759
605 764
605 792
605 805
605 822
605 829
605 863
605 868
605 897
605 906
605 907
605 922
605 925
605 926
605 928
605 935
605 959
606 645
606 760
606 840
606 865
606 888
606 905
606 917
606 929
607 661
607 725
607 742
607 750
607 770
607 821
607 874
607 933
608 632
608 734
608 742
608 841
608 845
608 854
609 616
609 643
609 655
609 681
609 709
609 768
609 785
609 790
609 804
609 855
609 862
609 905
609 912
609 927
609 932
609 937
609 940
610 629
610 669
610 678
610 737
610 759
610 876
611 655
611 681
611 684
611 743
611 766
611 773
611 790
611 888
611 921
611 935
612 675
612 789
612 823
612 869
612 882
612 894
612 902
612 921
612 961
613 745
613 807
613 885
613 888
613 915
613 918
614 616
614 645
614 669
614 672
614 678
614 681
614 683
614 702
614 717
614 737
614 738
614 751
614 787
614 840
614 850
614 876
614 915
614 927
615 647
615 670
615 675
615 703
615 719
615 784
615 789
615 831
615 845
615 865
615 879
615 888
615 921
615 958
616 623
616 626
616 636
616 649
616 672
616 678
616 717
616 737
616 774
616 801
616 822
616 855
616 865
616 872
616 888
616 891
616 927
616 937
616 939
616 949
616 956
616 957
617 645
617 668
617 677
617 700
617 703
617 728
617 746
617 773
617 780
617 804
617 818
617 826
617 829
617 849
617 908
617 925
617 940
619 631
619 647
619 677
619 678
619 685
619 862
621 678
622 702
622 715
623 627
623 645
623 678
623 681
623 728
623 737
623 791
623 806
623 807
623 832
623 878
623 891
623 911
623 955
623 961
624 749
625 716
625 725
625 742
625 764
625 904
625 922
626 629
626 632
626 645
626 649
626 650
626 699
626 737
626 757
626 803
626 807
626 824
626 835
626 836
626 869
626 883
626 888
626 897
626 904
626 910
626 923
626 933
626 943
626 958
627 666
627 888
628 645
628 853
629 869
629 952
630 685
630 689
630 832
631 649
631 667
631 711
631 797
631 855
631 865
631 891
631 907
631 960
632 645
632 658
632 661
632 678
632 689
632 690
632 704
632 709
632 721
632 730
632 741
632 746
632 747
632 750
632 754
632 762
632 793
632 794
632 812
632 815
632 824
632 841
632 854
632 859
632 869
632 872
632 884
632 887
632 920
632 939
633 734
633 799
634 794
634 829
634 853
635 724
635 854
635 865
635 899
636 646
636 666
636 675
636 680
636 687
636 699
636 708
636 717
636 745
636 747
636 791
636 803
636 863
636 866
636 868
636 872
636 875
636 888
636 907
636 917
637 678
637 730
637 807
638 692
638 896
639 672
639 678
639 681
639 689
639 717
639 718
639 728
639 729
639 733
639 743
639 785
639 795
639 851
639 855
639 872
639 937
640 722
641 703
641 791
641 883
641 912
641 936
641 940
642 678
642 725
643 654
643 666
643 681
643 693
643 698
643 709
643 747
643 761
643 769
643 772
643 773
643 794
643 804
643 829
643 846
643 861
643 873
643 878
643 908
643 923
643 927
643 952
643 957
644 654
644 680
644 684
644 703
644 708
644 717
644 739
644 747
644 757
644 759
644 791
644 792
644 811
644 844
644 872
644 874
644 878
644 907
644 918
645 648
645 678
645 681
645 689
645 690
645 700
645 709
645 710
645 715
645 717
645 721
645 724
645 732
645 737
645 738
645 741
645 743
645 746
645 747
645 759
645 769
645 779
645 791
645 794
645 795
645 800
645 804
645 805
645 812
645 817
645 829
645 837
645 847
645 863
645 865
645 872
645 883
645 891
645 908
645 912
645 917
645 919
645 923
645 932
645 934
645 936
645 937
645 939
645 943
645 957
646 670
646 687
646 708
646 745
646 855
646 926
646 936
646 957
647 655
647 686
647 720
647 747
647 790
647 894
647 925
648 655
648 669
648 672
648 678
648 681
648 689
648 715
648 717
648 718
648 728
648 738
648 743
648 751
648 760
648 791
648 825
648 851
648 872
648 873
648 878
648 888
648 892
648 917
648 921
648 932
648 958
649 663
649 708
649 743
649 745
649 746
649 747
649 759
649 785
649 842
649 855
649 860
649 871
649 887
649 891
649 903
649 926
649 940
649 949
649 960
650 655
650 774
650 791
650 794
650 817
650 846
650 848
650 872
650 875
650 957
651 678
651 730
652 696
653 872
653 934
653 937
654 758
654 803
654 807
654 814
654 855
654 869
654 872
654 876
654 935
654 939
655 668
655 677
655 678
655 714
655 728
655 739
655 743
655 787
655 796
655 804
655 811
655 818
655 853
655 855
655 860
655 862
655 867
655 870
655 888
655 905
655 907
655 912
655 918
655 925
655 927
655 932
655 937
655 954
655 955
656 678
656 745
657 716
657 772
658 670
658 690
658 699
658 746
658 807
658 810
658 859
658 885
658 888
658 939
659 736
659 757
659 773
659 829
659 947
659 953
661 845
662 757
662 940
663 722
663 917
665 717
665 805
666 669
666 678
666 688
666 733
666 736
666 747
666 791
666 844
666 859
666 888
666 940
667 670
667 685
667 791
667 829
668 678
668 688
668 700
668 703
668 710
668 719
668 721
668 747
668 753
668 759
668 792
668 796
668 798
668 807
668 836
668 855
668 859
668 872
668 873
668 879
668 887
668 907
668 908
668 926
668 927
668 935
668 940
668 953
668 959
669 688
669 717
669 737
669 753
669 850
669 872
669 956
670 684
670 685
670 703
670 708
670 721
670 728
670 769
670 773
670 832
670 867
670 872
670 873
670 891
670 904
670 925
670 934
670 950
670 956
670 958
671 841
671 920
671 951
672 678
672 840
673 720
673 902
673 958
674 707
674 842
675 703
675 719
675 722
675 759
675 795
675 872
675 925
675 929
675 961
677 696
677 747
677 790
677 894
677 925
678 680
678 687
678 689
678 690
678 695
678 696
678 702
678 709
678 714
678 715
678 718
678 721
678 728
678 730
678 738
678 739
678 741
678 743
678 746
678 747
678 751
678 753
678 767
678 768
678 773
678 782
678 795
678 796
678 798
678 805
678 807
678 810
678 835
678 836
678 838
678 840
678 841
678 842
678 850
678 851
678 852
678 855
678 857
678 877
678 881
678 885
678 886
678 888
678 891
678 892
678 894
678 902
678 907
678 910
678 912
678 917
678 925
678 927
678 929
678 936
678 941
678 942
678 943
678 944
678 954
678 955
678 959
679 708
679 732
679 769
679 823
680 687
680 701
680 708
680 709
680 717
680 733
680 746
680 747
680 757
680 759
680 780
680 792
680 807
680 829
680 836
680 859
680 863
680 868
680 887
680 907
680 956
681 684
681 711
681 721
681 793
681 820
681 847
681 851
681 873
681 912
681 952
681 961
682 821
682 841
682 874
682 885
682 925
684 687
684 689
684 722
684 732
684 743
684 746
684 757
684 759
684 769
684 791
684 794
684 811
684 823
684 825
684 831
684 865
684 870
684 872
684 888
685 720
685 791
685 876
685 926
686 717
686 774
686 817
686 869
686 894
686 934
686 957
687 708
687 709
687 717
687 722
687 732
687 739
687 745
687 747
687 769
687 811
687 823
687 863
687 865
687 866
687 868
687 893
687 935
687 936
688 753
688 791
688 792
688 844
688 870
688 872
688 878
688 888
688 939
689 713
689 769
689 807
689 832
689 835
689 869
689 878
689 915
689 917
689 928
690 696
690 697
690 721
690 730
690 804
690 824
690 836
690 851
690 887
690 923
691 724
691 895
691 899
691 957
692 693
692 717
692 855
692 891
692 929
692 937
693 918
693 929
695 797
696 698
696 717
696 731
696 736
696 740
696 767
696 804
696 929
696 937
696 947
696 948
696 953
697 721
697 760
697 804
697 851
697 891
697 911
698 745
698 746
698 747
698 804
698 807
698 918
699 856
699 859
699 897
699 956
700 709
700 710
700 717
700 732
700 733
700 746
700 747
700 759
700 934
700 940
700 952
700 958
701 717
702 721
702 737
702 738
702 862
702 888
702 894
702 937
702 961
703 708
703 722
703 733
703 768
703 772
703 784
703 791
703 795
703 863
703 865
703 874
703 883
703 925
703 935
704 754
704 833
704 841
704 858
705 721
705 728
705 743
705 807
705 808
705 847
705 888
705 891
705 927
705 940
705 959
707 722
707 791
707 829
707 870
707 947
708 709
708 713
708 719
708 732
708 739
708 745
708 746
708 747
708 752
708 753
708 759
708 769
708 780
708 805
708 811
708 812
708 836
708 859
708 865
708 866
708 868
708 872
708 878
708 883
708 888
708 893
708 912
708 926
708 936
708 940
708 949
708 956
708 959
709 711
709 732
709 741
709 746
709 753
709 756
709 774
709 792
709 795
709 801
709 807
709 811
709 812
709 823
709 829
709 836
709 846
709 859
709 865
709 879
709 887
709 935
709 958
710 745
710 792
710 891
710 926
710 952
711 739
711 743
711 747
711 773
711 804
711 806
711 807
711 811
711 831
711 842
711 855
711 888
711 904
711 907
711 912
711 940
711 949
711 958
712 733
712 752
712 759
712 773
712 832
712 868
712 952
713 732
713 756
713 823
713 829
713 872
714 728
714 753
714 818
714 862
714 894
714 905
714 912
714 932
714 936
715 717
715 721
715 728
715 776
715 808
715 820
715 831
715 840
715 847
715 851
715 852
715 878
716 727
716 845
717 729
717 737
717 738
717 745
717 757
717 780
717 829
717 840
717 855
717 859
717 863
717 872
717 888
717 917
717 929
717 937
718 751
718 829
718 840
718 949
719 723
719 752
719 773
719 793
719 816
719 829
719 859
719 894
719 907
719 925
719 959
721 779
721 780
721 785
721 796
721 807
721 808
721 810
721 820
721 841
721 852
721 888
721 911
721 912
721 955
722 768
722 784
722 791
722 825
722 865
722 870
724 727
724 836
724 841
724 884
724 899
725 750
725 764
725 794
725 841
726 890
727 742
727 746
727 747
727 750
727 754
727 794
727 869
727 899
727 945
728 745
728 768
728 782
728 791
728 818
728 820
728 825
728 851
728 852
728 885
728 894
728 937
728 958
730 824
730 847
730 911
730 915
730 923
731 735
732 741
732 746
732 769
732 793
732 804
732 812
732 823
732 836
732 866
732 869
732 872
732 928
733 864
733 934
734 742
734 799
734 883
736 757
736 773
736 829
736 844
736 947
736 953
736 956
737 738
737 751
737 755
737 776
737 787
737 850
737 886
737 937
738 743
738 751
738 760
738 776
738 795
738 807
738 881
738 917
738 923
739 747
739 761
739 832
739 862
739 888
739 893
739 912
739 936
741 756
741 759
741 792
741 793
741 804
741 807
741 812
741 829
741 848
741 888
741 891
741 923
741 939
742 841
743 766
743 804
743 832
743 860
743 883
743 894
743 917
744 757
744 946
745 746
745 747
745 837
745 856
745 866
745 868
745 872
745 874
745 878
745 879
745 888
745 891
745 910
745 914
745 926
745 940
745 941
746 750
746 754
746 769
746 812
746 859
746 865
746 872
746 879
746 883
746 887
746 939
746 946
746 958
747 753
747 757
747 794
747 795
747 798
747 805
747 836
747 872
747 891
747 893
747 907
747 910
747 940
747 947
747 948
747 953
748 929
749 769
749 891
749 913
749 949
750 754
750 764
750 771
750 807
750 869
750 916
751 776
751 780
751 810
751 855
751 863
751 872
751 881
751 886
751 936
751 937
752 759
752 773
752 829
752 838
752 857
752 863
752 894
752 925
752 926
752 931
752 959
753 760
753 785
753 794
753 798
753 801
753 807
753 836
753 844
753 872
753 888
753 894
753 917
753 956
754 808
754 869
754 899
754 916
755 850
755 877
755 909
755 937
756 805
756 829
756 836
756 837
756 875
756 942
756 954
757 759
757 772
757 804
757 807
757 872
757 875
757 940
757 948
757 953
759 760
759 762
759 773
759 791
759 792
759 807
759 831
759 853
759 855
759 863
759 886
759 891
759 895
759 907
759 926
759 937
759 952
759 953
760 802
760 911
761 774
761 859
762 821
763 951
764 888
764 899
764 906
764 913
764 922
766 888
767 941
768 811
768 818
768 885
768 894
768 912
768 932
768 955
769 774
769 780
769 812
769 829
769 836
769 846
769 904
769 939
770 812
770 899
771 854
771 899
771 907
771 945
772 836
772 947
772 959
773 832
773 864
773 894
773 905
773 917
773 925
773 952
773 953
773 957
774 793
774 805
774 846
774 853
774 857
774 859
774 875
774 877
774 891
774 918
774 927
774 954
774 957
776 798
776 840
776 881
776 888
777 888
779 854
779 865
779 889
780 796
780 848
780 872
780 878
780 887
780 888
780 939
780 950
784 832
784 865
784 879
784 949
784 958
785 832
785 873
785 917
787 790
787 804
787 842
788 865
788 907
788 949
789 865
789 894
789 921
790 810
790 820
790 867
790 894
790 902
790 905
790 932
791 806
791 811
791 831
791 855
791 865
791 872
791 878
791 888
791 917
791 919
791 936
791 956
792 806
792 822
792 836
792 851
792 872
792 873
792 887
792 891
792 904
792 907
792 926
792 940
793 814
793 836
793 876
793 905
793 915
794 795
794 804
794 805
794 812
794 823
794 829
794 835
794 836
794 865
794 868
794 872
794 875
794 908
794 939
794 957
795 879
795 929
795 935
795 937
795 947
795 959
796 820
796 841
796 852
796 887
796 915
796 919
796 927
796 934
796 943
798 881
798 937
799 922
800 805
800 845
800 930
801 807
801 810
801 872
803 814
803 829
803 882
803 897
804 812
804 829
804 853
804 878
804 888
804 894
804 905
804 914
804 932
804 953
804 954
804 957
805 806
805 807
805 817
805 829
805 835
805 863
805 864
805 869
805 891
805 897
805 926
805 957
806 863
806 888
807 820
807 824
807 835
807 847
807 852
807 862
807 872
807 875
807 878
807 888
807 891
807 907
807 911
807 923
807 937
807 943
807 957
807 961
808 847
808 852
808 873
810 850
810 871
810 888
810 891
810 919
810 926
810 952
811 907
811 958
812 829
812 836
812 872
814 863
814 931
817 846
817 869
817 908
817 934
818 894
820 835
820 852
820 855
820 873
820 888
821 930
821 945
822 866
822 894
822 902
822 940
823 836
823 868
824 923
826 876
828 897
829 836
829 837
829 855
829 859
829 863
829 869
829 872
829 885
829 887
829 914
829 935
829 939
829 953
831 891
831 936
832 851
832 879
832 912
832 917
834 933
835 939
836 846
836 859
836 865
836 872
836 875
836 923
836 935
836 939
837 846
837 875
837 876
837 919
837 943
837 949
838 903
840 865
840 872
840 917
840 937
841 847
841 911
841 959
842 872
842 939
844 870
844 872
844 878
844 888
844 956
845 889
846 853
846 855
846 875
846 883
846 907
846 914
847 851
847 888
847 904
847 911
851 852
851 888
851 936
852 888
852 936
852 958
853 876
853 893
853 926
853 931
853 957
854 899
855 857
855 885
855 887
855 888
855 891
855 904
855 929
855 937
855 940
855 953
855 958
856 881
857 885
857 925
857 927
859 865
859 869
859 907
859 957
859 959
860 865
860 888
862 888
862 905
862 912
862 917
862 932
862 937
863 886
863 893
863 903
863 926
863 931
864 925
865 866
865 870
865 873
865 889
865 907
865 921
865 926
865 935
865 949
865 952
865 959
865 961
866 878
866 888
866 939
867 894
868 950
869 916
869 957
870 878
870 956
871 891
871 907
872 879
872 883
872 888
872 891
872 893
872 902
872 908
872 921
872 934
872 935
872 936
872 937
872 940
872 946
872 952
873 888
873 918
873 940
874 891
874 926
874 949
875 914
876 907
876 957
878 888
878 905
878 912
878 940
878 956
879 887
881 888
881 912
881 937
882 888
883 917
884 887
885 927
885 932
885 949
886 888
886 891
886 927
886 937
887 891
887 907
887 958
888 891
888 893
888 907
888 912
888 918
888 923
888 927
888 932
888 936
888 939
888 949
888 956
891 905
891 919
891 925
891 926
891 932
891 937
891 940
891 958
893 936
894 905
894 912
894 932
894 949
895 957
897 957
900 940
900 952
904 907
904 918
904 940
904 943
904 946
904 958
905 912
905 917
905 936
905 937
905 954
907 918
907 926
907 958
908 952
908 957
911 923
912 927
912 932
912 937
912 958
914 949
914 952
915 928
917 932
917 961
918 940
918 956
925 927
925 932
925 957
925 958
926 935
926 949
927 932
927 934
927 937
927 956
927 957
928 948
929 937
932 935
932 936
932 937
934 952
935 940
936 949
939 950
939 957
940 958
943 949
944 952
947 948
957 959
