9602 9607
9604 9610
9581 9587
9526 9570
9600 9601
9567 9590
9539 9620
9529 9603
9630 9633
9630 9636
9565 9566
9528 9602
9527 9573
9618 9639
9575 9576
9551 9556
9535 9629
9552 9558
9566 9575
9619 9640
9553 9559
9562 9563
9591 9600
9592 9613
9541 9564
9540 9565
9597 9606
9626 9627
9632 9638
9542 9544
9518 9548
9572 9581
9571 9572
9528 9601
9577 9582
9517 9552
9605 9609
9604 9607
9564 9590
9634 9638
9549 9550
9522 9577
9530 9599
9603 9609
9543 9564
9521 9539
9567 9588
9555 9561
9580 9584
9596 9597
9521 9543
9580 9586
9533 9598
9557 9561
9568 9570
9538 9621
9590 9615
9532 9596
9523 9574
9622 9623
9631 9635
9578 9584
9518 9519
9550 9551
9525 9583
9537 9634
9593 9595
9536 9625
9542 9563
9538 9622
9579 9582
9618 9641
9524 9525
9605 9611
9532 9595
9539 9624
9617 9626
9540 9549
9524 9574
9592 9615
9529 9599
9545 9546
9559 9560
9564 9641
9520 9544
9521 9547
9610 9611
9519 9557
9583 9587
9628 9633
9568 9589
9523 9578
9526 9571
9579 9585
9525 9536
9540 9616
9535 9625
9527 9539
9619 9621
9554 9560
9606 9612
9527 9569
9522 9576
9554 9558
9524 9537
9517 9548
9631 9637
9629 9635
9553 9556
9518 9531
9616 9617
9593 9614
9520 9545
9520 9596
9531 9608
9533 9594
9541 9562
9519 9530
9520 9571
9533 9539
9534 9627
9534 9628
9546 9555
9623 9632
