0 1
0 15
0 16
0 23
0 59
0 71
0 87
0 91
0 92
0 102
0 104
0 111
0 135
0 142
0 148
0 153
0 203
0 206
0 221
0 225
0 228
0 231
0 235
0 260
0 269
0 274
0 286
0 310
0 316
0 323
0 333
0 372
0 383
0 384
0 387
0 398
0 405
0 407
0 409
0 438
0 457
0 509
0 537
0 554
0 561
0 562
0 574
0 579
0 605
0 626
0 644
0 649
0 678
0 696
0 705
0 708
0 717
0 741
0 759
0 780
0 792
0 796
0 805
0 806
0 848
0 850
0 852
0 863
0 866
0 888
0 891
0 893
0 903
1 15
1 18
1 23
1 87
1 90
1 121
1 146
1 193
1 203
1 221
1 228
1 235
1 242
1 274
1 283
1 286
1 289
1 307
1 323
1 327
1 378
1 415
1 418
1 452
1 528
1 573
1 574
1 598
1 601
1 613
1 626
1 678
1 704
1 757
1 803
1 829
1 848
1 865
1 869
1 897
1 903
1 956
1 957
2 678
3 4
3 20
3 209
3 270
3 591
3 800
3 821
3 845
3 930
4 9
4 33
4 46
4 77
4 82
4 121
4 241
4 242
4 272
4 296
4 337
4 427
4 433
4 466
4 524
4 526
4 534
4 548
4 568
4 632
4 654
4 759
4 774
4 821
4 854
4 876
4 878
4 895
4 913
5 63
5 72
5 203
5 264
5 283
5 412
5 414
5 560
5 794
5 805
5 812
6 33
6 60
6 77
6 118
6 173
6 260
6 364
6 372
6 415
6 450
6 471
6 489
6 561
6 568
6 571
6 583
6 607
6 721
6 770
6 807
6 827
6 828
6 874
6 889
7 60
7 102
7 152
7 407
7 600
7 681
7 795
7 832
8 18
8 76
8 85
8 131
8 146
8 150
8 203
8 259
8 301
8 430
8 439
8 487
8 493
8 494
8 520
8 556
8 561
8 577
8 580
8 596
8 626
8 678
8 706
8 715
8 722
8 782
8 789
8 790
8 825
8 859
8 867
8 876
8 894
8 905
8 958
9 15
9 18
9 29
9 53
9 71
9 72
9 80
9 84
9 97
9 113
9 131
9 148
9 153
9 161
9 171
9 183
9 197
9 221
9 227
9 243
9 245
9 274
9 307
9 311
9 365
9 370
9 372
9 380
9 407
9 412
9 415
9 429
9 454
9 470
9 473
9 488
9 528
9 554
9 606
9 632
9 658
9 668
9 690
9 696
9 698
9 746
9 747
9 757
9 812
9 836
9 873
9 877
9 911
9 944
9 948
9 953
10 20
10 33
10 37
10 43
10 257
10 336
10 364
10 369
10 371
10 372
10 466
10 477
10 498
10 526
10 531
10 544
10 591
10 607
10 625
10 709
10 711
10 726
10 742
10 821
10 827
10 828
10 841
10 924
10 933
10 951
11 177
11 184
11 224
11 299
11 562
12 17
12 160
12 424
12 442
12 446
12 573
12 658
12 688
12 699
12 745
12 809
12 844
12 896
13 100
13 865
13 909
13 925
14 45
14 216
14 261
14 314
14 383
14 743
14 780
14 796
14 888
14 961
15 63
15 149
15 203
15 231
15 235
15 274
15 307
15 323
15 325
15 327
15 336
15 365
15 378
15 384
15 554
15 560
15 573
15 626
15 643
15 698
15 757
15 794
15 812
15 829
15 836
15 846
15 848
15 872
15 957
16 24
16 71
16 144
16 145
16 153
16 183
16 221
16 229
16 243
16 250
16 264
16 269
16 290
16 327
16 380
16 395
16 402
16 403
16 412
16 455
16 500
16 537
16 574
16 578
16 632
16 651
16 690
16 721
16 730
16 741
16 760
16 804
16 807
16 824
16 851
16 891
16 911
16 923
16 939
17 54
17 112
17 146
17 195
17 255
17 258
17 275
17 281
17 306
17 409
17 421
17 496
17 529
17 619
17 667
17 699
17 707
17 795
17 863
17 888
17 894
18 47
18 93
18 104
18 148
18 162
18 178
18 185
18 188
18 189
18 213
18 231
18 261
18 282
18 287
18 307
18 308
18 310
18 314
18 316
18 327
18 330
18 342
18 399
18 403
18 409
18 423
18 451
18 479
18 525
18 529
18 539
18 554
18 562
18 571
18 616
18 626
18 631
18 691
18 705
18 730
18 737
18 738
18 753
18 796
18 805
18 820
18 829
18 840
18 850
18 855
18 881
18 905
18 911
18 937
18 942
18 957
18 958
19 486
19 575
19 854
19 899
19 923
20 57
20 207
20 369
20 575
20 625
20 800
20 930
21 51
21 93
21 112
21 162
21 213
21 245
21 362
21 383
21 399
21 428
21 447
21 490
21 644
21 648
21 684
21 687
21 708
21 722
21 732
21 746
21 823
21 831
21 868
22 89
22 249
22 292
22 535
22 539
22 707
22 860
22 883
23 203
23 323
23 384
24 71
24 97
24 144
24 145
24 149
24 153
24 159
24 183
24 208
24 215
24 221
24 229
24 247
24 274
24 331
24 372
24 395
24 455
24 500
24 578
24 598
24 645
24 678
24 696
24 711
24 715
24 730
24 741
24 824
24 865
24 888
24 904
24 911
24 918
25 70
25 73
25 102
25 104
25 200
25 203
25 216
25 301
25 320
25 342
25 368
25 376
25 405
25 516
25 585
25 717
25 737
25 888
25 892
26 631
26 654
27 43
27 82
27 204
27 337
27 450
27 531
27 534
27 575
27 632
27 726
27 821
27 837
27 845
27 907
27 930
28 48
28 152
28 405
28 639
28 666
29 34
29 100
29 202
29 205
29 227
29 244
29 259
29 260
29 272
29 278
29 307
29 308
29 318
29 323
29 327
29 331
29 365
29 397
29 414
29 422
29 443
29 454
29 455
29 482
29 509
29 517
29 523
29 525
29 528
29 541
29 560
29 578
29 579
29 601
29 628
29 645
29 678
29 713
29 747
29 757
29 772
29 774
29 803
29 807
29 853
29 859
29 875
29 885
29 891
29 907
29 918
29 954
29 957
29 959
30 142
30 156
30 181
30 385
30 469
30 577
30 591
30 648
30 670
30 708
30 752
30 759
30 851
30 873
30 925
30 949
31 39
31 56
31 198
31 244
31 287
31 322
31 327
31 438
31 442
31 455
31 643
31 678
31 689
31 804
31 846
31 897
32 45
33 43
33 99
33 118
33 170
33 220
33 224
33 245
33 251
33 270
33 366
33 372
33 489
33 531
33 575
33 607
33 620
33 725
33 742
33 762
33 770
33 874
33 949
34 63
34 205
34 228
34 241
34 259
34 325
34 331
34 422
34 489
34 525
34 531
34 609
34 626
34 678
34 743
34 804
34 807
34 853
34 869
34 897
34 907
34 932
34 954
35 75
35 140
35 209
35 238
35 267
35 308
35 397
35 463
35 482
35 584
35 903
36 678
37 101
37 251
37 427
37 486
37 704
37 779
37 841
37 888
37 889
38 47
38 98
38 133
38 135
38 154
38 159
38 205
38 229
38 235
38 248
38 273
38 274
38 314
38 325
38 368
38 402
38 409
38 425
38 445
38 465
38 487
38 541
38 561
38 614
38 645
38 646
38 650
38 678
38 737
38 745
38 773
38 810
38 888
38 957
39 58
39 63
39 86
39 202
39 209
39 219
39 238
39 259
39 267
39 283
39 292
39 413
39 422
39 438
39 455
39 470
39 487
39 528
39 571
39 601
39 798
39 804
39 812
39 856
39 859
39 887
39 914
39 928
39 939
40 75
40 179
40 194
40 214
40 270
40 548
40 671
40 682
40 920
41 102
41 636
41 717
42 783
43 65
43 119
43 124
43 137
43 140
43 170
43 173
43 184
43 224
43 251
43 318
43 336
43 337
43 412
43 420
43 462
43 466
43 524
43 526
43 583
43 625
43 654
43 724
43 725
43 754
43 758
43 769
43 770
43 845
43 945
44 49
44 89
44 102
44 144
44 154
44 235
44 255
44 258
44 264
44 298
44 306
44 314
44 339
44 383
44 409
44 537
44 586
44 631
44 667
44 678
44 711
44 728
44 820
44 862
44 936
44 958
44 961
45 78
45 102
45 154
45 187
45 193
45 248
45 250
45 261
45 269
45 292
45 314
45 320
45 443
45 447
45 460
45 529
45 561
45 617
45 622
45 667
45 715
45 743
45 760
45 773
45 780
45 791
45 860
45 894
45 901
45 961
46 58
46 95
46 138
46 175
46 193
46 203
46 226
46 300
46 325
46 392
46 410
46 428
46 473
46 475
46 541
46 560
46 617
46 638
46 741
46 759
46 791
46 805
46 836
46 872
46 914
46 957
47 74
47 88
47 127
47 136
47 145
47 161
47 163
47 176
47 189
47 200
47 216
47 231
47 247
47 250
47 259
47 269
47 300
47 314
47 381
47 394
47 395
47 399
47 419
47 431
47 437
47 460
47 468
47 487
47 529
47 533
47 557
47 561
47 570
47 578
47 580
47 581
47 589
47 594
47 599
47 609
47 614
47 632
47 645
47 646
47 678
47 690
47 714
47 718
47 721
47 737
47 738
47 768
47 790
47 798
47 835
47 851
47 867
47 893
47 905
47 912
47 917
47 936
48 133
48 135
48 153
48 159
48 260
48 269
48 298
48 314
48 385
48 479
48 555
48 561
48 594
48 619
48 670
48 676
48 712
48 733
48 865
48 873
48 888
49 94
49 130
49 200
49 215
49 231
49 352
49 357
49 421
49 570
49 630
49 665
49 718
49 776
49 791
49 844
49 881
49 888
50 552
50 727
50 869
51 52
51 71
51 72
51 74
51 126
51 131
51 145
51 146
51 157
51 160
51 161
51 175
51 197
51 207
51 213
51 221
51 228
51 229
51 233
51 235
51 245
51 254
51 255
51 257
51 259
51 263
51 283
51 292
51 308
51 324
51 328
51 360
51 372
51 382
51 397
51 399
51 402
51 406
51 412
51 418
51 431
51 442
51 457
51 463
51 488
51 494
51 503
51 542
51 554
51 561
51 562
51 645
51 658
51 664
51 680
51 684
51 687
51 689
51 708
51 709
51 712
51 727
51 732
51 745
51 750
51 754
51 774
51 780
51 793
51 794
51 795
51 804
51 807
51 823
51 832
51 837
51 868
51 869
51 888
51 899
51 907
51 915
51 928
52 102
52 149
52 255
52 287
52 406
52 412
52 442
52 501
52 504
52 617
52 645
52 649
52 708
52 756
52 792
52 829
52 836
52 872
52 875
52 883
52 949
53 153
53 161
53 162
53 205
53 286
53 328
53 372
53 402
53 406
53 412
53 415
53 423
53 475
53 494
53 538
53 573
53 632
53 644
53 804
54 70
54 102
54 225
54 235
54 258
54 283
54 285
54 310
54 314
54 501
54 636
54 702
54 760
54 840
54 875
54 894
54 912
55 131
55 142
55 146
55 154
55 160
55 165
55 245
55 259
55 277
55 292
55 310
55 314
55 435
55 487
55 488
55 493
55 586
55 591
55 600
55 615
55 709
55 722
55 780
55 784
55 832
55 851
55 859
55 949
56 58
56 74
56 80
56 118
56 133
56 202
56 230
56 231
56 255
56 283
56 292
56 300
56 311
56 416
56 428
56 466
56 495
56 520
56 535
56 549
56 561
56 571
56 607
56 649
56 668
56 670
56 678
56 700
56 708
56 709
56 710
56 745
56 759
56 788
56 810
56 865
56 869
56 879
56 887
56 888
56 891
56 921
56 926
56 940
56 952
57 369
57 635
58 140
58 141
58 143
58 144
58 146
58 165
58 205
58 228
58 231
58 245
58 283
58 292
58 312
58 324
58 327
58 342
58 372
58 428
58 440
58 470
58 471
58 473
58 525
58 557
58 593
58 596
58 609
58 616
58 631
58 649
58 668
58 759
58 790
58 792
58 855
58 872
58 879
58 887
58 891
58 904
58 907
58 940
58 958
59 74
59 102
59 111
59 126
59 181
59 191
59 203
59 316
59 342
59 361
59 372
59 428
59 483
59 521
59 557
59 592
59 649
59 669
59 700
59 708
59 717
59 747
59 780
59 787
59 801
59 805
59 863
59 937
59 939
59 952
60 102
60 145
60 161
60 177
60 178
60 183
60 198
60 210
60 213
60 228
60 229
60 240
60 255
60 282
60 290
60 292
60 307
60 347
60 361
60 378
60 380
60 389
60 404
60 425
60 427
60 455
60 465
60 478
60 492
60 495
60 497
60 525
60 528
60 561
60 569
60 573
60 601
60 625
60 645
60 650
60 651
60 699
60 715
60 717
60 779
60 780
60 792
60 794
60 803
60 805
60 831
60 841
60 888
60 933
61 678
62 87
62 97
62 161
62 190
62 198
62 206
62 215
62 219
62 237
62 240
62 457
62 549
62 557
62 579
62 688
62 804
62 805
62 829
62 872
63 71
63 88
63 90
63 97
63 125
63 126
63 144
63 145
63 153
63 154
63 162
63 180
63 181
63 182
63 183
63 197
63 198
63 205
63 209
63 219
63 226
63 228
63 238
63 244
63 264
63 267
63 273
63 274
63 292
63 308
63 335
63 350
63 380
63 402
63 404
63 422
63 423
63 432
63 454
63 475
63 481
63 482
63 525
63 549
63 554
63 562
63 598
63 634
63 668
63 708
63 743
63 764
63 793
63 794
63 804
63 811
63 830
63 835
63 859
63 875
63 914
63 935
63 943
64 145
64 154
64 159
64 269
64 376
64 398
64 437
64 467
64 616
64 703
64 865
64 894
64 928
64 929
65 119
65 170
65 181
65 213
65 234
65 248
65 291
65 411
65 450
65 829
65 945
66 85
66 107
66 116
66 130
66 131
66 135
66 146
66 245
66 277
66 292
66 298
66 338
66 392
66 474
66 504
66 556
66 561
66 578
66 585
66 612
66 665
66 715
66 720
66 741
66 801
66 855
66 865
66 870
66 872
66 902
66 958
67 127
67 172
67 200
67 263
67 298
67 306
67 310
67 320
67 352
67 381
67 536
67 630
67 631
67 718
67 878
67 956
68 348
68 419
68 753
69 111
69 146
69 274
69 290
69 339
69 368
69 530
69 571
69 578
69 623
69 678
69 728
69 773
69 776
70 102
70 125
70 156
70 203
70 235
70 263
70 275
70 281
70 306
70 314
70 320
70 421
70 435
70 459
70 516
70 529
70 542
70 581
70 602
70 611
70 655
70 707
70 743
70 774
70 791
70 865
70 872
70 888
70 892
70 958
71 81
71 84
71 90
71 127
71 145
71 148
71 149
71 153
71 171
71 183
71 187
71 191
71 205
71 219
71 221
71 237
71 242
71 274
71 301
71 323
71 333
71 376
71 392
71 422
71 429
71 454
71 455
71 488
71 493
71 500
71 524
71 549
71 554
71 598
71 626
71 632
71 645
71 659
71 678
71 696
71 710
71 715
71 736
71 741
71 757
71 772
71 773
71 804
71 812
71 848
71 873
71 923
71 937
71 944
71 953
72 126
72 131
72 162
72 198
72 213
72 229
72 324
72 325
72 328
72 412
72 414
72 418
72 455
72 488
72 500
72 503
72 708
72 709
72 745
72 746
72 794
72 812
72 823
72 829
72 846
72 907
72 939
72 957
72 958
73 295
73 310
73 368
73 451
73 614
73 733
73 740
73 760
73 776
73 798
73 840
74 126
74 127
74 131
74 145
74 160
74 162
74 193
74 202
74 213
74 229
74 255
74 259
74 292
74 311
74 338
74 342
74 372
74 435
74 493
74 504
74 573
74 592
74 680
74 687
74 708
74 717
74 745
74 746
74 769
74 780
74 823
74 859
74 868
74 872
74 887
74 894
74 902
75 140
75 209
75 237
75 267
75 283
75 294
75 410
75 463
75 591
75 814
75 841
75 876
76 127
76 131
76 133
76 159
76 176
76 187
76 228
76 249
76 269
76 283
76 292
76 301
76 375
76 399
76 433
76 439
76 459
76 480
76 535
76 549
76 591
76 594
76 615
76 619
76 647
76 665
76 678
76 687
76 708
76 739
76 745
76 748
76 852
76 876
76 905
76 921
76 936
77 173
77 415
77 489
77 568
77 633
77 827
77 922
77 933
78 129
78 274
78 281
78 314
78 322
78 372
78 440
78 537
78 561
78 645
78 715
78 717
78 779
78 807
78 808
78 810
78 847
78 888
79 186
79 450
79 804
80 193
80 231
80 311
80 312
80 429
80 554
80 636
80 668
80 696
80 700
80 747
80 757
80 759
80 869
80 879
80 887
80 928
81 144
81 148
81 159
81 163
81 213
81 219
81 324
81 372
81 402
81 500
81 538
81 565
81 632
81 661
81 689
81 709
81 741
81 747
81 872
82 174
82 241
82 427
82 450
82 575
82 632
82 635
82 759
82 762
82 821
82 845
83 136
83 175
83 189
83 441
83 718
83 760
83 785
83 840
84 104
84 144
84 148
84 153
84 183
84 221
84 229
84 248
84 274
84 310
84 316
84 336
84 370
84 372
84 376
84 398
84 406
84 410
84 573
84 678
84 689
84 696
84 709
84 755
84 805
84 850
84 957
85 116
85 150
85 673
85 902
86 89
86 185
86 322
86 327
86 492
86 522
86 564
86 591
86 612
86 615
86 641
86 728
86 768
86 789
86 808
86 859
86 961
87 94
87 102
87 104
87 108
87 129
87 153
87 155
87 161
87 183
87 190
87 203
87 206
87 213
87 215
87 221
87 231
87 235
87 237
87 278
87 286
87 287
87 328
87 363
87 365
87 372
87 384
87 412
87 415
87 451
87 475
87 494
87 514
87 551
87 579
87 626
87 627
87 666
87 678
87 680
87 688
87 689
87 698
87 741
87 753
87 804
87 807
87 844
87 876
87 878
87 888
87 915
87 956
88 136
88 145
88 258
88 275
88 320
88 678
88 785
88 905
88 961
89 102
89 133
89 154
89 156
89 172
89 203
89 235
89 263
89 275
89 292
89 306
89 342
89 460
89 474
89 492
89 529
89 555
89 582
89 585
89 586
89 612
89 667
89 703
89 717
89 785
89 789
89 795
89 912
89 921
90 229
90 231
90 286
90 404
90 554
90 696
90 741
90 756
90 792
90 805
90 836
90 876
90 937
91 497
91 501
91 644
91 759
91 863
92 274
92 310
92 316
92 357
92 376
92 398
92 589
92 639
92 645
92 717
92 738
92 753
92 888
93 474
93 516
93 522
93 714
93 759
93 760
93 802
93 831
94 108
94 148
94 153
94 206
94 215
94 274
94 311
94 316
94 352
94 370
94 551
94 678
94 751
94 753
94 776
94 841
94 948
95 102
95 146
95 276
95 351
95 372
95 401
95 525
95 570
95 577
95 596
95 662
95 744
95 751
95 757
95 791
95 900
95 946
96 608
96 725
96 800
97 131
97 190
97 202
97 215
97 219
97 221
97 227
97 229
97 251
97 272
97 289
97 292
97 323
97 327
97 328
97 353
97 365
97 376
97 397
97 429
97 433
97 454
97 455
97 482
97 528
97 549
97 601
97 628
97 645
97 757
97 761
97 804
97 836
97 853
97 919
97 939
97 948
97 954
97 957
98 102
98 146
98 163
98 202
98 203
98 225
98 228
98 235
98 258
98 283
98 290
98 312
98 410
98 417
98 419
98 442
98 515
98 549
98 562
98 565
98 584
98 591
98 636
98 644
98 666
98 668
98 680
98 684
98 685
98 692
98 700
98 702
98 719
98 747
98 791
98 850
98 894
98 934
98 937
98 940
99 114
99 259
99 344
99 488
99 597
99 709
99 756
99 770
99 836
100 102
100 110
100 133
100 145
100 150
100 162
100 197
100 203
100 213
100 233
100 263
100 308
100 324
100 330
100 344
100 353
100 397
100 399
100 412
100 418
100 433
100 473
100 521
100 538
100 580
100 585
100 600
100 638
100 647
100 673
100 680
100 708
100 709
100 713
100 769
100 774
100 787
100 793
100 820
100 823
100 832
100 837
100 842
100 868
100 872
100 888
100 907
100 927
100 939
100 949
101 137
101 173
101 207
101 251
101 334
101 336
101 372
101 382
101 408
101 526
101 682
101 721
101 796
101 841
101 911
102 105
102 125
102 154
102 156
102 158
102 159
102 160
102 161
102 168
102 172
102 187
102 190
102 195
102 203
102 209
102 222
102 228
102 230
102 236
102 254
102 255
102 263
102 265
102 276
102 284
102 285
102 290
102 300
102 301
102 310
102 311
102 320
102 321
102 342
102 351
102 368
102 387
102 388
102 392
102 399
102 401
102 405
102 415
102 428
102 435
102 437
102 442
102 447
102 459
102 473
102 494
102 495
102 497
102 501
102 504
102 509
102 516
102 517
102 520
102 525
102 529
102 530
102 542
102 560
102 565
102 570
102 571
102 577
102 581
102 582
102 585
102 588
102 596
102 605
102 606
102 610
102 611
102 616
102 636
102 638
102 643
102 645
102 649
102 662
102 675
102 681
102 684
102 685
102 692
102 693
102 700
102 717
102 729
102 743
102 759
102 766
102 784
102 790
102 791
102 792
102 811
102 844
102 853
102 855
102 860
102 870
102 872
102 883
102 888
102 893
102 900
102 917
102 921
102 925
102 937
102 940
102 946
102 950
102 956
103 157
103 207
103 224
103 239
103 329
103 415
103 420
103 453
103 462
103 526
103 531
103 583
103 605
103 625
103 742
103 749
103 830
103 906
103 907
103 922
104 148
104 153
104 155
104 171
104 189
104 191
104 200
104 227
104 235
104 274
104 286
104 289
104 327
104 328
104 361
104 370
104 376
104 380
104 457
104 520
104 623
104 629
104 645
104 696
104 717
104 730
104 738
104 755
104 794
104 804
104 911
105 111
105 203
105 461
105 610
105 644
105 678
105 737
105 753
105 844
105 878
105 956
106 263
106 303
106 324
106 362
106 373
106 619
106 636
106 647
106 825
106 892
107 150
107 322
107 327
107 556
107 580
107 585
107 615
107 673
107 902
108 155
108 190
108 240
108 278
108 347
108 412
108 415
108 472
108 481
108 507
108 528
108 540
108 568
108 626
108 629
108 731
108 735
108 740
108 803
109 137
109 147
109 151
109 173
109 174
109 204
109 266
109 268
109 283
109 319
109 336
109 498
109 520
109 575
109 691
109 742
109 774
109 846
109 898
109 933
109 957
110 159
110 199
110 228
110 283
110 416
110 435
110 447
110 527
110 557
110 600
110 678
110 792
111 129
111 138
111 203
111 223
111 265
111 290
111 292
111 298
111 443
111 567
111 595
111 630
111 644
111 666
111 688
111 694
111 832
111 844
111 888
112 142
112 160
112 195
112 202
112 203
112 285
112 290
112 292
112 298
112 320
112 381
112 419
112 435
112 449
112 459
112 467
112 528
112 530
112 584
112 603
112 631
112 670
112 675
112 684
112 722
112 728
112 784
112 839
112 867
112 936
113 229
113 267
113 331
113 336
113 372
113 404
113 406
113 425
113 455
113 465
113 470
113 541
113 549
113 578
113 579
113 643
113 650
113 678
113 690
113 715
113 794
113 817
113 859
113 869
113 908
113 957
114 149
114 237
114 267
114 311
114 397
114 414
114 433
114 438
114 500
114 517
114 524
114 597
114 617
114 626
114 654
114 709
114 713
114 829
114 837
114 863
115 230
115 237
115 366
115 466
115 503
115 520
115 549
115 644
115 645
115 649
115 685
115 745
115 784
115 788
115 865
115 874
115 891
115 919
115 926
115 949
116 150
116 580
116 673
117 120
117 135
117 138
117 159
117 162
117 190
117 226
117 249
117 256
117 308
117 319
117 320
117 328
117 375
117 386
117 389
117 415
117 540
117 561
117 571
117 616
117 649
117 718
117 745
117 751
117 774
117 781
117 832
117 855
117 887
117 888
117 911
117 925
117 927
117 961
118 170
118 220
118 224
118 256
118 366
118 466
118 531
118 534
118 575
118 607
118 788
118 821
119 213
119 224
119 234
119 248
119 291
119 450
119 456
119 575
119 734
119 829
120 146
120 147
120 182
120 183
120 202
120 205
120 245
120 256
120 267
120 272
120 286
120 312
120 372
120 394
120 417
120 561
120 578
120 579
120 602
120 609
120 613
120 640
120 643
120 709
120 745
120 761
120 774
120 804
120 835
120 957
121 241
121 829
122 429
122 747
123 156
123 287
123 313
123 491
123 678
123 767
123 835
123 941
124 177
124 453
124 455
124 462
124 562
124 764
124 830
124 951
125 141
125 145
125 225
125 235
125 263
125 290
125 308
125 310
125 374
125 381
125 435
125 459
125 561
125 582
125 591
125 603
125 655
125 666
125 675
125 692
125 728
125 743
125 791
125 862
125 864
125 888
125 891
125 905
125 961
126 131
126 162
126 197
126 245
126 259
126 289
126 327
126 328
126 361
126 372
126 387
126 397
126 402
126 412
126 448
126 482
126 517
126 538
126 543
126 553
126 670
126 687
126 708
126 709
126 732
126 746
126 772
126 780
126 793
126 794
126 804
126 805
126 823
126 829
126 836
126 859
126 868
126 872
126 939
126 950
127 146
127 154
127 162
127 172
127 175
127 191
127 221
127 235
127 254
127 259
127 292
127 301
127 306
127 372
127 380
127 388
127 392
127 428
127 434
127 435
127 440
127 492
127 493
127 497
127 514
127 518
127 524
127 570
127 577
127 586
127 588
127 630
127 639
127 644
127 647
127 666
127 668
127 669
127 677
127 678
127 688
127 702
127 708
127 709
127 715
127 736
127 746
127 747
127 753
127 772
127 794
127 844
127 865
127 872
127 878
127 888
127 891
127 894
127 927
127 934
127 937
127 949
127 953
127 956
127 958
128 154
128 231
128 249
128 258
128 294
128 320
128 330
128 451
128 535
128 631
128 872
128 891
128 894
128 950
129 274
129 284
129 310
129 514
129 567
129 737
129 753
129 760
129 878
129 891
130 189
130 200
130 230
130 316
130 342
130 357
130 362
130 373
130 390
130 460
130 480
130 639
130 678
130 717
130 737
130 795
130 872
130 892
131 154
131 160
131 162
131 165
131 171
131 193
131 202
131 213
131 245
131 254
131 260
131 292
131 301
131 312
131 326
131 328
131 372
131 399
131 442
131 488
131 493
131 500
131 538
131 554
131 571
131 573
131 581
131 594
131 646
131 658
131 687
131 706
131 709
131 710
131 722
131 732
131 746
131 780
131 794
131 795
131 811
131 836
131 866
131 872
131 878
131 886
131 887
131 888
131 893
131 921
131 947
131 958
132 678
133 141
133 142
133 150
133 156
133 160
133 178
133 180
133 248
133 255
133 259
133 263
133 292
133 298
133 310
133 311
133 314
133 320
133 338
133 383
133 409
133 435
133 467
133 492
133 515
133 555
133 591
133 611
133 615
133 663
133 670
133 674
133 684
133 703
133 708
133 709
133 712
133 722
133 744
133 745
133 747
133 748
133 784
133 788
133 790
133 793
133 829
133 832
133 842
133 865
133 872
133 883
133 888
133 893
133 912
133 921
134 154
134 228
134 249
134 409
134 449
134 619
134 722
135 152
135 175
135 222
135 228
135 230
135 235
135 269
135 301
135 310
135 316
135 332
135 339
135 350
135 387
135 436
135 437
135 480
135 492
135 497
135 533
135 539
135 616
135 638
135 649
135 711
135 715
135 717
135 730
135 810
135 855
135 857
135 885
135 888
135 891
135 907
135 936
135 958
136 189
136 231
136 320
136 529
136 672
136 702
136 728
136 798
136 840
136 881
136 905
137 145
137 147
137 151
137 170
137 229
137 268
137 309
137 336
137 360
137 372
137 393
137 408
137 411
137 450
137 498
137 632
137 633
137 637
137 645
137 678
137 691
137 726
137 779
137 841
137 845
137 874
137 891
137 911
137 923
137 933
137 951
137 957
138 143
138 237
138 248
138 325
138 326
138 327
138 347
138 381
138 564
138 643
138 649
138 678
138 710
138 712
138 805
138 829
138 855
138 863
138 874
138 903
138 926
138 957
139 269
139 386
139 555
139 561
139 670
139 721
139 733
139 864
139 888
139 925
140 160
140 183
140 238
140 263
140 267
140 294
140 310
140 356
140 463
140 474
140 525
140 547
140 584
140 635
140 699
140 885
140 957
140 959
141 142
141 146
141 314
141 327
141 374
141 435
141 511
141 528
141 600
141 602
141 721
141 728
141 791
141 820
142 250
142 264
142 281
142 314
142 383
142 385
142 436
142 469
142 493
142 581
142 600
142 639
142 670
142 703
142 705
142 715
142 780
142 784
142 792
142 796
142 806
142 820
142 832
142 851
142 863
142 865
142 873
142 879
143 146
143 229
143 290
143 372
143 473
143 530
143 578
143 631
143 649
143 678
143 697
143 759
143 871
143 891
143 904
143 907
143 940
144 145
144 161
144 165
144 171
144 183
144 193
144 205
144 229
144 245
144 264
144 267
144 292
144 300
144 311
144 312
144 327
144 363
144 372
144 392
144 404
144 429
144 433
144 454
144 455
144 457
144 460
144 471
144 475
144 494
144 500
144 504
144 517
144 528
144 541
144 549
144 554
144 601
144 645
144 655
144 690
144 696
144 698
144 732
144 753
144 794
144 824
144 836
144 860
144 875
144 887
144 944
144 950
144 954
145 146
145 153
145 154
145 155
145 161
145 183
145 205
145 208
145 246
145 249
145 267
145 269
145 283
145 292
145 311
145 372
145 387
145 415
145 425
145 455
145 456
145 470
145 471
145 475
145 487
145 500
145 504
145 541
145 561
145 578
145 616
145 626
145 645
145 667
145 668
145 675
145 678
145 690
145 709
145 780
145 792
145 794
145 804
145 805
145 835
145 860
145 923
145 929
145 935
145 950
145 957
146 148
146 159
146 162
146 187
146 202
146 203
146 213
146 222
146 226
146 235
146 247
146 249
146 254
146 258
146 259
146 267
146 272
146 274
146 283
146 290
146 292
146 295
146 298
146 301
146 302
146 307
146 308
146 314
146 319
146 320
146 354
146 378
146 384
146 397
146 402
146 407
146 409
146 410
146 416
146 425
146 428
146 431
146 435
146 440
146 443
146 455
146 463
146 495
146 501
146 504
146 530
146 537
146 541
146 553
146 557
146 578
146 591
146 602
146 609
146 616
146 623
146 626
146 630
146 646
146 648
146 650
146 655
146 666
146 667
146 670
146 678
146 684
146 703
146 708
146 747
146 752
146 753
146 774
146 791
146 794
146 804
146 807
146 812
146 846
146 857
146 859
146 860
146 862
146 865
146 872
146 887
146 894
146 897
146 905
146 908
146 925
146 927
146 937
146 949
146 957
146 958
147 196
147 220
147 266
147 268
147 309
147 364
147 372
147 378
147 389
147 477
147 608
147 678
147 828
147 899
147 933
148 153
148 183
148 208
148 215
148 219
148 221
148 254
148 269
148 274
148 298
148 307
148 310
148 316
148 327
148 350
148 363
148 368
148 372
148 395
148 406
148 409
148 434
148 457
148 472
148 501
148 504
148 507
148 524
148 528
148 554
148 557
148 561
148 573
148 578
148 613
148 623
148 626
148 634
148 645
148 648
148 690
148 705
148 715
148 717
148 718
148 738
148 741
148 753
148 851
148 891
148 911
148 917
148 923
148 953
149 155
149 197
149 202
149 205
149 215
149 228
149 264
149 267
149 325
149 333
149 347
149 380
149 404
149 412
149 417
149 422
149 429
149 440
149 444
149 471
149 482
149 493
149 495
149 503
149 524
149 538
149 549
149 560
149 573
149 580
149 601
149 643
149 659
149 668
149 678
149 686
149 757
149 773
149 792
149 804
149 823
149 829
149 904
149 953
150 322
150 373
150 435
150 551
150 561
150 585
150 589
150 612
150 647
150 673
150 677
150 678
150 720
150 894
151 251
151 498
151 575
151 632
151 691
151 725
151 742
151 951
151 957
152 229
152 295
152 320
152 442
152 558
152 560
152 603
152 636
152 638
152 785
153 161
153 171
153 183
153 188
153 190
153 200
153 206
153 213
153 221
153 242
153 243
153 254
153 264
153 274
153 311
153 323
153 324
153 328
153 335
153 347
153 363
153 403
153 418
153 423
153 454
153 457
153 463
153 475
153 483
153 487
153 492
153 494
153 500
153 507
153 542
153 554
153 557
153 563
153 601
153 606
153 616
153 632
153 634
153 639
153 643
153 645
153 651
153 689
153 708
153 732
153 780
153 807
153 812
153 829
153 836
153 840
153 872
153 878
153 911
153 929
153 931
154 165
154 168
154 176
154 183
154 195
154 202
154 203
154 205
154 233
154 237
154 245
154 247
154 248
154 249
154 254
154 259
154 263
154 269
154 273
154 275
154 292
154 298
154 314
154 320
154 327
154 336
154 338
154 342
154 361
154 400
154 431
154 433
154 435
154 443
154 467
154 488
154 492
154 496
154 501
154 522
154 525
154 530
154 549
154 561
154 605
154 619
154 631
154 632
154 636
154 645
154 646
154 668
154 673
154 674
154 678
154 681
154 684
154 709
154 711
154 714
154 715
154 717
154 719
154 722
154 739
154 746
154 760
154 773
154 784
154 785
154 793
154 794
154 795
154 807
154 829
154 832
154 859
154 863
154 867
154 872
154 883
154 905
154 912
154 932
154 934
154 935
155 206
155 211
155 221
155 235
155 245
155 264
155 274
155 278
155 289
155 331
155 372
155 457
155 551
155 554
155 574
155 689
155 741
155 756
155 878
155 897
155 904
156 202
156 222
156 228
156 235
156 236
156 259
156 263
156 275
156 356
156 375
156 405
156 442
156 459
156 465
156 494
156 530
156 570
156 599
156 649
156 708
156 773
156 793
156 811
156 865
156 883
156 885
156 910
156 912
156 935
156 958
157 178
157 204
157 239
157 360
157 382
157 561
157 575
157 727
157 750
157 754
157 933
158 516
158 585
158 872
159 183
159 189
159 200
159 213
159 219
159 222
159 226
159 235
159 254
159 255
159 283
159 287
159 290
159 311
159 324
159 335
159 357
159 375
159 377
159 398
159 423
159 431
159 433
159 437
159 451
159 467
159 479
159 483
159 492
159 500
159 507
159 516
159 521
159 528
159 529
159 554
159 565
159 573
159 579
159 584
159 585
159 596
159 612
159 616
159 639
159 645
159 646
159 651
159 672
159 675
159 692
159 693
159 761
159 791
159 801
159 805
159 855
159 865
159 876
159 885
159 891
159 927
159 929
159 934
159 936
159 937
159 952
159 954
160 165
160 168
160 175
160 208
160 233
160 247
160 273
160 292
160 294
160 321
160 326
160 330
160 338
160 342
160 383
160 494
160 504
160 511
160 515
160 517
160 525
160 527
160 543
160 555
160 584
160 634
160 641
160 644
160 649
160 658
160 668
160 700
160 746
160 784
160 795
160 814
160 829
160 872
160 883
160 887
160 896
160 903
160 917
160 929
160 935
160 959
161 197
161 198
161 213
161 221
161 229
161 282
161 339
161 352
161 355
161 363
161 369
161 372
161 402
161 406
161 412
161 418
161 475
161 486
161 541
161 554
161 573
161 594
161 678
161 690
161 709
161 721
161 732
161 746
161 780
161 807
161 864
161 888
161 912
161 936
161 939
161 950
162 190
162 197
162 205
162 213
162 263
162 274
162 287
162 308
162 312
162 321
162 328
162 332
162 340
162 355
162 358
162 372
162 397
162 399
162 412
162 417
162 455
162 457
162 463
162 485
162 488
162 503
162 511
162 524
162 537
162 538
162 562
162 575
162 605
162 655
162 678
162 679
162 680
162 684
162 687
162 689
162 701
162 708
162 732
162 769
162 780
162 811
162 823
162 829
162 835
162 836
162 859
162 865
162 868
162 872
162 918
162 943
163 213
163 255
163 259
163 300
163 358
163 361
163 402
163 406
163 418
163 473
163 484
163 518
163 549
163 553
163 557
163 591
163 610
163 670
163 688
163 752
163 780
163 797
163 855
163 939
163 940
163 950
164 191
164 428
164 460
164 669
164 700
164 708
164 722
164 747
164 865
164 872
164 893
165 193
165 202
165 231
165 245
165 292
165 312
165 435
165 470
165 504
165 525
165 668
165 687
165 700
165 709
165 722
165 733
165 747
165 753
165 784
165 791
165 805
165 859
165 869
165 872
165 879
165 883
165 887
165 935
166 608
166 671
166 764
166 827
167 193
167 229
167 245
167 308
167 312
167 318
167 363
167 432
167 451
167 517
167 645
167 654
167 810
167 837
167 850
167 869
167 876
167 919
168 259
168 353
168 445
168 501
168 521
168 591
168 636
168 829
168 831
168 846
168 876
168 926
169 678
170 173
170 184
170 234
170 411
170 489
170 575
170 749
170 764
170 783
170 891
170 924
170 945
170 949
171 183
171 205
171 215
171 274
171 307
171 310
171 316
171 363
171 365
171 370
171 372
171 376
171 457
171 478
171 488
171 554
171 573
171 717
171 730
171 755
171 807
171 829
171 873
171 923
171 944
171 947
172 263
172 275
172 298
172 306
172 314
172 320
172 421
172 570
172 595
172 630
172 645
172 956
173 251
173 334
173 495
173 526
173 637
173 779
173 828
173 841
173 945
174 241
174 296
174 759
174 821
175 203
175 248
175 294
175 325
175 330
175 407
175 410
175 467
175 643
175 649
175 673
175 680
175 703
175 712
175 746
175 805
175 812
175 829
175 865
176 250
176 269
176 272
176 292
176 298
176 320
176 399
176 419
176 533
176 535
176 619
176 655
176 711
176 728
176 768
176 894
176 905
176 936
177 251
177 282
177 453
177 455
177 562
177 625
177 830
178 224
178 239
178 251
178 282
178 372
178 415
178 453
178 575
178 605
178 608
178 625
178 764
178 841
178 854
178 906
178 913
178 922
178 933
179 194
179 270
179 366
179 575
179 682
179 742
179 764
179 951
179 959
180 253
180 294
180 555
180 959
181 233
181 234
181 323
181 353
181 385
181 448
181 469
181 482
181 517
181 562
181 591
181 645
181 649
181 685
181 708
181 726
181 759
181 761
181 801
181 810
181 814
181 829
181 853
181 903
181 926
182 183
182 238
182 267
182 301
182 327
182 328
182 409
182 417
182 455
182 524
182 528
182 542
182 547
182 554
182 555
182 560
182 591
182 616
182 629
182 678
182 761
182 780
182 804
182 832
182 859
182 885
182 953
182 957
183 197
183 205
183 209
183 213
183 219
183 221
183 264
183 267
183 274
183 316
183 347
183 363
183 370
183 398
183 404
183 412
183 429
183 443
183 454
183 455
183 456
183 463
183 475
183 495
183 500
183 517
183 525
183 554
183 573
183 598
183 601
183 632
183 651
183 655
183 668
183 755
183 792
183 824
183 848
183 864
183 877
183 887
183 907
183 923
183 928
183 953
184 538
184 575
184 654
184 758
185 199
185 228
185 263
185 327
185 373
185 492
185 577
185 617
185 631
185 678
185 739
185 760
185 825
185 840
185 867
186 196
186 544
186 661
186 804
186 911
187 205
187 247
187 249
187 258
187 259
187 269
187 292
187 314
187 381
187 419
187 455
187 460
187 525
187 535
187 609
187 616
187 655
187 667
187 678
187 703
187 705
187 714
187 743
187 752
187 773
187 790
187 796
187 804
187 857
187 872
187 885
187 908
187 925
187 932
188 198
188 245
188 287
188 325
188 335
188 347
188 402
188 412
188 418
188 423
188 563
188 678
188 689
188 730
188 807
188 918
189 231
189 370
189 436
189 441
189 648
189 715
189 717
189 753
189 798
189 840
189 856
189 881
190 203
190 206
190 221
190 243
190 256
190 278
190 336
190 363
190 454
190 457
190 472
190 501
190 507
190 514
190 526
190 588
190 628
190 666
190 688
190 844
190 956
191 221
191 228
191 265
191 301
191 320
191 333
191 352
191 372
191 376
191 392
191 428
191 610
191 648
191 669
191 688
191 696
191 702
191 708
191 717
191 737
191 745
191 747
191 791
191 822
191 872
191 878
191 888
191 932
191 937
191 956
192 239
192 913
193 202
193 231
193 260
193 311
193 312
193 326
193 327
193 404
193 407
193 433
193 495
193 504
193 517
193 525
193 549
193 557
193 571
193 577
193 605
193 617
193 668
193 708
193 709
193 745
193 746
193 792
193 795
193 810
193 829
193 836
193 837
193 865
193 869
193 879
193 887
193 908
193 940
193 952
194 270
194 682
194 951
195 247
195 254
195 285
195 292
195 318
195 381
195 383
195 406
195 522
195 525
195 555
195 561
195 617
195 619
195 667
195 703
195 722
195 753
195 780
195 874
195 907
196 224
196 499
196 508
196 661
196 804
196 821
196 930
197 213
197 221
197 228
197 237
197 245
197 267
197 312
197 324
197 328
197 340
197 347
197 363
197 397
197 399
197 402
197 406
197 418
197 450
197 455
197 475
197 488
197 524
197 528
197 538
197 560
197 594
197 670
197 678
197 679
197 686
197 687
197 708
197 709
197 746
197 747
197 769
197 780
197 811
197 812
197 823
197 836
197 859
197 868
197 872
197 907
197 915
197 939
198 203
198 219
198 244
198 287
198 312
198 335
198 344
198 347
198 438
198 454
198 455
198 457
198 524
198 601
198 643
198 689
198 732
198 756
198 820
198 885
198 897
198 928
198 947
199 294
199 383
199 447
199 600
199 648
199 811
199 842
200 221
200 231
200 295
200 298
200 310
200 314
200 320
200 342
200 350
200 352
200 368
200 372
200 373
200 409
200 451
200 461
200 529
200 536
200 557
200 559
200 573
200 588
200 614
200 616
200 623
200 639
200 648
200 665
200 669
200 672
200 728
200 738
200 753
200 755
200 760
200 798
200 832
200 860
200 881
200 912
200 917
200 936
201 254
201 283
201 308
201 319
201 356
201 473
201 493
201 540
201 774
201 895
201 925
201 927
202 203
202 229
202 243
202 245
202 254
202 259
202 272
202 308
202 311
202 312
202 326
202 327
202 338
202 373
202 390
202 419
202 433
202 435
202 470
202 495
202 504
202 527
202 555
202 557
202 560
202 591
202 643
202 663
202 668
202 687
202 708
202 709
202 746
202 747
202 773
202 792
202 811
202 824
202 836
202 853
202 859
202 869
202 872
202 879
202 883
202 921
202 935
202 940
203 221
203 228
203 231
203 235
203 247
203 255
203 259
203 260
203 273
203 274
203 283
203 285
203 286
203 300
203 306
203 308
203 312
203 378
203 387
203 407
203 410
203 421
203 439
203 440
203 442
203 455
203 474
203 483
203 487
203 494
203 495
203 497
203 504
203 507
203 515
203 516
203 528
203 565
203 584
203 585
203 591
203 594
203 595
203 603
203 632
203 644
203 646
203 655
203 666
203 668
203 675
203 680
203 684
203 688
203 694
203 700
203 702
203 703
203 708
203 717
203 719
203 722
203 739
203 741
203 745
203 747
203 751
203 753
203 759
203 766
203 791
203 811
203 836
203 837
203 844
203 850
203 863
203 872
203 883
203 887
203 888
203 891
203 897
203 907
203 908
203 912
203 928
203 934
203 936
203 959
204 257
204 329
204 382
204 450
204 624
204 632
204 727
204 746
204 754
204 830
204 846
204 869
204 913
205 209
205 229
205 259
205 262
205 285
205 308
205 318
205 333
205 356
205 395
205 399
205 404
205 406
205 407
205 415
205 423
205 425
205 440
205 442
205 451
205 454
205 455
205 465
205 494
205 500
205 504
205 516
205 518
205 520
205 524
205 528
205 533
205 546
205 554
205 562
205 616
205 644
205 645
205 650
205 686
205 690
205 698
205 705
205 721
205 736
205 746
205 757
205 759
205 769
205 773
205 790
205 791
205 794
205 804
205 808
205 812
205 835
205 846
205 849
205 859
205 865
205 869
205 872
205 875
205 876
205 882
205 894
205 903
205 907
205 908
205 923
205 939
205 952
205 953
206 215
206 454
206 688
206 753
206 844
207 251
207 278
207 304
207 309
207 365
207 366
207 369
207 408
207 450
207 464
207 500
207 526
207 578
207 727
207 741
207 750
207 779
207 858
207 891
208 233
208 263
208 338
208 412
208 435
208 511
208 634
208 641
208 794
208 876
208 957
209 226
209 232
209 233
209 238
209 259
209 279
209 283
209 347
209 422
209 463
209 500
209 501
209 515
209 591
209 635
209 709
209 756
209 759
209 761
209 774
209 780
209 800
209 814
209 829
209 859
209 869
209 876
209 907
209 926
209 947
209 959
210 365
210 481
210 626
210 654
210 803
210 829
210 882
211 221
211 235
211 245
211 344
211 551
211 574
211 597
211 709
211 741
211 746
211 756
212 865
213 219
213 225
213 245
213 249
213 255
213 263
213 291
213 324
213 328
213 355
213 358
213 361
213 372
213 399
213 402
213 404
213 406
213 417
213 418
213 431
213 456
213 463
213 538
213 553
213 575
213 594
213 601
213 625
213 632
213 643
213 670
213 678
213 680
213 684
213 687
213 689
213 709
213 725
213 727
213 732
213 742
213 746
213 779
213 780
213 807
213 811
213 823
213 829
213 836
213 847
213 872
213 882
213 932
213 939
213 957
214 466
215 264
215 274
215 310
215 311
215 327
215 363
215 365
215 398
215 405
215 454
215 457
215 463
215 500
215 553
215 573
215 574
215 614
215 616
215 626
215 658
215 689
215 738
215 753
215 755
215 807
215 829
215 850
215 878
215 886
215 888
215 939
215 943
216 258
216 315
216 381
216 419
216 562
216 603
216 639
216 655
216 702
217 432
217 463
217 931
218 250
218 260
218 336
218 678
218 912
219 254
219 256
219 289
219 292
219 307
219 347
219 380
219 412
219 525
219 606
219 651
219 661
219 678
219 696
219 743
219 780
219 804
219 829
219 836
219 840
219 856
219 872
219 914
219 939
220 336
220 366
220 607
220 757
220 788
220 874
221 228
221 235
221 245
221 264
221 269
221 278
221 284
221 289
221 301
221 307
221 320
221 327
221 331
221 335
221 338
221 344
221 350
221 368
221 370
221 372
221 376
221 378
221 380
221 384
221 401
221 409
221 429
221 442
221 457
221 469
221 475
221 554
221 557
221 578
221 616
221 645
221 669
221 678
221 686
221 690
221 696
221 700
221 709
221 718
221 746
221 756
221 772
221 794
221 804
221 829
221 878
221 888
221 914
221 917
221 923
221 948
221 956
222 229
222 405
222 425
222 437
222 585
222 855
222 958
224 234
224 248
224 450
224 462
224 466
224 531
224 575
224 607
224 624
224 635
224 725
224 734
224 769
224 829
225 250
225 255
225 258
225 260
225 264
225 269
225 314
225 323
225 339
225 383
225 398
225 487
225 493
225 528
225 537
225 557
225 561
225 616
225 670
225 702
225 721
225 728
225 796
225 820
225 852
225 872
225 888
225 934
225 952
226 264
226 267
226 455
226 562
226 579
226 601
226 743
226 804
226 911
227 229
227 328
227 412
227 429
227 678
227 696
227 698
227 717
227 807
227 817
227 953
228 229
228 237
228 242
228 250
228 261
228 272
228 275
228 308
228 310
228 311
228 320
228 328
228 330
228 349
228 368
228 399
228 405
228 406
228 407
228 409
228 416
228 428
228 449
228 455
228 495
228 525
228 533
228 536
228 554
228 573
228 574
228 584
228 591
228 619
228 631
228 636
228 648
228 663
228 665
228 668
228 670
228 678
228 680
228 696
228 717
228 722
228 728
228 737
228 746
228 751
228 780
228 805
228 807
228 810
228 840
228 855
228 867
228 872
228 875
228 887
228 891
228 926
228 928
228 940
229 248
229 267
229 269
229 290
229 308
229 327
229 331
229 336
229 338
229 356
229 365
229 368
229 395
229 404
229 406
229 416
229 422
229 425
229 435
229 440
229 442
229 445
229 453
229 454
229 455
229 487
229 488
229 504
229 523
229 530
229 541
229 557
229 560
229 561
229 566
229 571
229 598
229 605
229 610
229 614
229 646
229 650
229 655
229 678
229 686
229 697
229 709
229 715
229 717
229 721
229 730
229 737
229 746
229 756
229 759
229 773
229 774
229 804
229 805
229 807
229 812
229 823
229 829
229 834
229 837
229 846
229 859
229 886
229 887
229 888
229 889
229 907
229 908
229 911
229 912
229 935
229 936
229 942
229 951
229 954
229 957
230 235
230 298
230 373
230 383
230 405
230 436
230 460
230 480
230 525
230 533
230 549
230 554
230 617
230 631
230 638
230 645
230 648
230 649
230 670
230 711
230 717
230 745
230 747
230 810
230 873
230 874
230 926
230 949
230 958
231 249
231 275
231 286
231 292
231 298
231 312
231 314
231 316
231 348
231 352
231 395
231 441
231 443
231 474
231 523
231 529
231 533
231 551
231 557
231 574
231 579
231 630
231 650
231 668
231 672
231 678
231 709
231 714
231 715
231 718
231 739
231 741
231 747
231 753
231 776
231 777
231 785
231 813
231 832
231 840
231 848
231 859
231 862
231 869
231 872
231 879
231 881
231 894
231 949
232 236
232 267
232 353
232 412
232 423
232 463
232 591
232 703
232 719
232 814
232 829
232 859
232 954
232 957
233 237
233 245
233 247
233 488
233 504
233 746
233 829
233 865
233 872
233 935
234 393
234 561
234 608
234 624
234 632
234 734
234 749
234 796
234 829
234 841
235 236
235 247
235 260
235 263
235 274
235 285
235 286
235 289
235 290
235 292
235 301
235 306
235 320
235 327
235 342
235 344
235 350
235 359
235 387
235 405
235 407
235 421
235 437
235 439
235 440
235 442
235 460
235 474
235 495
235 501
235 516
235 530
235 561
235 574
235 585
235 588
235 594
235 602
235 603
235 605
235 616
235 622
235 636
235 643
235 644
235 655
235 673
235 680
235 681
235 684
235 688
235 692
235 693
235 700
235 708
235 717
235 721
235 722
235 743
235 756
235 766
235 784
235 790
235 791
235 792
235 811
235 835
235 836
235 844
235 851
235 863
235 866
235 876
235 887
235 888
235 894
235 907
235 908
235 912
235 937
235 949
235 956
236 253
236 259
236 283
236 290
236 353
236 381
236 383
236 459
236 527
236 591
236 600
236 605
236 617
236 774
237 242
237 267
237 292
237 311
237 323
237 333
237 353
237 422
237 447
237 448
237 454
237 470
237 503
237 520
237 528
237 538
237 578
237 579
237 628
237 642
237 645
237 655
237 666
237 703
237 736
237 745
237 761
237 772
237 774
237 807
237 829
237 837
237 846
237 872
237 887
237 915
237 928
237 937
237 953
237 954
237 957
238 267
238 308
238 325
238 406
238 547
238 584
238 688
238 780
238 878
238 957
238 959
239 415
239 453
239 605
239 764
239 906
239 913
240 365
240 380
240 415
240 457
240 528
240 626
240 689
240 888
240 928
241 242
241 296
241 336
241 366
241 427
241 520
241 759
241 762
241 821
242 272
242 274
242 286
242 289
242 294
242 310
242 311
242 327
242 404
242 423
242 427
242 549
242 578
242 601
242 645
242 689
242 698
242 793
242 804
242 836
242 837
242 846
242 865
242 875
242 883
242 888
242 897
242 919
242 956
243 264
243 274
243 292
243 352
243 372
243 471
243 500
243 551
243 554
243 574
243 626
243 658
243 690
243 807
243 810
243 887
243 888
243 911
243 923
243 935
244 245
244 273
244 287
244 423
244 435
244 438
244 455
244 634
244 804
244 897
244 928
245 246
245 249
245 283
245 289
245 292
245 311
245 312
245 324
245 327
245 328
245 335
245 347
245 358
245 387
245 390
245 395
245 397
245 399
245 412
245 418
245 454
245 485
245 504
245 554
245 560
245 574
245 591
245 616
245 626
245 668
245 679
245 689
245 709
245 724
245 732
245 741
245 746
245 756
245 769
245 792
245 811
245 823
245 829
245 835
245 859
245 935
245 947
245 954
245 958
246 358
246 372
246 412
246 488
246 504
246 554
246 612
246 626
246 668
246 690
246 746
246 759
246 792
246 793
246 887
246 935
247 258
247 259
247 260
247 263
247 292
247 298
247 301
247 314
247 320
247 338
247 381
247 409
247 435
247 525
247 533
247 536
247 594
247 603
247 609
247 634
247 655
247 668
247 685
247 702
247 714
247 743
247 747
247 753
247 829
247 855
247 862
247 865
247 888
247 894
247 905
247 912
247 917
247 936
248 252
248 256
248 259
248 290
248 308
248 325
248 342
248 372
248 389
248 435
248 437
248 440
248 445
248 456
248 465
248 487
248 497
248 525
248 555
248 573
248 585
248 601
248 615
248 616
248 645
248 647
248 663
248 702
248 717
248 733
248 734
248 747
248 794
248 805
248 807
248 864
248 869
248 891
248 902
248 907
248 912
248 917
248 925
248 929
248 937
248 957
249 253
249 258
249 259
249 294
249 298
249 301
249 308
249 310
249 312
249 314
249 358
249 383
249 409
249 418
249 449
249 483
249 520
249 528
249 535
249 539
249 561
249 565
249 591
249 606
249 670
249 685
249 705
249 752
249 768
249 773
249 818
249 832
249 857
249 862
249 867
249 874
249 885
249 894
249 908
249 925
249 934
249 949
249 957
250 260
250 263
250 264
250 269
250 279
250 295
250 298
250 301
250 327
250 383
250 399
250 419
250 537
250 561
250 581
250 609
250 619
250 623
250 648
250 670
250 715
250 717
250 728
250 768
250 780
250 785
250 807
250 820
250 888
250 894
250 912
250 932
250 936
251 257
251 282
251 283
251 304
251 334
251 382
251 408
251 462
251 489
251 498
251 544
251 575
251 578
251 625
251 633
251 691
251 725
251 726
251 754
251 774
251 779
251 841
251 854
251 895
251 899
252 456
252 561
252 671
252 750
252 841
253 259
253 290
253 292
253 719
253 867
254 292
254 308
254 310
254 311
254 318
254 319
254 328
254 350
254 361
254 372
254 387
254 412
254 440
254 473
254 483
254 488
254 493
254 494
254 500
254 507
254 524
254 530
254 554
254 565
254 577
254 592
254 593
254 601
254 644
254 645
254 655
254 668
254 700
254 708
254 709
254 736
254 747
254 796
254 807
254 829
254 869
254 872
254 875
254 897
254 912
254 927
254 958
255 259
255 269
255 292
255 310
255 324
255 327
255 372
255 398
255 399
255 425
255 428
255 451
255 479
255 487
255 494
255 500
255 501
255 521
255 525
255 549
255 561
255 570
255 596
255 601
255 616
255 636
255 639
255 678
255 687
255 708
255 717
255 738
255 739
255 745
255 747
255 751
255 791
255 855
255 866
255 872
255 888
255 891
255 893
255 919
255 936
255 937
256 267
256 288
256 310
256 319
256 330
256 404
256 417
256 418
256 455
256 523
256 525
256 613
256 678
256 747
256 774
256 788
256 793
256 804
256 807
256 837
256 885
256 957
257 304
257 360
257 531
257 624
257 746
257 750
257 765
257 859
257 869
257 933
257 951
258 259
258 269
258 283
258 301
258 314
258 319
258 341
258 375
258 383
258 404
258 419
258 426
258 439
258 467
258 492
258 501
258 535
258 549
258 561
258 574
258 580
258 599
258 609
258 613
258 680
258 685
258 686
258 687
258 714
258 719
258 818
258 825
258 832
258 862
258 875
258 905
258 925
258 932
258 934
258 956
259 283
259 292
259 308
259 314
259 353
259 399
259 404
259 459
259 460
259 473
259 487
259 488
259 490
259 515
259 520
259 523
259 549
259 562
259 580
259 582
259 591
259 594
259 611
259 615
259 619
259 647
259 654
259 655
259 665
259 670
259 678
259 680
259 684
259 687
259 703
259 708
259 709
259 722
259 729
259 732
259 739
259 752
259 766
259 773
259 787
259 794
259 797
259 804
259 811
259 814
259 836
259 859
259 866
259 869
259 876
259 894
259 897
259 907
259 912
259 926
259 936
260 264
260 269
260 292
260 298
260 308
260 314
260 383
260 431
260 438
260 444
260 479
260 487
260 495
260 525
260 533
260 537
260 541
260 549
260 557
260 560
260 561
260 562
260 594
260 646
260 653
260 678
260 681
260 705
260 708
260 711
260 721
260 728
260 739
260 745
260 747
260 753
260 796
260 808
260 862
260 865
260 872
260 888
260 904
260 907
260 912
260 926
260 956
260 957
260 958
261 327
261 622
261 678
261 702
261 961
262 318
262 644
262 654
262 678
262 939
263 275
263 298
263 306
263 320
263 324
263 340
263 367
263 399
263 433
263 442
263 488
263 535
263 555
263 582
263 591
263 594
263 602
263 603
263 611
263 630
263 639
263 647
263 655
263 684
263 687
263 732
263 746
263 753
263 773
263 780
263 784
263 811
263 823
263 836
263 872
263 883
263 894
264 295
264 314
264 323
264 327
264 331
264 383
264 395
264 418
264 440
264 444
264 457
264 465
264 471
264 500
264 507
264 528
264 537
264 557
264 578
264 588
264 598
264 623
264 626
264 628
264 632
264 645
264 651
264 681
264 690
264 697
264 705
264 715
264 717
264 728
264 730
264 741
264 804
264 805
264 810
264 811
264 847
264 851
264 852
264 897
264 911
264 923
265 388
265 409
265 570
265 641
265 669
265 684
265 688
265 702
265 736
265 844
265 878
265 888
265 925
266 268
266 309
266 372
266 389
267 308
267 322
267 325
267 327
267 363
267 410
267 415
267 440
267 463
267 475
267 500
267 503
267 515
267 517
267 520
267 523
267 525
267 574
267 591
267 605
267 632
267 709
267 719
267 733
267 756
267 759
267 793
267 804
267 853
267 859
267 864
267 891
267 895
267 908
267 928
268 309
268 336
268 358
268 389
268 499
268 526
268 548
268 621
269 271
269 279
269 286
269 290
269 295
269 314
269 323
269 331
269 339
269 373
269 381
269 383
269 385
269 399
269 409
269 419
269 438
269 465
269 471
269 493
269 495
269 500
269 523
269 529
269 533
269 535
269 537
269 549
269 555
269 557
269 561
269 566
269 574
269 578
269 609
269 619
269 623
269 626
269 643
269 645
269 648
269 650
269 655
269 670
269 681
269 684
269 690
269 697
269 702
269 711
269 715
269 721
269 728
269 743
269 768
269 791
269 808
269 820
269 831
269 832
269 840
269 847
269 851
269 852
269 860
269 862
269 873
269 878
269 891
269 894
269 904
269 905
269 915
269 917
269 919
269 932
269 934
269 936
269 937
270 489
270 591
270 682
270 716
272 383
272 407
272 482
272 557
272 562
272 567
272 639
272 640
272 678
272 804
272 853
272 856
272 952
273 322
273 327
273 353
273 402
273 417
273 435
273 459
273 482
273 487
273 517
273 598
273 614
273 678
273 685
273 772
274 284
274 286
274 289
274 307
274 316
274 323
274 327
274 336
274 370
274 372
274 380
274 384
274 395
274 406
274 412
274 425
274 469
274 475
274 494
274 526
274 554
274 578
274 579
274 601
274 623
274 643
274 645
274 648
274 650
274 651
274 688
274 689
274 690
274 696
274 741
274 747
274 779
274 793
274 794
274 796
274 805
274 824
274 841
274 848
274 850
274 851
274 859
274 869
274 876
274 878
274 917
274 923
274 944
275 292
275 301
275 310
275 320
275 350
275 400
275 409
275 421
275 443
275 468
275 566
275 582
275 645
275 667
275 785
275 855
275 917
276 351
276 645
276 744
276 757
276 929
276 940
276 946
277 306
277 320
277 447
277 492
277 585
277 673
277 678
277 703
277 715
277 784
277 863
277 902
277 905
278 347
278 365
278 415
278 455
278 472
278 540
278 554
278 626
278 678
278 735
278 740
278 803
279 561
279 678
279 681
279 709
279 794
279 894
279 912
280 310
280 545
280 737
281 338
281 435
281 561
281 590
281 623
281 791
281 806
281 873
281 891
282 369
282 408
282 462
282 479
282 486
282 561
282 770
282 779
282 796
282 841
282 854
282 899
283 294
283 326
283 353
283 412
283 413
283 418
283 463
283 498
283 515
283 520
283 525
283 527
283 574
283 584
283 591
283 613
283 650
283 691
283 712
283 752
283 759
283 761
283 774
283 793
283 822
283 836
283 850
283 891
283 908
283 915
283 927
283 942
283 959
284 290
284 339
284 359
284 460
284 475
284 529
284 573
284 623
284 627
284 645
284 688
284 746
284 776
284 791
284 832
284 844
284 888
284 912
284 917
285 308
285 353
285 383
285 455
285 617
285 644
285 650
285 667
285 685
285 703
285 722
285 795
285 872
285 912
286 327
286 370
286 376
286 378
286 384
286 438
286 457
286 500
286 574
286 579
286 598
286 613
286 626
286 643
286 650
286 678
286 690
286 741
286 753
286 755
286 824
286 829
286 836
286 848
286 859
286 894
286 911
286 923
286 957
287 322
287 412
287 423
287 428
287 438
287 475
287 485
287 503
287 541
287 563
287 578
287 647
287 655
287 686
287 698
287 745
287 772
287 794
287 803
287 837
287 883
287 902
287 914
287 915
287 928
287 939
287 957
289 365
289 494
289 551
289 574
289 579
289 678
289 735
289 804
289 829
289 897
290 314
290 324
290 327
290 368
290 395
290 399
290 404
290 407
290 419
290 460
290 469
290 497
290 501
290 525
290 533
290 560
290 561
290 562
290 567
290 571
290 578
290 579
290 585
290 591
290 595
290 598
290 615
290 644
290 684
290 688
290 693
290 712
290 717
290 728
290 753
290 760
290 766
290 776
290 810
290 820
290 878
290 883
290 886
290 891
290 905
290 925
290 929
290 937
290 952
290 956
291 420
291 450
291 456
291 575
291 829
291 933
292 294
292 298
292 308
292 312
292 314
292 338
292 349
292 400
292 409
292 412
292 419
292 422
292 431
292 432
292 435
292 440
292 443
292 449
292 460
292 474
292 487
292 493
292 495
292 500
292 504
292 523
292 525
292 549
292 555
292 586
292 591
292 594
292 595
292 615
292 617
292 619
292 631
292 645
292 648
292 668
292 670
292 675
292 678
292 684
292 700
292 703
292 708
292 709
292 715
292 721
292 739
292 747
292 748
292 757
292 768
292 784
292 796
292 798
292 811
292 836
292 859
292 862
292 865
292 867
292 869
292 879
292 883
292 907
292 908
292 936
292 957
292 958
293 438
293 915
294 330
294 404
294 442
294 447
294 460
294 463
294 470
294 504
294 527
294 557
294 584
294 649
294 705
294 712
294 747
294 793
294 808
294 817
294 855
294 864
294 882
294 935
294 959
295 314
295 342
295 362
295 368
295 373
295 390
295 469
295 556
295 566
295 576
295 613
295 623
295 648
295 655
295 669
295 672
295 675
295 715
295 728
295 768
295 851
295 917
296 427
296 466
296 520
296 534
296 759
297 845
298 301
298 306
298 320
298 361
298 381
298 395
298 400
298 409
298 435
298 501
298 536
298 555
298 570
298 586
298 588
298 599
298 631
298 670
298 681
298 685
298 711
298 722
298 743
298 760
298 791
298 832
298 836
298 837
298 855
298 862
298 879
298 905
298 917
298 953
300 308
300 312
300 314
300 355
300 402
300 418
300 495
300 533
300 658
300 668
300 670
300 700
300 708
300 721
300 737
300 753
300 831
300 869
300 872
300 879
300 939
301 312
301 314
301 319
301 320
301 338
301 352
301 409
301 439
301 460
301 492
301 497
301 524
301 529
301 561
301 585
301 611
301 616
301 623
301 638
301 643
301 645
301 648
301 649
301 659
301 665
301 678
301 681
301 697
301 705
301 711
301 717
301 736
301 745
301 791
301 807
301 832
301 851
301 883
301 885
301 888
301 891
301 894
301 912
301 927
301 958
302 897
303 459
303 600
303 617
303 619
303 647
303 677
303 678
303 752
303 774
303 798
303 855
303 881
304 329
304 360
304 727
304 746
304 750
304 754
304 916
304 933
305 399
306 409
306 460
306 492
306 556
306 580
306 591
306 606
306 630
306 667
306 685
306 718
306 912
306 956
307 312
307 327
307 353
307 361
307 376
307 378
307 380
307 384
307 406
307 412
307 423
307 425
307 488
307 528
307 554
307 573
307 626
307 643
307 678
307 709
307 772
307 805
307 829
307 853
307 859
307 873
307 885
307 919
307 928
307 948
307 954
307 956
307 957
308 311
308 312
308 326
308 327
308 330
308 354
308 377
308 378
308 415
308 418
308 440
308 455
308 463
308 469
308 487
308 504
308 507
308 517
308 525
308 528
308 547
308 555
308 562
308 571
308 577
308 584
308 585
308 602
308 605
308 609
308 647
308 649
308 667
308 668
308 675
308 693
308 698
308 705
308 732
308 739
308 747
308 752
308 759
308 761
308 774
308 796
308 808
308 845
308 852
308 853
308 865
308 872
308 883
308 887
308 888
308 907
308 908
308 919
308 925
308 926
308 927
308 932
308 934
308 959
309 336
309 366
309 372
309 517
309 761
310 314
310 316
310 327
310 331
310 332
310 335
310 342
310 347
310 350
310 370
310 395
310 405
310 415
310 440
310 460
310 463
310 473
310 483
310 487
310 492
310 528
310 545
310 551
310 560
310 574
310 603
310 613
310 614
310 616
310 632
310 636
310 645
310 649
310 658
310 678
310 688
310 689
310 705
310 707
310 717
310 718
310 730
310 733
310 737
310 755
310 776
310 778
310 780
310 787
310 790
310 795
310 835
310 864
310 865
310 872
310 881
310 891
310 907
310 911
310 917
310 934
310 937
310 946
310 956
311 312
311 316
311 358
311 363
311 372
311 404
311 412
311 433
311 440
311 452
311 459
311 493
311 495
311 503
311 504
311 515
311 525
311 528
311 551
311 554
311 555
311 573
311 658
311 668
311 675
311 689
311 715
311 746
311 747
311 792
311 836
311 852
311 869
311 879
311 883
311 887
311 911
311 927
311 935
311 940
312 319
312 339
312 397
312 406
312 415
312 434
312 473
312 487
312 495
312 525
312 557
312 570
312 593
312 613
312 668
312 687
312 708
312 711
312 713
312 747
312 753
312 780
312 790
312 792
312 850
312 851
312 859
312 865
312 866
312 872
312 888
312 891
312 927
312 939
312 940
312 956
312 958
313 678
313 696
313 767
313 941
314 316
314 320
314 321
314 322
314 324
314 327
314 339
314 350
314 352
314 357
314 368
314 373
314 383
314 399
314 435
314 437
314 444
314 460
314 468
314 473
314 487
314 490
314 495
314 501
314 515
314 537
314 557
314 560
314 561
314 578
314 594
314 601
314 622
314 623
314 627
314 647
314 648
314 660
314 666
314 670
314 677
314 678
314 684
314 702
314 705
314 707
314 715
314 717
314 718
314 738
314 739
314 760
314 776
314 781
314 784
314 787
314 789
314 790
314 797
314 808
314 820
314 840
314 847
314 860
314 865
314 878
314 885
314 886
314 894
314 908
314 912
314 917
314 929
314 932
314 937
314 961
315 562
316 328
316 330
316 342
316 352
316 357
316 359
316 368
316 370
316 398
316 405
316 415
316 428
316 457
316 465
316 533
316 616
316 636
316 645
316 669
316 678
316 689
316 696
316 715
316 717
316 737
316 738
316 751
316 753
316 755
316 855
316 872
316 888
316 891
317 775
317 786
317 829
318 328
318 402
318 455
318 459
318 494
318 520
318 528
318 562
318 575
318 644
318 829
318 869
318 872
318 876
318 882
319 356
319 386
319 404
319 416
319 473
319 493
319 540
319 616
319 650
319 682
319 686
319 705
319 774
319 857
319 895
319 908
319 925
320 327
320 352
320 365
320 381
320 405
320 409
320 421
320 426
320 431
320 435
320 442
320 443
320 447
320 460
320 461
320 468
320 480
320 500
320 511
320 528
320 529
320 539
320 555
320 560
320 566
320 570
320 582
320 586
320 589
320 603
320 606
320 630
320 631
320 636
320 645
320 648
320 655
320 667
320 678
320 681
320 714
320 718
320 739
320 751
320 753
320 759
320 760
320 773
320 785
320 791
320 798
320 840
320 872
320 879
320 912
320 935
320 936
320 956
321 326
321 336
321 437
321 455
321 617
321 645
321 648
321 689
321 743
321 805
321 825
321 863
321 903
322 327
322 492
322 527
322 614
322 673
322 678
322 746
322 855
322 902
323 335
323 353
323 378
323 381
323 406
323 423
323 455
323 463
323 528
323 561
323 573
323 578
323 705
323 796
323 829
323 853
323 859
323 885
323 931
323 939
324 397
324 399
324 405
324 457
324 516
324 525
324 530
324 538
324 539
324 573
324 585
324 616
324 619
324 631
324 687
324 692
324 708
324 746
324 823
324 829
324 855
324 907
324 937
324 953
324 961
325 389
325 402
325 406
325 410
325 445
325 465
325 487
325 489
325 524
325 531
325 541
325 573
325 616
325 634
325 686
325 736
325 757
325 773
325 794
325 805
325 829
325 846
325 897
325 908
325 957
326 389
326 398
326 467
326 471
326 504
326 515
326 543
326 560
326 571
326 577
326 584
326 605
326 616
326 644
326 645
326 649
326 668
326 708
326 733
326 745
326 747
326 791
326 822
326 865
326 866
326 872
326 900
327 328
327 330
327 333
327 349
327 391
327 392
327 399
327 402
327 406
327 435
327 438
327 449
327 459
327 492
327 493
327 500
327 501
327 518
327 525
327 537
327 542
327 549
327 554
327 557
327 573
327 579
327 590
327 614
327 616
327 626
327 632
327 645
327 648
327 680
327 681
327 687
327 689
327 696
327 698
327 709
327 722
327 736
327 745
327 746
327 747
327 757
327 796
327 816
327 820
327 829
327 855
327 859
327 866
327 869
327 872
327 885
327 902
327 908
327 940
327 943
327 947
327 961
328 347
328 402
328 412
328 418
328 428
328 455
328 456
328 473
328 475
328 488
328 500
328 503
328 517
328 541
328 549
328 632
328 643
328 644
328 645
328 654
328 661
328 684
328 689
328 705
328 709
328 730
328 732
328 746
328 794
328 812
328 823
328 829
328 868
328 872
328 891
328 911
328 914
328 928
329 360
329 552
329 727
329 750
329 754
329 869
330 407
330 413
330 527
330 560
330 675
330 678
330 781
330 793
330 795
330 883
330 885
331 404
331 406
331 455
331 463
331 465
331 551
331 686
331 709
331 715
331 741
331 772
331 792
331 836
331 859
331 934
332 405
332 626
332 631
332 665
332 680
333 380
333 392
333 429
333 524
333 569
333 636
333 696
333 736
333 747
333 757
333 804
333 829
333 929
333 947
333 948
333 953
334 464
334 575
334 632
334 637
334 725
334 754
334 779
334 807
334 841
334 858
335 347
335 376
335 378
335 404
335 412
335 423
335 454
335 455
335 488
335 521
335 563
335 616
335 690
335 774
335 794
335 804
335 807
335 829
335 914
335 939
335 954
336 360
336 378
336 406
336 408
336 425
336 445
336 450
336 455
336 456
336 498
336 511
336 534
336 541
336 544
336 574
336 583
336 625
336 632
336 637
336 650
336 678
336 682
336 724
336 804
336 836
336 841
336 845
336 877
336 899
336 911
336 923
336 945
336 957
337 526
337 635
337 759
337 821
337 845
338 345
338 400
338 409
338 422
338 443
338 459
338 511
338 520
338 540
338 561
338 591
338 615
338 626
338 641
338 649
338 663
338 666
338 669
338 678
338 703
338 709
338 772
338 788
338 791
338 831
338 832
338 842
338 865
338 878
339 383
339 473
339 561
339 602
339 616
339 617
339 623
339 678
339 684
339 785
339 807
339 820
339 864
339 891
339 900
339 907
339 932
340 347
340 412
340 418
340 507
340 538
340 708
340 794
340 829
340 872
340 939
341 381
341 599
341 949
342 354
342 361
342 372
342 387
342 409
342 428
342 492
342 551
342 567
342 570
342 573
342 614
342 639
342 669
342 673
342 678
342 702
342 707
342 717
342 729
342 737
342 760
342 776
342 789
342 840
342 917
342 921
342 936
343 810
343 888
344 414
344 551
344 597
344 709
344 756
344 829
344 836
344 837
344 855
344 943
346 524
347 412
347 417
347 520
347 524
347 538
347 562
347 579
347 601
347 649
347 689
347 709
347 746
347 755
347 769
347 794
347 805
347 807
347 812
347 836
347 846
347 869
347 872
347 897
347 904
347 942
347 943
347 953
348 753
348 813
349 703
349 722
350 370
350 380
350 398
350 401
350 415
350 450
350 545
350 567
350 678
350 696
350 698
350 776
350 835
350 850
350 855
350 878
350 888
351 401
351 571
351 678
351 757
352 359
352 372
352 442
352 469
352 475
352 493
352 529
352 588
352 602
352 616
352 626
352 632
352 672
352 684
352 708
352 718
352 737
352 751
352 760
352 787
352 791
352 798
352 832
352 836
352 881
352 888
352 915
352 925
352 937
352 956
353 378
353 397
353 412
353 417
353 454
353 455
353 591
353 732
353 752
353 774
353 814
353 846
353 849
353 853
353 876
353 954
354 579
354 678
354 717
354 745
354 957
355 399
355 474
355 475
355 479
355 553
355 673
355 780
355 907
356 455
356 465
356 473
356 541
356 805
356 895
356 908
356 925
356 927
356 957
357 639
357 738
358 475
358 554
358 579
358 632
358 658
358 668
358 670
358 708
358 709
358 769
358 780
358 939
359 405
359 718
359 737
359 751
359 840
359 855
360 750
360 869
360 899
361 370
361 376
361 387
361 390
361 392
361 418
361 488
361 492
361 561
361 592
361 680
361 708
361 717
361 738
361 746
361 755
361 757
361 780
361 790
361 835
361 859
361 872
361 937
362 383
362 447
362 480
362 648
362 728
362 831
363 372
363 423
363 454
363 488
363 500
363 507
363 528
363 554
363 573
363 579
363 643
363 651
363 688
363 708
363 807
363 837
363 844
363 853
363 888
363 915
363 944
363 956
364 371
364 372
364 489
364 750
364 828
364 841
364 922
364 933
365 370
365 372
365 415
365 481
365 494
365 528
365 553
365 569
365 629
365 643
365 678
365 807
365 829
365 836
365 846
365 869
365 877
365 882
365 888
365 937
365 939
365 943
365 949
366 372
366 450
366 531
366 543
366 561
366 583
366 607
366 624
366 716
366 727
366 757
366 762
366 770
366 788
366 933
367 370
367 433
367 663
367 894
368 422
368 436
368 469
368 473
368 480
368 557
368 571
368 576
368 578
368 600
368 648
368 689
368 696
368 715
368 737
368 738
368 751
368 776
368 790
368 872
368 873
369 414
369 427
369 456
369 479
369 515
369 633
369 635
369 709
369 724
369 749
369 833
369 945
370 372
370 376
370 398
370 457
370 632
370 678
370 696
370 717
370 737
370 741
370 755
370 841
370 850
370 855
370 881
370 907
370 937
371 709
371 711
371 828
371 899
371 922
371 933
372 376
372 378
372 387
372 404
372 450
372 455
372 457
372 475
372 489
372 494
372 495
372 500
372 507
372 526
372 530
372 538
372 541
372 553
372 554
372 565
372 573
372 574
372 632
372 650
372 658
372 668
372 680
372 686
372 709
372 711
372 717
372 764
372 769
372 807
372 824
372 827
372 829
372 841
372 845
372 854
372 859
372 872
372 907
372 918
372 933
372 937
372 939
372 940
372 957
372 958
373 405
373 415
373 436
373 533
373 539
373 561
373 576
373 639
373 648
373 768
373 840
373 888
373 949
374 435
374 582
374 602
374 743
374 806
374 888
375 383
375 469
375 479
375 492
375 523
375 591
375 630
375 739
375 862
376 380
376 387
376 398
376 412
376 573
376 689
376 717
376 737
376 738
376 755
376 829
376 850
376 937
376 947
377 712
377 927
378 384
378 423
378 488
378 560
378 601
378 626
378 643
378 648
378 724
378 732
378 774
378 829
378 956
379 836
380 392
380 524
380 569
380 573
380 678
380 690
380 698
380 717
380 732
380 757
380 804
380 878
380 937
380 948
381 383
381 394
381 395
381 440
381 528
381 556
381 579
381 595
381 599
381 609
381 617
381 619
381 655
381 678
381 714
381 719
381 728
381 733
381 768
381 818
381 862
381 867
381 891
381 925
381 932
382 408
382 704
382 727
382 750
382 754
382 858
382 869
382 899
382 916
383 419
383 471
383 479
383 480
383 487
383 537
383 561
383 591
383 617
383 648
383 667
383 670
383 685
383 705
383 721
383 728
383 780
383 796
383 851
383 852
383 867
383 888
383 905
383 961
384 412
384 517
384 551
384 573
384 574
384 579
384 648
384 678
384 807
385 469
385 539
385 591
385 619
385 670
385 814
385 829
385 851
385 863
385 873
385 903
385 932
386 561
386 616
386 887
386 888
386 925
387 390
387 398
387 492
387 573
387 574
387 592
387 606
387 614
387 626
387 648
387 668
387 708
387 709
387 717
387 746
387 757
387 759
387 769
387 780
387 859
387 902
387 937
388 644
388 666
388 669
388 717
388 878
388 956
389 525
389 537
389 561
389 571
389 605
389 668
389 721
389 736
389 792
389 822
389 887
389 907
389 952
389 953
390 488
390 492
390 574
390 631
390 707
390 717
390 859
390 865
390 869
390 872
390 935
391 649
391 759
391 885
392 429
392 473
392 569
392 592
392 696
392 747
392 757
392 853
392 947
392 948
393 397
393 575
393 624
393 749
393 764
393 888
393 891
393 899
393 949
394 530
394 533
394 655
394 678
394 728
394 768
394 818
394 905
395 412
395 428
395 437
395 442
395 455
395 474
395 509
395 557
395 561
395 571
395 578
395 585
395 603
395 639
395 648
395 650
395 651
395 693
395 697
395 741
395 753
395 759
395 760
395 810
395 824
395 840
395 851
395 855
395 888
395 891
395 911
395 923
395 932
395 937
396 477
397 399
397 402
397 432
397 433
397 455
397 475
397 594
397 708
397 713
397 732
397 756
397 793
397 807
397 811
397 829
397 868
397 919
397 939
397 950
398 428
398 437
398 441
398 487
398 497
398 501
398 565
398 590
398 596
398 614
398 616
398 678
398 687
398 737
398 751
398 850
398 855
398 885
398 908
398 929
398 934
398 952
399 402
399 490
399 533
399 560
399 566
399 594
399 602
399 655
399 678
399 684
399 687
399 708
399 714
399 717
399 721
399 794
399 811
399 862
399 865
399 872
399 893
399 912
399 917
399 925
399 932
399 936
399 950
399 958
400 435
400 722
400 836
401 423
401 744
401 757
401 855
401 872
401 940
402 418
402 431
402 450
402 457
402 474
402 475
402 501
402 503
402 507
402 515
402 525
402 528
402 530
402 538
402 553
402 565
402 594
402 601
402 632
402 643
402 658
402 670
402 675
402 680
402 703
402 708
402 713
402 716
402 721
402 747
402 769
402 829
402 914
402 939
402 957
403 651
403 678
403 847
403 911
404 406
404 418
404 425
404 455
404 494
404 523
404 528
404 549
404 554
404 562
404 601
404 645
404 650
404 655
404 663
404 668
404 685
404 709
404 746
404 755
404 774
404 791
404 793
404 804
404 817
404 837
404 846
404 847
404 862
404 875
404 876
404 887
404 891
404 895
404 908
404 925
404 957
405 436
405 480
405 533
405 539
405 554
405 558
405 616
405 638
405 678
405 692
405 717
405 730
405 795
405 855
405 891
405 907
405 958
406 425
406 444
406 465
406 494
406 495
406 517
406 541
406 560
406 644
406 690
406 696
406 705
406 756
406 780
406 792
406 804
406 817
406 823
406 875
406 887
406 888
406 923
407 439
407 467
407 475
407 509
407 562
407 591
407 616
407 668
407 669
407 678
407 684
407 871
407 883
407 888
407 891
407 908
407 918
407 919
407 944
407 952
407 956
408 450
408 704
408 756
408 841
408 858
409 417
409 431
409 443
409 492
409 496
409 529
409 555
409 557
409 566
409 585
409 587
409 589
409 595
409 603
409 606
409 641
409 644
409 645
409 672
409 678
409 689
409 695
409 706
409 715
409 717
409 718
409 743
409 773
409 777
409 785
409 795
409 840
409 860
409 878
409 888
409 912
409 917
410 440
410 445
410 557
410 616
410 650
410 700
410 705
410 759
410 791
410 876
410 878
410 895
410 915
411 575
411 632
411 671
411 734
411 884
411 920
411 924
411 945
412 422
412 423
412 435
412 450
412 464
412 472
412 488
412 494
412 495
412 503
412 517
412 520
412 524
412 525
412 549
412 551
412 560
412 563
412 574
412 578
412 601
412 642
412 643
412 654
412 668
412 678
412 689
412 690
412 708
412 724
412 745
412 746
412 747
412 764
412 774
412 790
412 792
412 793
412 794
412 804
412 812
412 815
412 822
412 823
412 829
412 846
412 869
412 872
412 875
412 885
412 909
412 928
412 939
412 943
412 953
412 958
413 416
413 527
413 557
413 600
414 528
414 837
414 875
415 417
415 429
415 440
415 445
415 453
415 459
415 467
415 470
415 481
415 494
415 501
415 504
415 517
415 528
415 540
415 549
415 574
415 578
415 579
415 605
415 609
415 613
415 639
415 645
415 650
415 668
415 675
415 690
415 745
415 761
415 774
415 788
415 799
415 803
415 807
415 826
415 837
415 876
415 888
415 895
415 915
416 467
416 521
416 527
416 557
416 599
416 733
416 793
416 859
416 925
417 579
417 616
417 629
417 632
417 689
417 761
417 769
417 847
417 876
417 918
417 925
417 927
417 939
417 957
418 457
418 463
418 475
418 488
418 500
418 504
418 515
418 528
418 537
418 538
418 562
418 573
418 579
418 596
418 621
418 625
418 658
418 670
418 709
418 725
418 742
418 745
418 746
418 769
418 794
418 807
418 811
418 812
418 823
418 829
418 836
418 842
418 869
418 872
418 903
418 904
418 915
418 918
418 931
418 939
418 950
418 957
418 959
419 421
419 474
419 522
419 536
419 560
419 599
419 603
419 619
419 630
419 655
419 685
419 714
419 719
419 720
419 721
419 728
419 818
419 885
419 894
419 925
420 605
421 460
421 536
421 595
421 604
421 630
421 631
421 666
421 685
421 905
422 525
422 528
422 554
422 561
422 574
422 601
422 632
422 709
422 711
422 722
422 743
422 794
422 804
422 853
422 887
422 914
422 949
422 957
423 493
423 560
423 563
423 574
423 616
423 634
423 747
423 829
423 859
424 658
425 438
425 465
425 557
425 571
425 616
425 645
425 646
425 650
425 678
425 794
425 804
425 869
425 891
425 908
425 912
425 957
426 539
426 595
426 678
426 888
427 466
427 520
427 635
427 759
427 762
427 841
427 880
428 437
428 497
428 557
428 561
428 568
428 577
428 588
428 643
428 666
428 669
428 678
428 684
428 687
428 696
428 717
428 737
428 747
428 791
428 792
428 795
428 840
428 872
428 888
428 937
428 956
429 462
429 554
429 560
429 569
429 579
429 659
429 677
429 678
429 686
429 732
429 747
429 757
429 794
429 803
429 804
429 828
429 869
429 947
429 948
429 953
429 957
430 603
430 722
431 487
431 530
431 533
431 616
431 645
431 646
431 670
431 714
431 832
431 862
431 894
431 925
431 932
431 936
432 433
432 560
432 678
432 713
432 804
432 897
433 438
433 451
433 517
433 549
433 557
433 613
433 793
433 803
433 810
433 849
434 484
434 518
434 557
434 610
434 678
434 878
434 888
434 934
435 440
435 459
435 492
435 495
435 511
435 517
435 528
435 536
435 555
435 560
435 582
435 593
435 602
435 605
435 616
435 617
435 641
435 644
435 703
435 745
435 759
435 784
435 791
435 804
435 865
435 883
435 894
435 908
436 437
436 480
436 533
436 600
436 616
436 638
436 678
436 798
436 806
436 832
436 851
436 855
436 873
436 907
436 958
437 585
437 616
437 678
437 692
437 693
437 717
437 795
437 855
437 891
437 907
437 937
437 952
438 517
438 524
438 537
438 546
438 560
438 561
438 649
438 670
438 678
438 705
438 721
438 740
438 815
438 824
438 847
438 928
438 939
438 953
439 556
439 619
439 644
439 678
439 722
439 739
439 894
440 467
440 493
440 520
440 524
440 525
440 562
440 593
440 708
440 712
440 736
440 759
440 773
440 774
440 796
440 847
440 852
440 855
440 887
440 907
440 908
440 923
440 927
440 952
440 953
440 958
441 737
441 776
441 840
442 451
442 463
442 470
442 494
442 501
442 523
442 525
442 555
442 606
442 630
442 638
442 641
442 644
442 645
442 649
442 658
442 668
442 712
442 831
442 856
442 863
442 865
442 896
442 907
442 912
442 928
443 496
443 523
443 529
443 585
443 631
443 649
443 715
443 785
443 917
444 471
444 504
444 537
444 561
444 578
444 623
444 645
444 705
444 721
444 728
444 745
444 792
444 875
444 911
444 961
445 541
445 643
445 650
445 678
445 690
445 829
445 957
447 449
447 522
447 527
447 600
447 643
447 648
447 722
447 787
447 831
447 872
447 929
448 488
448 772
448 829
449 496
449 562
449 619
449 631
449 685
449 811
449 894
450 503
450 575
450 635
450 661
450 724
450 734
450 750
450 828
450 829
450 872
450 901
450 945
451 479
451 502
451 528
451 557
451 560
451 561
451 610
451 616
451 645
451 650
451 678
451 774
451 810
451 817
451 891
451 919
451 938
451 949
451 952
452 816
452 860
452 953
453 455
453 462
453 562
453 734
453 749
453 750
453 764
453 830
453 913
453 951
454 457
454 521
454 579
454 688
454 713
454 732
454 752
454 853
454 877
454 878
454 915
455 457
455 459
455 462
455 465
455 494
455 500
455 516
455 528
455 541
455 553
455 554
455 562
455 578
455 579
455 644
455 655
455 686
455 689
455 690
455 705
455 711
455 721
455 746
455 759
455 769
455 774
455 780
455 791
455 794
455 807
455 810
455 830
455 835
455 846
455 887
455 888
455 904
455 915
455 918
455 923
455 927
455 928
455 939
455 957
456 632
456 724
456 749
456 750
456 829
457 472
457 475
457 481
457 494
457 500
457 507
457 542
457 554
457 574
457 579
457 585
457 616
457 628
457 643
457 645
457 654
457 688
457 696
457 776
457 801
457 823
457 829
457 840
457 872
457 878
457 915
457 939
457 950
457 956
458 632
458 819
458 920
459 488
459 494
459 497
459 561
459 600
459 602
459 605
459 611
459 617
459 644
459 654
459 684
459 705
459 743
459 746
459 766
459 829
459 859
459 865
459 935
460 474
460 533
460 558
460 594
460 595
460 599
460 609
460 641
460 648
460 655
460 681
460 708
460 714
460 715
460 745
460 753
460 768
460 790
460 862
460 872
460 894
460 912
460 925
460 932
460 936
461 678
461 753
462 562
462 625
462 764
462 911
463 515
463 547
463 584
463 761
463 849
463 859
463 939
463 957
463 959
464 691
464 732
464 750
464 764
464 807
464 888
465 541
465 574
465 586
465 655
465 678
465 686
465 709
465 715
465 741
465 746
465 774
465 791
465 794
465 805
465 865
465 869
465 888
465 891
465 957
466 534
466 624
466 682
466 716
466 742
466 757
466 762
466 770
466 788
466 845
466 945
467 479
467 482
467 504
467 509
467 515
467 527
467 528
467 579
467 591
467 604
467 616
467 617
467 636
467 654
467 680
467 705
467 733
467 772
467 796
467 803
467 829
467 865
467 866
467 873
467 883
467 894
467 900
467 903
467 934
468 614
468 639
468 648
468 678
468 728
468 785
469 493
469 542
469 557
469 602
469 616
469 631
469 643
469 645
469 647
469 648
469 670
469 672
469 678
469 791
469 851
469 873
469 885
469 891
469 926
470 503
470 549
470 579
470 629
470 636
470 649
470 710
470 807
470 837
470 859
470 874
470 876
470 895
470 910
470 919
470 926
470 941
470 949
471 495
471 525
471 561
471 577
471 632
471 648
471 670
471 690
471 705
471 721
471 728
471 792
471 796
471 852
471 863
471 904
471 940
472 514
472 678
472 731
472 751
472 886
473 541
473 593
473 616
473 632
473 651
473 678
473 679
473 722
473 774
473 796
473 805
473 829
473 846
473 859
473 869
473 887
473 895
473 911
473 919
473 927
473 957
473 959
474 492
474 518
474 553
474 595
474 678
474 714
474 715
474 728
474 768
474 912
474 955
475 494
475 495
475 525
475 573
475 579
475 613
475 626
475 632
475 688
475 689
475 709
475 741
475 774
475 776
475 780
475 804
475 832
475 844
475 872
475 878
475 888
475 899
475 925
476 531
476 572
476 575
476 607
476 771
476 854
477 531
477 933
477 951
478 713
479 487
479 494
479 500
479 525
479 555
479 561
479 588
479 591
479 609
479 632
479 646
479 678
479 704
479 745
479 751
479 773
479 791
479 817
479 820
479 842
479 864
479 872
479 878
479 888
479 894
479 925
479 926
479 957
480 533
480 561
480 617
480 648
480 768
480 905
480 932
481 554
481 626
481 636
481 678
481 803
481 882
481 937
482 488
482 578
482 772
482 804
482 829
482 836
482 869
482 954
483 487
483 507
483 719
483 745
483 773
483 926
483 927
483 950
484 519
485 503
485 626
485 709
485 846
485 888
486 633
486 704
486 812
486 854
487 492
487 493
487 494
487 561
487 571
487 577
487 609
487 610
487 639
487 644
487 670
487 673
487 680
487 685
487 696
487 717
487 796
487 888
487 894
487 929
487 934
487 952
488 492
488 494
488 501
488 511
488 517
488 541
488 579
488 634
488 645
488 708
488 709
488 732
488 745
488 769
488 772
488 805
488 812
488 836
488 846
488 859
488 869
488 872
488 873
488 875
488 903
488 939
489 531
489 544
489 561
489 637
489 750
489 807
489 827
489 828
489 845
489 933
489 945
490 678
490 687
490 787
490 872
490 893
491 678
491 767
491 941
492 497
492 539
492 585
492 616
492 630
492 631
492 644
492 647
492 665
492 677
492 707
492 717
492 722
492 776
492 791
492 793
492 795
492 872
492 888
492 902
493 524
493 577
493 586
493 602
493 609
493 655
493 668
493 688
493 708
493 773
493 780
493 784
493 855
493 887
493 894
493 927
493 937
493 953
493 956
493 958
494 503
494 528
494 538
494 549
494 554
494 570
494 579
494 580
494 588
494 601
494 616
494 642
494 644
494 645
494 649
494 668
494 673
494 709
494 711
494 712
494 745
494 747
494 759
494 780
494 791
494 793
494 807
494 824
494 829
494 837
494 855
494 872
494 917
494 938
494 939
494 957
495 504
495 525
495 561
495 562
495 581
495 596
495 600
495 606
495 617
495 643
495 649
495 668
495 688
495 710
495 721
495 753
495 791
495 792
495 851
495 872
495 878
495 887
495 907
495 908
495 918
495 940
495 946
495 958
496 649
496 797
496 909
496 960
496 961
497 501
497 625
497 636
497 638
497 663
497 692
497 715
497 717
497 952
498 548
498 575
498 725
498 742
498 933
498 951
499 544
499 661
499 891
500 524
500 538
500 551
500 573
500 578
500 600
500 616
500 626
500 632
500 645
500 646
500 650
500 658
500 689
500 690
500 696
500 709
500 715
500 730
500 748
500 750
500 753
500 769
500 795
500 807
500 824
500 855
500 868
500 869
500 872
500 888
500 929
500 957
501 509
501 515
501 518
501 571
501 605
501 632
501 636
501 646
501 669
501 678
501 680
501 687
501 708
501 717
501 745
501 747
501 756
501 829
501 863
501 866
501 868
501 872
501 917
501 926
501 956
502 549
502 616
502 645
502 649
502 745
503 696
503 745
503 804
503 812
503 846
503 875
503 914
503 949
504 571
504 577
504 584
504 591
504 617
504 668
504 690
504 700
504 703
504 708
504 745
504 746
504 747
504 792
504 795
504 805
504 814
504 829
504 863
504 872
504 879
504 883
504 887
504 900
504 903
504 923
504 935
504 940
504 959
505 678
506 532
506 678
507 554
507 565
507 616
507 644
507 678
507 686
507 735
507 807
507 829
507 872
507 929
509 578
509 593
509 605
509 616
509 636
509 708
509 741
509 745
509 759
509 810
509 822
509 866
509 868
509 891
510 549
510 876
511 536
511 549
511 829
511 865
511 883
512 749
513 531
513 764
514 557
514 614
514 678
514 688
514 731
514 737
514 850
515 593
515 605
515 678
515 680
515 703
515 705
515 719
515 733
515 752
515 769
515 814
515 831
515 859
515 908
516 533
516 585
516 588
516 613
516 616
516 678
516 696
516 743
516 785
516 796
516 801
516 810
516 855
516 888
517 549
517 645
517 689
517 732
517 746
517 829
517 859
517 872
517 903
517 939
518 519
518 525
518 545
518 557
518 571
518 614
518 636
518 666
518 678
518 737
518 829
518 866
519 610
519 678
519 888
520 535
520 549
520 560
520 573
520 644
520 649
520 654
520 703
520 745
520 759
520 762
520 772
520 784
520 788
520 837
520 859
520 865
520 874
520 883
520 907
520 919
520 926
520 928
520 949
521 527
521 605
521 614
521 626
521 700
521 710
521 745
521 759
521 801
521 810
521 842
521 865
521 877
521 921
521 952
522 537
522 603
522 728
522 768
522 825
522 932
523 562
523 626
523 639
523 743
523 862
523 907
523 917
524 538
524 560
524 579
524 601
524 626
524 643
524 668
524 696
524 698
524 708
524 712
524 736
524 740
524 747
524 769
524 823
524 855
524 875
524 947
524 953
524 957
525 528
525 530
525 561
525 571
525 577
525 591
525 596
525 600
525 601
525 603
525 604
525 605
525 655
525 666
525 668
525 700
525 705
525 710
525 712
525 715
525 721
525 733
525 743
525 745
525 752
525 753
525 759
525 773
525 804
525 807
525 856
525 865
525 873
525 887
525 888
525 897
525 905
525 934
525 940
525 958
525 959
526 544
526 779
526 933
526 952
527 557
527 584
527 600
527 733
527 747
527 792
527 795
527 872
527 908
528 538
528 541
528 554
528 562
528 578
528 584
528 604
528 610
528 616
528 617
528 626
528 636
528 650
528 666
528 670
528 678
528 705
528 715
528 717
528 719
528 728
528 733
528 753
528 773
528 774
528 793
528 796
528 803
528 804
528 807
528 808
528 810
528 820
528 837
528 859
528 865
528 876
528 907
528 923
528 925
528 927
528 932
528 939
528 957
528 958
529 542
529 606
529 630
529 639
529 648
529 672
529 702
529 739
529 753
529 798
529 832
529 860
529 912
529 917
530 560
530 561
530 590
530 591
530 602
530 609
530 617
530 631
530 643
530 649
530 655
530 668
530 670
530 709
530 711
530 773
530 796
530 806
530 855
530 862
530 891
530 905
530 907
530 912
530 927
530 932
531 568
531 575
531 607
531 633
531 637
531 716
531 742
531 750
531 762
531 771
531 817
531 827
531 828
531 897
531 933
533 594
533 599
533 602
533 655
533 678
533 714
533 768
533 791
533 831
533 860
533 862
533 905
533 932
534 716
534 759
534 762
535 645
535 745
535 752
535 867
535 894
536 558
536 570
536 603
536 606
536 718
536 956
536 961
537 549
537 561
537 623
537 670
537 678
537 705
537 715
537 721
537 794
537 796
537 805
537 820
537 847
537 851
537 863
537 875
537 888
537 903
537 911
538 570
538 573
538 656
538 708
538 709
538 732
538 746
538 769
538 794
538 823
538 829
538 836
538 872
538 953
538 954
538 958
539 600
539 623
539 638
539 649
539 707
539 842
539 851
540 548
540 554
540 686
540 774
540 807
540 897
541 562
541 645
541 647
541 650
541 678
541 686
541 709
541 714
541 721
541 746
541 759
541 773
541 774
541 783
541 794
541 804
541 805
541 812
541 817
541 820
541 846
541 875
541 889
541 904
541 908
541 918
541 936
541 957
542 643
542 709
542 756
542 820
542 829
542 885
542 908
542 957
543 724
543 727
543 732
543 829
543 869
544 575
544 750
544 764
544 770
544 779
544 828
544 889
544 899
545 614
545 737
546 550
546 621
546 678
546 725
546 843
548 691
548 933
548 951
549 573
549 574
549 598
549 601
549 616
549 649
549 690
549 745
549 747
549 757
549 793
549 804
549 829
549 837
549 859
549 865
549 874
549 875
549 876
549 919
549 926
549 949
549 952
551 579
551 598
551 609
551 709
551 711
551 741
551 746
551 756
551 792
551 793
551 824
551 829
551 865
551 887
552 727
552 750
552 754
552 916
553 632
553 670
553 713
553 774
553 807
553 808
553 842
553 847
553 939
553 943
553 949
553 957
554 557
554 561
554 578
554 626
554 632
554 645
554 678
554 688
554 690
554 696
554 700
554 709
554 711
554 741
554 746
554 793
554 795
554 803
554 807
554 815
554 836
554 848
554 856
554 869
554 879
554 882
554 884
554 888
554 897
554 923
554 943
555 615
555 663
555 842
555 864
555 865
555 883
555 912
555 934
555 958
556 580
556 604
556 678
556 685
556 720
556 728
556 774
556 804
556 894
557 561
557 571
557 577
557 578
557 588
557 600
557 603
557 616
557 617
557 623
557 636
557 639
557 645
557 648
557 666
557 668
557 678
557 687
557 688
557 696
557 700
557 718
557 728
557 743
557 753
557 759
557 791
557 792
557 807
557 832
557 837
557 851
557 872
557 888
557 900
557 926
558 631
558 638
558 785
558 855
558 909
560 561
560 562
560 626
560 636
560 643
560 648
560 652
560 678
560 681
560 687
560 696
560 697
560 709
560 711
560 728
560 736
560 807
560 816
560 829
560 836
560 859
560 950
560 961
561 577
561 581
561 582
561 592
561 600
561 611
561 613
561 616
561 623
561 626
561 627
561 632
561 644
561 653
561 655
561 666
561 668
561 669
561 684
561 688
561 690
561 697
561 705
561 715
561 721
561 728
561 741
561 745
561 747
561 766
561 780
561 791
561 794
561 796
561 807
561 810
561 820
561 821
561 844
561 847
561 851
561 852
561 853
561 872
561 874
561 885
561 886
561 887
561 888
561 891
561 904
561 919
561 923
561 934
561 936
561 937
561 940
561 943
561 949
562 564
562 644
562 645
562 649
562 654
562 684
562 688
562 700
562 702
562 721
562 722
562 759
562 791
562 807
562 810
562 830
562 852
562 907
562 908
562 943
562 957
563 794
564 728
565 616
565 872
565 950
566 715
566 722
566 785
566 936
567 614
567 639
567 717
567 737
567 760
567 776
567 888
568 735
568 937
569 696
569 698
569 747
569 948
570 606
570 630
570 729
570 744
570 956
571 577
571 578
571 596
571 604
571 610
571 617
571 636
571 668
571 687
571 700
571 728
571 836
571 866
571 872
571 887
571 900
571 927
571 940
573 626
573 632
573 658
573 665
573 708
573 717
573 730
573 751
573 780
573 807
573 855
573 872
573 887
573 904
573 914
573 919
573 948
573 952
573 956
574 601
574 613
574 626
574 650
574 651
574 678
574 697
574 709
574 711
574 737
574 738
574 741
574 755
574 756
574 792
574 793
574 807
574 822
574 836
574 840
574 847
574 888
574 899
574 911
574 923
575 607
575 625
575 635
575 654
575 725
575 754
575 758
575 807
575 821
575 823
575 827
575 829
575 854
575 904
575 913
575 923
575 933
576 639
576 648
576 715
577 596
577 610
577 644
577 688
577 855
577 887
577 891
577 893
577 907
577 932
577 940
577 946
578 598
578 623
578 645
578 648
578 678
578 689
578 690
578 696
578 697
578 715
578 721
578 741
578 743
578 757
578 807
578 888
578 891
578 897
578 908
578 914
578 923
578 954
579 591
579 601
579 602
579 613
579 628
579 655
579 690
579 710
579 713
579 761
579 774
579 812
579 835
579 848
579 876
579 877
579 891
579 908
579 911
579 918
579 923
580 585
580 677
580 680
580 720
580 790
581 600
581 603
581 609
581 623
581 655
581 660
581 670
581 681
581 688
581 702
581 715
581 721
581 792
581 820
581 851
581 888
581 894
581 905
582 603
582 743
583 771
583 854
583 899
583 907
584 591
584 663
584 668
584 678
584 703
584 709
584 719
584 752
584 757
584 759
584 792
584 842
584 859
584 872
584 873
584 879
584 959
585 606
585 611
585 616
585 673
585 692
585 711
585 743
585 766
585 816
585 855
585 888
585 902
585 929
585 937
586 615
586 722
586 785
586 836
586 879
586 894
588 591
588 611
588 665
588 667
588 668
588 669
588 678
588 684
588 688
588 717
588 739
588 753
588 798
588 844
588 870
588 878
588 888
588 925
588 949
588 956
589 612
589 648
589 894
589 961
590 617
590 623
590 639
590 649
590 711
590 806
590 850
590 888
590 891
590 938
591 605
591 609
591 615
591 617
591 618
591 645
591 674
591 681
591 682
591 702
591 703
591 719
591 727
591 759
591 761
591 773
591 774
591 784
591 805
591 811
591 814
591 829
591 842
591 845
591 855
591 859
591 863
591 865
591 876
591 885
591 894
591 921
591 926
591 931
591 949
591 956
591 959
592 680
592 708
592 717
592 746
592 859
593 605
593 636
593 680
593 703
593 822
593 829
593 866
593 903
593 908
593 927
594 641
594 648
594 678
594 684
594 708
594 709
594 713
594 714
594 715
594 721
594 739
594 753
594 769
594 780
594 862
594 872
594 894
594 907
594 908
594 912
594 936
595 606
595 655
595 715
595 720
595 753
595 905
595 961
596 604
596 616
596 668
596 792
596 808
596 900
596 952
597 756
598 626
598 632
598 650
598 730
598 774
598 792
598 793
598 836
598 914
599 609
599 648
599 655
599 894
599 932
600 678
600 681
600 703
600 728
600 752
600 787
600 792
600 825
600 851
600 917
601 678
601 696
601 715
601 736
601 743
601 745
601 793
601 794
601 846
601 856
601 865
601 875
601 914
601 938
601 939
601 950
601 952
601 953
602 609
602 617
602 643
602 655
602 743
602 766
602 864
602 865
602 888
602 925
602 927
602 932
602 956
603 644
603 678
603 708
603 714
603 747
603 825
603 862
603 905
603 912
603 936
604 728
604 774
604 808
605 617
605 636
605 644
605 668
605 680
605 721
605 745
605 759
605 792
605 805
605 822
605 829
605 866
605 897
605 906
605 907
605 922
605 925
605 926
605 928
605 935
605 959
606 630
606 645
606 678
606 718
606 760
606 840
606 888
606 905
606 917
606 929
607 661
607 821
608 632
608 734
608 742
608 841
608 854
609 655
609 681
609 714
609 768
609 785
609 787
609 790
609 804
609 820
609 855
609 887
609 891
609 894
609 905
609 912
609 927
609 932
609 936
609 937
609 940
609 954
610 629
610 666
610 737
610 759
610 876
611 655
611 717
611 766
611 773
611 872
611 888
611 921
611 935
611 958
612 673
612 675
612 869
612 882
612 894
612 921
612 929
613 639
613 745
613 807
613 885
613 888
613 915
613 918
614 616
614 645
614 669
614 672
614 681
614 683
614 717
614 737
614 738
614 751
614 787
614 840
614 876
614 915
614 927
614 937
615 641
615 647
615 670
615 675
615 703
615 719
615 829
615 845
615 879
615 888
615 921
615 925
615 935
616 623
616 636
616 639
616 643
616 649
616 650
616 672
616 678
616 693
616 717
616 737
616 774
616 801
616 805
616 810
616 822
616 855
616 865
616 872
616 885
616 891
616 907
616 925
616 927
616 929
616 932
616 934
616 937
616 949
616 957
616 961
617 668
617 677
617 685
617 700
617 703
617 722
617 728
617 746
617 747
617 780
617 810
617 826
617 829
617 849
617 864
617 891
617 908
617 925
617 959
619 631
619 647
619 667
619 677
619 678
619 685
619 722
619 795
619 955
620 632
621 678
622 702
622 961
623 627
623 645
623 648
623 678
623 705
623 715
623 721
623 728
623 737
623 806
623 807
623 832
623 878
623 888
623 911
623 955
623 961
624 725
624 749
624 764
625 725
625 742
625 764
626 629
626 632
626 636
626 645
626 649
626 650
626 686
626 690
626 699
626 737
626 803
626 807
626 836
626 848
626 869
626 882
626 883
626 897
626 904
626 910
626 923
626 933
626 949
627 666
627 888
628 645
628 853
629 952
630 645
630 689
630 715
630 717
631 685
631 703
631 711
631 797
631 855
631 865
631 891
631 960
632 661
632 678
632 690
632 721
632 730
632 741
632 747
632 754
632 762
632 794
632 812
632 815
632 824
632 854
632 869
632 872
632 884
632 887
632 920
632 923
632 939
633 734
633 799
633 828
634 641
634 772
634 829
634 853
634 865
634 954
634 957
635 724
635 845
635 854
635 865
635 899
636 675
636 680
636 687
636 699
636 708
636 717
636 737
636 747
636 759
636 791
636 803
636 810
636 822
636 863
636 868
636 872
636 875
636 878
636 893
636 907
636 926
636 956
637 678
637 709
637 807
637 899
638 717
638 896
639 648
639 672
639 681
639 692
639 693
639 718
639 728
639 729
639 743
639 785
639 795
639 855
639 860
639 872
639 885
639 891
639 934
639 961
640 707
640 932
641 658
641 791
641 872
641 883
641 912
641 936
641 947
642 678
642 725
643 666
643 681
643 693
643 705
643 709
643 736
643 741
643 757
643 761
643 829
643 846
643 861
643 873
643 878
643 908
643 914
643 923
643 927
643 957
644 654
644 675
644 694
644 703
644 705
644 717
644 757
644 759
644 791
644 792
644 811
644 844
644 872
644 874
644 876
644 878
644 887
644 888
644 891
644 907
644 918
644 956
645 649
645 650
645 678
645 686
645 689
645 709
645 710
645 717
645 718
645 737
645 738
645 743
645 745
645 746
645 747
645 759
645 773
645 779
645 794
645 795
645 800
645 804
645 805
645 824
645 832
645 837
645 847
645 863
645 865
645 883
645 897
645 912
645 917
645 919
645 923
645 932
645 934
645 936
645 943
645 952
646 653
646 670
646 708
646 711
646 855
646 872
646 936
646 957
647 655
647 677
647 686
647 720
647 747
647 790
647 867
647 925
648 669
648 681
648 715
648 718
648 728
648 738
648 743
648 751
648 769
648 825
648 851
648 872
648 878
648 892
648 911
648 912
648 917
648 932
649 658
649 663
649 668
649 695
649 739
649 745
649 746
649 747
649 759
649 785
649 807
649 842
649 860
649 865
649 866
649 871
649 885
649 887
649 903
649 907
649 914
649 919
649 926
649 940
649 949
649 958
649 960
650 655
650 709
650 741
650 746
650 774
650 791
650 805
650 846
650 848
650 869
650 888
650 911
650 927
650 957
651 678
651 878
651 952
652 696
653 670
653 872
653 934
654 769
654 803
654 855
654 869
654 876
654 882
654 939
655 677
655 678
655 703
655 708
655 709
655 728
655 743
655 774
655 787
655 804
655 811
655 818
655 855
655 860
655 862
655 867
655 887
655 888
655 894
655 912
655 918
655 927
655 932
655 936
655 937
655 954
655 955
656 678
656 745
656 747
657 716
657 772
658 690
658 699
658 769
658 810
658 885
658 888
658 939
658 950
659 829
659 865
659 947
659 953
661 770
661 804
661 845
662 757
662 940
662 946
663 674
663 787
663 842
663 909
663 935
665 717
665 805
666 668
666 669
666 678
666 688
666 733
666 753
666 807
666 844
666 872
666 878
666 888
666 940
667 743
667 753
667 791
667 829
668 678
668 700
668 703
668 705
668 709
668 711
668 719
668 721
668 746
668 747
668 753
668 792
668 798
668 836
668 859
668 865
668 869
668 873
668 879
668 885
668 904
668 907
668 908
668 926
668 927
668 934
668 935
668 940
668 953
668 958
669 688
669 696
669 717
669 737
669 753
669 850
669 878
669 888
669 937
670 684
670 703
670 705
670 708
670 721
670 745
670 769
670 773
670 785
670 788
670 796
670 832
670 867
670 872
670 873
670 888
670 893
670 904
670 919
670 925
670 926
670 949
670 950
670 956
671 841
671 920
671 951
672 678
672 776
672 840
673 678
673 720
673 902
674 707
674 842
675 703
675 719
675 722
675 795
675 837
675 872
675 925
675 929
675 961
677 696
677 747
677 790
677 894
677 925
678 689
678 695
678 702
678 705
678 707
678 709
678 711
678 714
678 728
678 730
678 738
678 739
678 747
678 751
678 753
678 761
678 767
678 773
678 777
678 778
678 779
678 780
678 782
678 792
678 795
678 798
678 805
678 807
678 810
678 832
678 835
678 836
678 838
678 841
678 848
678 850
678 852
678 855
678 857
678 864
678 866
678 873
678 876
678 877
678 881
678 885
678 886
678 888
678 891
678 892
678 894
678 902
678 907
678 910
678 912
678 917
678 927
678 929
678 932
678 941
678 942
678 943
678 952
678 954
678 955
678 957
678 959
679 708
679 732
679 769
680 687
680 701
680 717
680 745
680 757
680 780
680 791
680 792
680 807
680 859
680 887
680 894
681 684
681 702
681 711
681 715
681 721
681 791
681 793
681 820
681 851
681 873
681 894
681 912
681 961
682 841
682 885
682 925
684 687
684 689
684 693
684 707
684 708
684 709
684 711
684 722
684 732
684 743
684 746
684 757
684 769
684 794
684 811
684 823
684 825
684 831
684 865
684 868
684 870
684 872
684 888
684 956
684 958
685 837
685 874
685 876
685 891
685 926
686 717
686 774
686 805
686 817
686 846
686 894
686 949
686 957
687 708
687 709
687 722
687 739
687 745
687 746
687 747
687 794
687 823
687 865
687 866
687 872
687 893
687 926
687 935
687 959
688 745
688 753
688 791
688 792
688 844
688 866
688 870
688 878
688 888
688 927
688 937
688 956
689 705
689 730
689 732
689 769
689 835
689 869
689 872
689 878
689 917
689 939
690 696
690 697
690 730
690 741
690 824
690 836
690 851
690 859
690 888
690 895
690 923
691 724
691 764
691 895
691 899
692 693
692 717
693 855
693 918
693 927
693 929
696 698
696 731
696 736
696 751
696 767
696 769
696 804
696 891
696 929
696 937
696 947
696 948
696 953
697 760
697 804
697 891
697 911
697 923
698 745
698 757
698 795
698 804
698 807
699 856
699 859
699 897
699 956
700 709
700 710
700 717
700 732
700 746
700 747
700 787
700 792
700 869
700 872
700 908
700 952
701 717
701 780
701 859
702 715
702 721
702 737
702 862
702 888
702 894
702 932
702 937
702 961
703 708
703 722
703 733
703 747
703 768
703 772
703 791
703 795
703 811
703 863
703 872
703 874
703 883
703 885
703 921
703 935
704 754
704 833
704 841
704 858
705 721
705 728
705 807
705 888
705 891
705 940
705 959
707 722
707 829
707 870
707 947
708 709
708 719
708 739
708 745
708 746
708 747
708 752
708 756
708 759
708 769
708 780
708 805
708 811
708 812
708 823
708 829
708 859
708 863
708 865
708 866
708 868
708 872
708 878
708 883
708 888
708 893
708 912
708 936
708 939
708 940
708 949
708 952
708 959
709 724
709 741
709 753
709 756
709 769
709 774
709 792
709 795
709 801
709 807
709 812
709 823
709 829
709 849
709 859
709 865
709 869
709 957
709 958
710 792
710 887
710 891
710 926
710 949
710 953
711 739
711 743
711 747
711 773
711 785
711 804
711 806
711 807
711 811
711 842
711 855
711 904
711 907
712 733
712 759
712 773
712 812
712 832
712 952
713 823
713 829
713 872
713 950
714 728
714 753
714 862
714 894
714 905
714 912
714 932
714 936
715 718
715 721
715 728
715 776
715 785
715 807
715 831
715 847
715 852
715 862
715 878
715 888
715 891
715 911
715 923
716 727
716 772
717 737
717 747
717 757
717 780
717 829
717 840
717 850
717 863
717 872
717 886
717 887
717 888
717 917
717 929
717 937
718 751
718 829
718 863
718 949
719 723
719 752
719 761
719 773
719 793
719 811
719 816
719 859
719 864
719 894
719 907
721 792
721 820
721 841
721 852
721 912
721 936
721 937
721 955
722 748
722 768
722 784
722 791
722 865
722 870
724 727
724 841
724 884
724 899
725 742
725 750
725 764
725 794
725 841
726 890
726 899
727 742
727 746
727 747
727 750
727 754
727 869
727 899
727 916
727 945
728 745
728 747
728 782
728 791
728 807
728 818
728 820
728 825
728 852
728 885
728 894
728 911
728 937
728 958
730 824
730 911
730 915
731 735
732 746
732 769
732 811
732 812
732 823
732 829
732 836
732 866
732 868
732 869
732 928
732 939
733 768
733 864
733 925
733 934
733 952
734 742
734 799
734 883
736 757
736 773
736 829
736 844
736 947
736 956
737 738
737 751
737 755
737 855
737 886
737 937
738 751
738 753
738 760
738 776
738 795
738 798
738 807
738 840
738 881
738 923
738 937
739 747
739 753
739 761
739 832
739 862
739 872
739 888
739 893
739 912
741 746
741 807
741 812
741 829
741 836
741 923
742 750
742 841
742 933
743 766
743 832
743 855
743 856
743 860
743 883
743 888
743 894
743 914
744 753
744 757
744 790
744 946
745 746
745 747
745 856
745 865
745 866
745 868
745 872
745 874
745 878
745 888
745 893
745 919
745 935
745 941
745 949
746 747
746 754
746 769
746 795
746 804
746 811
746 812
746 829
746 836
746 842
746 865
746 868
746 869
746 872
746 879
746 883
746 887
746 933
746 939
746 946
746 947
746 959
747 753
747 757
747 759
747 794
747 796
747 798
747 805
747 836
747 872
747 885
747 891
747 893
747 908
747 910
747 926
747 947
747 948
747 949
747 953
748 789
748 929
749 769
749 891
749 913
750 771
750 841
750 869
750 916
751 776
751 796
751 855
751 872
751 886
751 936
752 773
752 829
752 838
752 857
752 863
752 885
752 894
752 903
752 925
752 926
752 959
753 760
753 794
753 801
753 844
753 872
753 878
753 907
753 917
753 947
754 808
754 933
755 877
755 907
755 909
755 937
756 836
756 837
756 863
757 759
757 792
757 804
757 807
757 872
757 875
757 878
757 940
757 946
757 947
757 953
758 945
759 762
759 773
759 791
759 792
759 801
759 807
759 821
759 831
759 853
759 855
759 863
759 876
759 886
759 893
759 895
759 903
759 926
759 937
759 953
760 802
760 840
760 888
760 911
760 923
760 936
761 774
761 859
761 885
761 903
763 951
764 845
764 888
764 899
764 906
764 907
764 913
767 941
768 811
768 818
768 936
768 955
769 774
769 780
769 794
769 823
769 836
769 872
769 904
769 918
769 939
769 957
770 899
771 854
771 899
771 945
772 836
772 873
773 805
773 832
773 864
773 865
773 894
773 905
773 952
773 953
773 958
774 793
774 804
774 837
774 846
774 857
774 859
774 875
774 885
774 891
774 904
774 918
774 925
774 927
774 954
776 798
776 840
776 881
777 888
779 827
779 841
779 854
779 865
779 889
780 791
780 823
780 848
780 851
780 872
780 878
780 887
780 888
780 950
780 961
782 813
784 832
784 865
784 879
784 949
784 958
785 832
785 840
785 937
787 790
787 842
787 894
788 865
788 907
788 949
789 865
789 894
789 921
790 820
790 856
790 867
790 894
790 902
790 905
790 932
790 958
791 806
791 831
791 855
791 865
791 872
791 883
791 888
791 894
791 908
791 917
791 919
791 956
792 806
792 836
792 851
792 872
792 873
792 878
792 887
792 891
792 926
792 940
792 958
792 959
793 814
793 836
793 869
793 876
793 883
793 894
793 905
793 915
794 805
794 829
794 836
794 846
794 865
794 869
794 872
794 887
794 939
794 957
795 879
795 935
795 937
795 947
795 959
796 807
796 820
796 841
796 850
796 852
796 887
796 888
796 915
796 927
796 934
796 940
796 943
799 922
800 805
800 845
801 807
801 872
801 952
803 814
803 829
803 882
803 888
803 897
803 903
804 812
804 829
804 878
804 888
804 894
804 897
804 905
804 928
804 932
804 939
804 948
804 954
804 957
805 807
805 817
805 829
805 835
805 859
805 863
805 869
805 891
805 897
805 908
805 944
805 957
806 863
806 873
806 888
806 891
806 907
807 820
807 824
807 835
807 847
807 852
807 856
807 862
807 872
807 875
807 876
807 888
807 891
807 904
807 907
807 937
807 940
807 943
807 957
807 958
808 847
808 852
810 850
810 855
810 857
810 885
810 886
810 888
810 891
810 911
810 919
810 947
810 952
811 894
811 929
811 958
812 823
812 829
812 836
812 872
814 853
814 859
814 863
814 926
815 884
817 869
817 908
817 934
818 867
820 835
820 847
820 851
820 852
820 873
821 841
821 945
822 866
822 894
822 902
822 940
823 829
823 836
823 868
823 939
824 887
824 923
826 876
827 828
827 888
828 854
828 897
828 922
829 836
829 853
829 855
829 863
829 865
829 869
829 887
829 888
829 903
829 914
831 936
831 958
832 878
832 879
832 912
832 932
834 933
835 855
835 939
836 859
836 865
836 869
836 875
836 923
836 939
837 846
837 853
837 874
837 876
837 919
837 927
837 943
838 863
838 903
840 859
840 917
840 937
841 888
841 899
841 911
841 959
842 872
842 939
844 870
844 872
844 888
844 956
845 899
845 930
846 853
846 855
846 875
846 883
846 918
846 957
847 851
847 888
847 904
850 915
850 937
851 852
851 864
851 888
851 936
852 888
852 936
852 958
853 876
853 926
853 931
853 954
853 957
854 899
855 857
855 872
855 885
855 907
855 929
855 935
855 937
855 940
855 941
855 953
855 956
855 958
856 872
856 881
856 888
857 872
857 885
857 927
859 865
859 895
859 897
859 907
859 957
859 959
860 865
860 888
862 888
862 912
862 917
862 932
862 936
862 937
863 886
863 893
863 903
863 926
864 925
865 866
865 870
865 873
865 883
865 889
865 907
865 921
865 926
865 935
865 952
865 959
866 878
866 888
866 939
866 956
867 894
868 939
869 887
869 903
869 916
869 957
870 872
871 952
872 878
872 887
872 888
872 891
872 893
872 902
872 908
872 926
872 934
872 935
872 936
872 937
872 939
872 946
872 950
872 952
873 888
873 918
873 940
874 891
874 926
874 949
876 887
876 895
876 907
876 957
876 959
878 912
878 939
878 940
878 956
879 887
881 912
881 917
881 937
884 887
884 920
885 907
885 925
885 940
885 949
886 888
886 891
886 937
887 907
887 927
887 940
887 958
888 891
888 893
888 911
888 912
888 918
888 923
888 927
888 932
888 936
888 937
888 943
888 944
888 949
888 956
891 905
891 907
891 919
891 925
891 929
891 937
891 939
891 952
891 958
893 936
894 902
894 905
894 934
895 957
897 914
899 951
900 940
900 952
903 926
904 907
904 918
904 943
904 946
904 958
905 912
905 915
905 932
905 937
905 954
907 918
907 926
907 958
907 959
908 927
908 940
908 957
912 927
912 932
912 937
912 958
914 949
914 952
915 928
917 932
917 936
917 961
918 956
925 927
925 932
925 957
926 949
927 932
927 934
927 937
928 948
929 937
932 935
932 936
932 937
932 956
934 940
934 952
935 940
935 953
936 949
937 956
940 946
940 958
943 949
944 952
947 948
950 953
954 957
957 959
