0 1533
0 1545
0 1809
0 2142
0 2218
1 125
1 174
1 1093
1 1317
1 1473
1 1533
1 1541
1 1674
1 2089
1 2120
2 1124
2 2031
2 2196
2 2201
3 75
3 179
3 1386
3 1897
4 699
4 1074
4 1404
4 1506
4 1533
4 1715
4 1779
4 1879
4 1928
4 1995
4 2082
4 2125
4 2189
4 2211
5 445
5 1169
5 1245
5 1862
5 1947
5 2054
6 887
6 955
6 972
6 1186
6 1533
7 376
7 712
7 1157
7 1423
8 669
8 1482
8 1897
8 2164
9 365
9 403
9 475
9 725
9 909
9 1043
9 1092
9 1208
9 1802
9 1980
9 1982
10 108
10 1048
10 1303
10 1719
10 1721
10 1783
10 1963
11 1317
11 1518
11 1533
11 1608
11 1643
11 1947
11 1970
11 2043
11 2089
12 1037
12 1081
12 1461
12 1748
12 2120
13 2001
14 1320
14 1928
14 2137
14 2201
15 1138
15 1415
15 1625
15 1864
16 2120
16 2124
17 484
17 906
18 264
18 873
18 936
18 1347
18 2185
19 1967
19 2037
19 2137
20 766
21 140
21 710
21 990
21 1709
21 1809
22 1051
22 1426
22 1533
22 1785
22 1897
23 963
23 1114
23 1489
23 1928
23 1958
23 2137
23 2190
23 2201
24 1109
25 171
25 848
25 1664
26 60
26 144
26 297
26 345
26 432
26 571
26 677
26 730
26 919
26 939
26 1305
26 1531
26 1753
26 1801
26 1812
26 1871
26 1891
26 1936
26 2008
26 2154
27 347
27 752
27 1288
27 1386
27 1469
27 1894
27 1897
27 1938
28 231
28 281
28 310
28 560
28 754
28 846
28 972
28 1150
28 1161
28 1506
28 1525
28 1865
28 1955
28 2218
29 1296
29 1533
29 1621
29 1832
29 1917
30 776
30 1044
30 1501
30 1809
30 1976
31 362
31 384
31 738
31 746
31 802
31 924
31 940
32 178
32 435
32 1067
32 1137
32 1245
33 1859
33 1947
33 2051
33 2215
34 1096
34 1661
34 2054
35 129
35 837
35 1463
35 1622
35 1678
35 1683
35 1999
35 2093
36 61
36 91
36 95
36 136
36 139
36 178
36 351
36 356
36 435
36 456
36 511
36 671
36 697
36 776
36 884
36 931
36 995
36 1052
36 1067
36 1250
36 1407
36 1416
36 1456
36 1503
36 1570
36 1652
36 1674
36 1675
36 1762
36 1809
36 1862
36 1903
36 1917
36 1950
36 1976
36 2026
36 2028
36 2034
36 2137
36 2175
36 2215
37 106
37 1651
38 1629
38 1897
39 211
39 339
39 801
39 1051
39 1242
39 1277
39 1317
39 2055
39 2120
40 1023
40 1533
40 1725
40 1792
40 2137
41 1644
42 391
42 740
42 1320
42 1840
42 1882
42 1957
42 2134
43 448
43 984
43 2025
44 1245
44 1501
44 1533
44 1832
44 1947
45 193
45 207
45 525
45 1320
45 1533
45 1595
45 1832
45 2137
45 2172
45 2189
46 177
46 374
46 531
46 1307
46 1916
46 2051
46 2137
46 2169
47 772
47 1504
47 1668
47 1876
47 1990
47 2129
47 2143
48 395
48 1093
48 1138
48 1203
48 1415
48 2137
49 754
49 899
49 1136
49 1161
49 1329
49 1837
49 1865
50 597
50 1839
50 2011
51 319
51 782
51 1069
51 1516
51 1632
51 1704
51 1853
51 1981
51 1990
51 2072
51 2089
51 2125
51 2127
51 2201
52 114
52 150
52 178
52 273
52 311
52 334
52 374
52 391
52 415
52 420
52 504
52 519
52 525
52 531
52 605
52 624
52 637
52 640
52 649
52 778
52 782
52 810
52 880
52 897
52 926
52 950
52 1026
52 1051
52 1060
52 1072
52 1075
52 1167
52 1175
52 1199
52 1234
52 1259
52 1268
52 1273
52 1277
52 1408
52 1430
52 1453
52 1459
52 1495
52 1506
52 1518
52 1533
52 1534
52 1545
52 1548
52 1575
52 1577
52 1585
52 1591
52 1661
52 1663
52 1674
52 1692
52 1710
52 1736
52 1738
52 1749
52 1766
52 1787
52 1797
52 1840
52 1854
52 1864
52 1872
52 1882
52 1888
52 1895
52 1919
52 1920
52 1928
52 1983
52 1997
52 2014
52 2040
52 2043
52 2051
52 2055
52 2061
52 2071
52 2072
52 2089
52 2097
52 2120
52 2127
52 2142
52 2146
52 2151
52 2157
52 2166
52 2169
52 2170
52 2172
52 2188
52 2189
52 2193
52 2198
52 2211
52 2215
53 149
53 509
53 1691
54 1339
54 1424
54 1430
54 1947
54 2215
55 154
55 766
56 323
56 1533
56 1839
57 418
57 1068
57 1359
57 1390
57 1549
57 1734
57 1809
57 1872
58 60
58 1722
58 2153
59 106
59 198
59 437
59 444
59 723
59 1298
59 1482
59 1630
60 87
60 269
60 297
60 345
60 398
60 432
60 565
60 677
60 678
60 730
60 765
60 771
60 775
60 919
60 939
60 953
60 974
60 1029
60 1119
60 1305
60 1420
60 1531
60 1583
60 1722
60 1777
60 1780
60 1871
60 1891
60 1918
60 1936
60 1979
60 2008
60 2050
60 2093
60 2094
60 2154
61 67
61 95
61 136
61 143
61 178
61 190
61 199
61 207
61 273
61 311
61 318
61 334
61 420
61 426
61 456
61 504
61 525
61 531
61 538
61 550
61 572
61 605
61 606
61 623
61 624
61 637
61 671
61 776
61 778
61 810
61 846
61 847
61 880
61 885
61 926
61 946
61 950
61 956
61 995
61 1014
61 1044
61 1051
61 1072
61 1087
61 1111
61 1145
61 1199
61 1226
61 1245
61 1249
61 1259
61 1268
61 1277
61 1302
61 1317
61 1331
61 1339
61 1393
61 1397
61 1407
61 1416
61 1453
61 1454
61 1456
61 1461
61 1466
61 1473
61 1489
61 1495
61 1501
61 1503
61 1506
61 1518
61 1519
61 1533
61 1534
61 1545
61 1556
61 1575
61 1577
61 1585
61 1636
61 1652
61 1661
61 1674
61 1689
61 1692
61 1693
61 1710
61 1726
61 1736
61 1738
61 1749
61 1758
61 1762
61 1766
61 1773
61 1787
61 1796
61 1797
61 1804
61 1807
61 1809
61 1854
61 1862
61 1864
61 1882
61 1884
61 1888
61 1903
61 1916
61 1919
61 1920
61 1928
61 1947
61 1948
61 1950
61 1956
61 1957
61 1976
61 1983
61 1984
61 1997
61 2026
61 2034
61 2040
61 2043
61 2051
61 2055
61 2061
61 2071
61 2072
61 2089
61 2090
61 2097
61 2120
61 2127
61 2137
61 2151
61 2169
61 2170
61 2173
61 2177
61 2184
61 2188
61 2189
61 2198
61 2209
61 2218
62 506
62 560
62 846
62 1243
62 1257
62 1451
62 1488
62 1525
62 1674
62 2013
62 2120
63 126
63 737
63 881
63 1089
63 1305
63 1460
63 2039
64 114
64 143
64 157
64 178
64 190
64 311
64 318
64 391
64 420
64 426
64 495
64 504
64 525
64 531
64 536
64 538
64 550
64 624
64 637
64 649
64 688
64 691
64 753
64 778
64 782
64 810
64 880
64 916
64 946
64 950
64 1001
64 1044
64 1072
64 1087
64 1167
64 1175
64 1199
64 1226
64 1234
64 1245
64 1249
64 1277
64 1302
64 1317
64 1331
64 1334
64 1393
64 1408
64 1416
64 1430
64 1453
64 1459
64 1461
64 1464
64 1495
64 1518
64 1519
64 1533
64 1534
64 1545
64 1548
64 1558
64 1585
64 1589
64 1593
64 1607
64 1637
64 1661
64 1663
64 1674
64 1689
64 1692
64 1710
64 1731
64 1738
64 1749
64 1766
64 1787
64 1797
64 1804
64 1809
64 1832
64 1840
64 1854
64 1857
64 1864
64 1882
64 1888
64 1903
64 1919
64 1947
64 1956
64 1965
64 1983
64 2014
64 2040
64 2043
64 2047
64 2051
64 2055
64 2061
64 2090
64 2097
64 2120
64 2127
64 2137
64 2142
64 2151
64 2157
64 2166
64 2170
64 2184
64 2188
64 2189
64 2198
64 2215
64 2218
65 537
65 560
65 581
65 1525
66 444
66 723
66 832
66 1060
66 1298
66 1300
66 1338
66 1506
66 2021
66 2084
66 2145
66 2164
67 1241
67 1245
67 1809
67 1903
67 1947
68 447
68 735
68 1127
68 1311
68 1644
68 1677
69 558
69 1058
69 1800
69 1910
70 101
70 1533
71 238
71 492
71 784
71 930
71 1035
71 1448
71 1529
71 1532
71 1682
71 2119
71 2141
72 536
72 1533
72 1620
72 1689
72 1904
72 2215
73 177
73 211
73 374
73 397
73 533
73 847
73 864
73 897
73 1014
73 1254
73 1317
73 1364
73 1374
73 1426
73 1577
73 1715
73 1807
73 2004
73 2040
73 2089
73 2120
73 2137
73 2170
74 1024
74 1216
74 1691
74 2083
75 1207
76 1712
76 2137
77 1320
77 1533
77 1617
77 1928
78 312
78 760
78 1245
78 1533
78 1734
78 2218
79 98
79 267
79 311
79 424
79 576
79 643
79 668
79 897
79 904
79 1076
79 1188
79 1202
79 1245
79 1268
79 1346
79 1616
79 1703
79 1731
79 1809
79 1848
79 1864
79 1975
79 2065
79 2137
79 2169
79 2170
79 2201
80 1526
80 1626
80 1903
81 359
81 1153
81 1390
81 1506
81 1533
81 2072
81 2179
82 107
82 121
82 166
82 253
82 289
82 333
82 344
82 346
82 355
82 378
82 489
82 495
82 501
82 536
82 598
82 599
82 623
82 682
82 691
82 753
82 785
82 787
82 797
82 824
82 864
82 916
82 937
82 948
82 949
82 982
82 1001
82 1091
82 1160
82 1190
82 1201
82 1214
82 1219
82 1245
82 1256
82 1278
82 1334
82 1401
82 1413
82 1419
82 1464
82 1512
82 1519
82 1533
82 1558
82 1589
82 1592
82 1607
82 1637
82 1645
82 1658
82 1672
82 1713
82 1773
82 1808
82 1809
82 1838
82 1846
82 1847
82 1905
82 1922
82 1927
82 1947
82 1970
82 1977
82 2047
82 2061
82 2082
82 2204
83 1060
83 1285
83 1376
83 1533
84 367
84 418
84 470
84 1086
84 1276
84 1294
84 1533
84 1548
84 1553
85 790
85 1350
85 1494
86 237
86 947
86 1533
87 345
87 677
87 678
87 730
87 765
87 919
87 939
87 1029
87 1583
87 1753
87 1801
87 1871
87 1936
87 1979
87 2008
87 2154
88 483
88 956
88 1245
88 1506
88 1580
88 1925
88 1947
88 2015
88 2168
88 2189
89 1545
89 1947
90 1533
90 2188
91 108
91 241
91 382
91 671
91 697
91 782
91 812
91 831
91 956
91 995
91 1067
91 1075
91 1245
91 1256
91 1295
91 1407
91 1416
91 1430
91 1456
91 1501
91 1503
91 1519
91 1533
91 1556
91 1585
91 1611
91 1626
91 1652
91 1758
91 1762
91 1903
91 1917
91 1950
91 1965
91 2017
91 2026
91 2031
91 2034
91 2175
92 1449
93 254
93 324
93 930
93 959
93 1034
93 1211
93 1378
93 1682
93 1822
93 1823
93 2042
93 2128
94 1256
94 1545
94 1821
94 1903
94 1947
94 2043
94 2071
94 2137
94 2201
95 108
95 139
95 241
95 351
95 356
95 382
95 435
95 494
95 698
95 776
95 846
95 884
95 931
95 956
95 995
95 1075
95 1250
95 1407
95 1416
95 1501
95 1523
95 1533
95 1556
95 1570
95 1636
95 1652
95 1674
95 1762
95 1803
95 1862
95 1903
95 1976
95 2028
95 2034
95 2140
95 2142
95 2175
95 2211
96 739
96 1533
96 1575
96 1604
96 2045
97 255
97 382
98 318
98 643
98 736
98 885
98 1106
98 1188
98 1254
98 1268
98 1273
98 1279
98 1317
98 1346
98 1598
98 1661
98 1864
98 1883
98 1948
98 2169
98 2219
99 1197
99 2211
100 311
100 425
100 570
100 860
100 1004
100 1046
100 1114
100 1268
100 1549
100 1735
101 1730
101 1903
101 2096
101 2133
102 551
102 1521
103 1506
103 1533
103 1617
103 1805
103 1903
103 2045
103 2151
104 1985
105 1839
106 444
106 723
106 1262
106 1298
106 1482
106 1630
106 1744
106 1894
106 2164
107 117
107 121
107 159
107 216
107 257
107 289
107 333
107 346
107 388
107 472
107 495
107 501
107 511
107 523
107 536
107 568
107 599
107 629
107 685
107 691
107 701
107 731
107 753
107 768
107 785
107 787
107 797
107 948
107 949
107 956
107 960
107 982
107 1001
107 1044
107 1062
107 1102
107 1193
107 1214
107 1219
107 1223
107 1241
107 1242
107 1248
107 1256
107 1291
107 1301
107 1334
107 1390
107 1401
107 1413
107 1419
107 1436
107 1464
107 1512
107 1519
107 1526
107 1533
107 1545
107 1558
107 1571
107 1589
107 1592
107 1607
107 1645
107 1709
107 1713
107 1726
107 1733
107 1773
107 1808
107 1809
107 1838
107 1905
107 1907
107 1922
107 1927
107 1940
107 1947
107 1965
107 1973
107 1984
107 2061
107 2077
107 2082
107 2199
107 2204
107 2211
108 136
108 139
108 151
108 241
108 351
108 382
108 435
108 456
108 671
108 698
108 776
108 834
108 884
108 931
108 995
108 1067
108 1075
108 1250
108 1456
108 1501
108 1503
108 1545
108 1556
108 1570
108 1636
108 1674
108 1809
108 1903
108 1917
108 2028
108 2034
108 2137
108 2140
108 2142
108 2175
108 2215
109 1833
109 1899
109 2123
110 119
110 273
110 778
110 982
110 1390
110 1506
110 1533
110 1545
110 1661
110 1857
110 2130
110 2137
111 1533
111 1674
112 1533
112 1958
113 624
113 1390
113 1595
113 1617
113 1928
113 2127
113 2137
113 2201
113 2218
114 140
114 143
114 150
114 178
114 190
114 230
114 232
114 257
114 273
114 295
114 315
114 325
114 334
114 374
114 375
114 405
114 415
114 417
114 420
114 424
114 426
114 504
114 519
114 525
114 538
114 550
114 572
114 606
114 624
114 637
114 649
114 668
114 671
114 742
114 768
114 778
114 782
114 810
114 815
114 847
114 864
114 885
114 896
114 904
114 920
114 946
114 982
114 1005
114 1014
114 1026
114 1051
114 1060
114 1072
114 1075
114 1152
114 1167
114 1175
114 1188
114 1199
114 1202
114 1245
114 1249
114 1253
114 1268
114 1273
114 1302
114 1317
114 1320
114 1331
114 1339
114 1356
114 1415
114 1416
114 1454
114 1459
114 1473
114 1489
114 1493
114 1495
114 1506
114 1516
114 1519
114 1524
114 1533
114 1548
114 1577
114 1585
114 1591
114 1592
114 1616
114 1623
114 1661
114 1663
114 1674
114 1689
114 1703
114 1708
114 1710
114 1715
114 1731
114 1735
114 1736
114 1749
114 1766
114 1787
114 1797
114 1804
114 1819
114 1848
114 1868
114 1882
114 1884
114 1895
114 1916
114 1917
114 1919
114 1920
114 1948
114 1957
114 1966
114 1983
114 1997
114 2014
114 2031
114 2040
114 2043
114 2047
114 2051
114 2055
114 2061
114 2071
114 2082
114 2089
114 2090
114 2120
114 2124
114 2127
114 2137
114 2142
114 2151
114 2157
114 2162
114 2166
114 2169
114 2177
114 2184
114 2188
114 2198
114 2209
114 2215
114 2219
115 325
115 654
115 956
115 1136
115 1430
115 1506
115 1779
116 196
116 1450
116 1533
117 166
117 216
117 218
117 253
117 257
117 286
117 289
117 333
117 344
117 355
117 378
117 388
117 420
117 439
117 489
117 495
117 523
117 536
117 568
117 599
117 629
117 656
117 682
117 685
117 691
117 693
117 753
117 768
117 779
117 785
117 787
117 797
117 916
117 937
117 948
117 949
117 956
117 960
117 982
117 1001
117 1044
117 1062
117 1190
117 1193
117 1223
117 1256
117 1278
117 1296
117 1301
117 1334
117 1390
117 1401
117 1403
117 1419
117 1436
117 1512
117 1519
117 1533
117 1534
117 1545
117 1558
117 1571
117 1589
117 1592
117 1607
117 1621
117 1637
117 1672
117 1713
117 1726
117 1776
117 1808
117 1832
117 1838
117 1846
117 1847
117 1905
117 1907
117 1922
117 1927
117 1947
117 1970
117 1977
117 1984
117 2047
117 2061
117 2077
117 2079
117 2082
117 2130
117 2173
117 2211
118 1000
119 536
119 623
119 682
119 956
119 982
119 1044
119 1256
119 1545
119 1672
119 1686
119 1713
119 1773
119 1809
119 1947
119 1970
119 1984
119 2077
119 2082
119 2130
119 2137
120 1652
120 1709
121 166
121 216
121 253
121 257
121 273
121 286
121 289
121 333
121 355
121 388
121 420
121 489
121 501
121 523
121 536
121 568
121 598
121 599
121 629
121 656
121 682
121 685
121 691
121 693
121 701
121 731
121 757
121 768
121 779
121 785
121 787
121 797
121 824
121 916
121 949
121 956
121 960
121 990
121 1001
121 1044
121 1062
121 1102
121 1190
121 1193
121 1201
121 1214
121 1219
121 1241
121 1242
121 1256
121 1263
121 1278
121 1291
121 1296
121 1328
121 1401
121 1403
121 1407
121 1436
121 1512
121 1519
121 1526
121 1533
121 1534
121 1545
121 1558
121 1589
121 1592
121 1621
121 1641
121 1672
121 1709
121 1713
121 1733
121 1773
121 1776
121 1832
121 1846
121 1847
121 1905
121 1922
121 1947
121 1965
121 1984
121 2047
121 2061
121 2082
121 2130
121 2157
121 2199
121 2218
122 1310
122 2165
123 2098
124 200
124 382
124 1390
124 1533
124 1584
124 1904
124 1947
124 1958
124 2072
125 1075
125 1093
125 1508
125 1533
125 1797
125 1855
125 2137
126 799
126 881
126 1077
126 1398
126 1460
126 2021
127 1210
127 1489
127 1674
127 1703
127 2089
128 1646
129 191
129 277
129 513
129 679
129 895
129 1082
129 1264
129 1367
129 1638
129 1729
129 2000
130 140
130 706
130 1317
130 1344
130 1453
130 1726
130 1973
130 1977
130 2061
130 2189
131 323
131 521
131 665
131 981
131 1257
131 1469
131 1482
131 1582
131 1618
131 1761
131 1845
131 1897
131 1992
131 2011
132 1117
132 1894
133 292
133 1657
133 2181
134 993
134 1533
134 1675
134 1734
134 1809
134 1832
135 857
135 1396
135 1947
135 1989
135 2006
135 2120
135 2194
136 139
136 151
136 241
136 279
136 320
136 351
136 356
136 382
136 456
136 671
136 698
136 776
136 834
136 846
136 884
136 931
136 955
136 995
136 1389
136 1407
136 1416
136 1456
136 1501
136 1525
136 1533
136 1570
136 1652
136 1674
136 1758
136 1762
136 1803
136 1832
136 1862
136 1903
136 1917
136 1976
136 2026
136 2028
136 2034
136 2130
136 2137
136 2140
136 2142
136 2175
137 229
137 231
137 386
137 536
137 560
137 709
137 754
137 872
137 942
137 972
137 1065
137 1154
137 1161
137 1222
137 1227
137 1294
137 1506
137 1525
137 1545
137 1549
137 1832
137 1833
137 1887
137 1941
137 2102
137 2179
137 2183
137 2189
138 1681
138 1897
139 151
139 241
139 356
139 382
139 456
139 511
139 776
139 834
139 1067
139 1075
139 1416
139 1456
139 1501
139 1503
139 1556
139 1636
139 1652
139 1675
139 1734
139 1762
139 1809
139 1903
139 1950
139 2026
139 2031
139 2034
139 2140
140 143
140 150
140 178
140 207
140 230
140 276
140 311
140 312
140 318
140 325
140 338
140 366
140 374
140 382
140 388
140 391
140 415
140 419
140 420
140 426
140 486
140 504
140 511
140 519
140 529
140 531
140 534
140 536
140 599
140 605
140 618
140 619
140 627
140 637
140 649
140 700
140 718
140 740
140 778
140 782
140 810
140 814
140 818
140 847
140 880
140 885
140 897
140 903
140 914
140 926
140 946
140 950
140 954
140 1014
140 1055
140 1060
140 1065
140 1067
140 1072
140 1074
140 1075
140 1114
140 1170
140 1175
140 1245
140 1249
140 1268
140 1273
140 1277
140 1280
140 1285
140 1317
140 1331
140 1335
140 1339
140 1352
140 1365
140 1391
140 1393
140 1404
140 1430
140 1453
140 1454
140 1459
140 1466
140 1473
140 1489
140 1504
140 1506
140 1525
140 1533
140 1545
140 1548
140 1577
140 1581
140 1585
140 1634
140 1674
140 1689
140 1692
140 1710
140 1718
140 1731
140 1734
140 1735
140 1736
140 1738
140 1749
140 1762
140 1766
140 1772
140 1787
140 1792
140 1797
140 1804
140 1809
140 1840
140 1842
140 1854
140 1857
140 1868
140 1882
140 1895
140 1903
140 1907
140 1916
140 1919
140 1920
140 1948
140 1957
140 1965
140 1981
140 2014
140 2040
140 2043
140 2051
140 2061
140 2071
140 2072
140 2089
140 2090
140 2097
140 2127
140 2146
140 2151
140 2169
140 2170
140 2184
140 2188
140 2211
140 2221
141 790
141 1350
142 484
142 2179
143 150
143 178
143 190
143 230
143 232
143 257
143 273
143 311
143 315
143 318
143 325
143 334
143 374
143 375
143 405
143 415
143 420
143 424
143 426
143 519
143 531
143 538
143 550
143 572
143 617
143 618
143 624
143 630
143 641
143 643
143 649
143 668
143 742
143 747
143 847
143 864
143 885
143 897
143 904
143 920
143 926
143 946
143 950
143 982
143 1014
143 1026
143 1036
143 1051
143 1060
143 1075
143 1087
143 1152
143 1188
143 1202
143 1226
143 1234
143 1245
143 1249
143 1253
143 1263
143 1266
143 1268
143 1273
143 1277
143 1302
143 1331
143 1339
143 1346
143 1356
143 1393
143 1408
143 1415
143 1416
143 1430
143 1453
143 1459
143 1461
143 1466
143 1473
143 1489
143 1493
143 1495
143 1516
143 1518
143 1519
143 1524
143 1533
143 1545
143 1575
143 1577
143 1585
143 1591
143 1598
143 1616
143 1623
143 1661
143 1663
143 1674
143 1689
143 1692
143 1693
143 1703
143 1708
143 1710
143 1715
143 1731
143 1738
143 1749
143 1766
143 1787
143 1797
143 1804
143 1805
143 1807
143 1819
143 1840
143 1848
143 1857
143 1864
143 1868
143 1882
143 1884
143 1888
143 1895
143 1919
143 1920
143 1921
143 1928
143 1948
143 1957
143 1966
143 1983
143 2033
143 2037
143 2040
143 2051
143 2055
143 2061
143 2071
143 2072
143 2082
143 2089
143 2090
143 2097
143 2120
143 2124
143 2127
143 2137
143 2142
143 2146
143 2151
143 2157
143 2162
143 2166
143 2169
143 2170
143 2172
143 2184
143 2188
143 2193
143 2198
143 2208
143 2209
143 2211
143 2212
143 2218
144 269
144 345
144 432
144 460
144 677
144 678
144 939
144 1240
144 1420
144 1531
144 1801
144 1867
144 1871
144 1891
144 1936
144 2008
145 294
145 505
145 507
145 508
145 574
145 609
145 1016
145 1183
145 1338
145 1386
145 1629
145 1630
145 1824
145 1839
145 1871
145 1961
145 2045
146 1533
147 1396
147 1430
147 1533
147 1904
147 2026
148 324
148 474
148 597
148 902
148 959
148 1096
148 1378
148 1395
148 1435
148 1515
148 1532
148 1579
148 1763
148 1829
148 1839
148 2011
148 2020
148 2021
148 2104
148 2165
149 1430
149 1882
149 2137
150 177
150 178
150 190
150 207
150 230
150 232
150 257
150 273
150 286
150 311
150 318
150 325
150 375
150 391
150 405
150 417
150 420
150 519
150 525
150 531
150 572
150 605
150 606
150 617
150 618
150 624
150 643
150 649
150 668
150 671
150 736
150 747
150 768
150 778
150 782
150 810
150 815
150 885
150 897
150 904
150 920
150 926
150 946
150 1014
150 1036
150 1060
150 1072
150 1087
150 1111
150 1152
150 1156
150 1167
150 1175
150 1188
150 1199
150 1226
150 1245
150 1253
150 1263
150 1266
150 1268
150 1273
150 1302
150 1331
150 1339
150 1356
150 1393
150 1416
150 1453
150 1459
150 1461
150 1466
150 1473
150 1489
150 1495
150 1518
150 1524
150 1533
150 1545
150 1548
150 1575
150 1585
150 1616
150 1623
150 1663
150 1679
150 1689
150 1692
150 1708
150 1710
150 1731
150 1766
150 1779
150 1787
150 1797
150 1805
150 1807
150 1819
150 1848
150 1854
150 1857
150 1864
150 1868
150 1888
150 1895
150 1903
150 1919
150 1928
150 1947
150 1948
150 1956
150 1966
150 2014
150 2015
150 2037
150 2047
150 2061
150 2071
150 2072
150 2082
150 2089
150 2090
150 2097
150 2120
150 2127
150 2142
150 2146
150 2151
150 2169
150 2170
150 2172
150 2177
150 2188
150 2193
150 2198
150 2209
150 2211
150 2212
150 2215
150 2218
151 241
151 351
151 356
151 382
151 435
151 560
151 611
151 671
151 697
151 698
151 740
151 776
151 834
151 884
151 931
151 955
151 956
151 1052
151 1075
151 1241
151 1245
151 1250
151 1294
151 1407
151 1416
151 1501
151 1503
151 1525
151 1533
151 1545
151 1570
151 1652
151 1674
151 1734
151 1758
151 1803
151 1809
151 1832
151 1862
151 1917
151 1950
151 1976
151 2034
151 2137
151 2140
151 2142
151 2175
152 1539
153 203
153 870
153 972
153 1506
153 1533
153 1585
154 766
154 1447
154 2124
155 848
155 1552
155 1649
156 294
156 774
156 1211
156 1772
156 1871
157 253
157 289
157 344
157 355
157 378
157 388
157 420
157 495
157 501
157 568
157 598
157 599
157 656
157 682
157 691
157 731
157 753
157 768
157 779
157 785
157 787
157 797
157 824
157 937
157 949
157 956
157 1001
157 1044
157 1160
157 1190
157 1193
157 1201
157 1214
157 1219
157 1223
157 1248
157 1256
157 1278
157 1291
157 1296
157 1301
157 1390
157 1413
157 1436
157 1512
157 1519
157 1533
157 1558
157 1571
157 1589
157 1607
157 1645
157 1658
157 1711
157 1713
157 1832
157 1846
157 1905
157 1927
157 1940
157 1947
157 1970
157 1984
157 2130
157 2173
157 2198
157 2204
157 2211
158 788
158 819
158 1650
158 1718
158 1928
158 1946
158 2020
159 511
159 740
159 990
159 1390
159 1397
159 1501
159 1709
159 1734
159 1809
159 1832
159 1959
159 1989
160 508
160 597
160 1236
160 1310
160 1438
160 1754
160 1901
160 2021
161 1415
161 1545
161 1965
161 2044
161 2198
161 2211
162 311
162 946
162 1068
162 1526
162 1533
162 2072
162 2200
163 1113
163 1132
163 1312
163 1986
163 2163
164 1509
165 647
165 1037
166 216
166 253
166 257
166 286
166 289
166 333
166 344
166 346
166 355
166 388
166 495
166 501
166 536
166 599
166 656
166 682
166 691
166 693
166 731
166 753
166 785
166 787
166 797
166 824
166 937
166 948
166 949
166 956
166 960
166 982
166 1044
166 1091
166 1102
166 1160
166 1190
166 1201
166 1214
166 1219
166 1223
166 1241
166 1242
166 1248
166 1278
166 1301
166 1390
166 1401
166 1413
166 1419
166 1464
166 1526
166 1533
166 1534
166 1558
166 1571
166 1592
166 1607
166 1621
166 1637
166 1658
166 1713
166 1726
166 1773
166 1808
166 1838
166 1846
166 1847
166 1907
166 1940
166 1947
166 1984
166 2061
166 2077
166 2079
166 2082
166 2137
166 2157
166 2173
166 2188
166 2199
166 2204
167 1913
167 2094
168 536
168 1193
168 1533
168 1809
168 1886
168 2065
169 1341
169 1691
170 2093
171 580
171 635
171 783
171 1002
171 1155
171 1198
172 1173
172 1374
173 547
173 560
173 853
173 963
173 1525
174 1317
174 1608
174 1654
174 1715
174 1797
174 2137
175 324
175 573
175 1108
175 1337
175 1532
175 1761
175 1901
175 2137
176 941
176 1083
176 1149
176 1463
176 1620
176 1681
176 1707
176 1821
177 190
177 273
177 318
177 334
177 374
177 391
177 426
177 519
177 525
177 538
177 605
177 606
177 624
177 649
177 782
177 847
177 880
177 885
177 897
177 926
177 946
177 954
177 963
177 1026
177 1051
177 1060
177 1072
177 1075
177 1087
177 1167
177 1188
177 1226
177 1234
177 1249
177 1254
177 1259
177 1268
177 1273
177 1277
177 1302
177 1317
177 1331
177 1339
177 1368
177 1374
177 1393
177 1408
177 1459
177 1461
177 1466
177 1489
177 1516
177 1518
177 1519
177 1533
177 1534
177 1541
177 1545
177 1548
177 1575
177 1577
177 1585
177 1591
177 1623
177 1661
177 1676
177 1692
177 1710
177 1731
177 1735
177 1736
177 1738
177 1749
177 1766
177 1797
177 1804
177 1807
177 1840
177 1857
177 1864
177 1868
177 1882
177 1884
177 1888
177 1895
177 1903
177 1928
177 1948
177 1956
177 1957
177 1983
177 2043
177 2051
177 2055
177 2061
177 2063
177 2072
177 2089
177 2090
177 2120
177 2127
177 2137
177 2142
177 2146
177 2157
177 2170
177 2188
177 2189
177 2193
177 2209
177 2211
177 2215
177 2218
178 190
178 230
178 232
178 257
178 273
178 311
178 318
178 325
178 374
178 375
178 391
178 405
178 415
178 420
178 426
178 519
178 531
178 543
178 572
178 605
178 606
178 617
178 630
178 637
178 641
178 649
178 668
178 671
178 686
178 742
178 747
178 778
178 782
178 810
178 847
178 864
178 880
178 885
178 896
178 904
178 946
178 950
178 982
178 1014
178 1051
178 1060
178 1075
178 1087
178 1152
178 1156
178 1167
178 1199
178 1202
178 1226
178 1234
178 1249
178 1259
178 1263
178 1266
178 1273
178 1302
178 1317
178 1320
178 1331
178 1339
178 1356
178 1390
178 1408
178 1415
178 1430
178 1453
178 1454
178 1459
178 1461
178 1466
178 1473
178 1489
178 1493
178 1501
178 1506
178 1516
178 1524
178 1533
178 1534
178 1545
178 1548
178 1575
178 1577
178 1591
178 1592
178 1598
178 1616
178 1623
178 1661
178 1663
178 1679
178 1692
178 1693
178 1703
178 1708
178 1710
178 1715
178 1731
178 1735
178 1749
178 1766
178 1779
178 1787
178 1797
178 1804
178 1805
178 1807
178 1840
178 1857
178 1864
178 1868
178 1882
178 1888
178 1903
178 1916
178 1919
178 1920
178 1921
178 1928
178 1948
178 1957
178 1966
178 1997
178 2031
178 2037
178 2040
178 2047
178 2051
178 2055
178 2082
178 2090
178 2097
178 2142
178 2146
178 2151
178 2157
178 2169
178 2170
178 2177
178 2189
178 2193
178 2198
178 2209
178 2211
178 2212
178 2215
178 2218
179 313
179 322
179 485
179 1158
179 1814
179 1875
179 1897
179 1915
179 1931
179 2216
180 301
180 358
180 1261
180 1716
180 1748
181 311
181 560
181 858
181 1099
181 1245
181 1668
181 1734
182 503
182 1805
182 1990
183 273
183 1549
183 1947
183 2071
183 2208
184 945
184 1426
185 495
185 623
185 693
185 782
185 1145
185 1301
185 1390
185 1519
185 1545
185 1713
185 1947
185 2017
185 2071
185 2173
186 1150
186 1674
186 1717
186 1899
186 1947
187 371
187 893
187 1427
187 1655
187 1913
187 2036
188 341
188 536
188 717
188 1713
188 1888
188 1903
188 1904
188 1931
188 1947
188 2137
189 671
189 740
189 1245
189 1320
189 1713
189 1734
189 1809
189 1907
189 2140
189 2189
190 207
190 230
190 232
190 257
190 273
190 295
190 311
190 315
190 318
190 325
190 374
190 391
190 405
190 415
190 417
190 420
190 426
190 519
190 525
190 531
190 538
190 605
190 617
190 618
190 623
190 624
190 630
190 641
190 643
190 669
190 671
190 736
190 742
190 747
190 748
190 778
190 810
190 815
190 847
190 885
190 896
190 897
190 904
190 920
190 927
190 932
190 945
190 946
190 956
190 982
190 1004
190 1014
190 1019
190 1026
190 1030
190 1051
190 1060
190 1075
190 1139
190 1156
190 1167
190 1175
190 1188
190 1210
190 1226
190 1229
190 1245
190 1253
190 1259
190 1263
190 1266
190 1273
190 1277
190 1302
190 1303
190 1317
190 1331
190 1375
190 1393
190 1416
190 1430
190 1453
190 1459
190 1461
190 1466
190 1495
190 1506
190 1516
190 1519
190 1524
190 1533
190 1534
190 1548
190 1575
190 1577
190 1585
190 1592
190 1607
190 1608
190 1616
190 1623
190 1661
190 1663
190 1674
190 1679
190 1688
190 1689
190 1692
190 1703
190 1708
190 1715
190 1731
190 1735
190 1736
190 1738
190 1749
190 1766
190 1797
190 1804
190 1805
190 1807
190 1819
190 1840
190 1848
190 1853
190 1854
190 1857
190 1864
190 1868
190 1882
190 1884
190 1885
190 1888
190 1895
190 1916
190 1919
190 1920
190 1921
190 1928
190 1956
190 1957
190 1983
190 2021
190 2031
190 2033
190 2040
190 2043
190 2047
190 2051
190 2055
190 2061
190 2071
190 2082
190 2090
190 2120
190 2127
190 2137
190 2142
190 2157
190 2162
190 2177
190 2184
190 2188
190 2189
190 2193
190 2209
190 2211
190 2212
190 2215
190 2218
191 716
191 1367
191 1462
191 1588
192 945
192 2120
192 2137
192 2201
193 1675
193 1809
194 1533
195 1069
195 1506
195 1533
195 1585
195 2188
196 814
196 1133
196 1257
196 1298
196 1366
196 1450
196 1824
197 1463
197 1562
198 1064
198 1486
198 2130
199 424
199 522
199 1273
199 1577
199 1735
199 2137
199 2215
200 1563
200 1832
200 1958
201 1347
202 1617
202 1655
203 972
203 1502
203 1516
203 1533
203 1585
203 1626
203 1809
203 2137
204 260
204 970
204 1647
204 1688
205 210
205 464
205 842
205 1833
206 534
206 1990
207 273
207 311
207 334
207 391
207 415
207 420
207 448
207 504
207 511
207 519
207 525
207 547
207 550
207 606
207 624
207 643
207 649
207 669
207 706
207 710
207 715
207 810
207 847
207 880
207 885
207 897
207 903
207 904
207 926
207 946
207 982
207 1026
207 1051
207 1060
207 1072
207 1087
207 1167
207 1199
207 1234
207 1245
207 1249
207 1259
207 1268
207 1277
207 1279
207 1317
207 1331
207 1339
207 1346
207 1368
207 1385
207 1390
207 1403
207 1416
207 1453
207 1454
207 1461
207 1473
207 1489
207 1495
207 1506
207 1518
207 1519
207 1533
207 1534
207 1548
207 1575
207 1585
207 1591
207 1593
207 1600
207 1608
207 1619
207 1650
207 1663
207 1689
207 1692
207 1693
207 1703
207 1710
207 1713
207 1726
207 1736
207 1749
207 1766
207 1787
207 1805
207 1807
207 1832
207 1839
207 1840
207 1857
207 1864
207 1879
207 1882
207 1884
207 1885
207 1888
207 1895
207 1897
207 1903
207 1904
207 1920
207 1928
207 1947
207 1948
207 1956
207 1973
207 1989
207 1997
207 2001
207 2014
207 2031
207 2040
207 2043
207 2048
207 2051
207 2055
207 2061
207 2072
207 2085
207 2089
207 2090
207 2097
207 2127
207 2140
207 2146
207 2151
207 2170
207 2172
207 2184
207 2189
207 2198
207 2208
207 2209
207 2211
207 2215
207 2218
208 211
208 1147
208 1306
208 1500
208 1797
208 2089
209 425
209 885
209 1004
209 1339
209 1426
209 1608
209 1785
209 1864
209 2051
209 2058
209 2071
210 284
210 464
210 842
210 1154
210 1732
210 2183
211 318
211 637
211 663
211 669
211 847
211 1017
211 1051
211 1147
211 1173
211 1215
211 1306
211 1317
211 1374
211 1456
211 1500
211 1502
211 1516
211 1524
211 1577
211 1614
211 1623
211 1661
211 1676
211 1735
211 1807
211 1884
211 1909
211 1916
211 1968
211 2120
211 2137
211 2172
211 2215
212 236
212 776
212 875
212 1809
212 1976
213 723
213 1564
213 1582
213 1839
213 1897
213 2011
214 1005
214 1320
214 1453
214 1516
214 1689
214 1928
214 2120
214 2142
214 2168
214 2172
214 2215
215 848
215 1345
216 253
216 333
216 378
216 420
216 489
216 495
216 501
216 568
216 598
216 599
216 623
216 682
216 691
216 753
216 779
216 785
216 787
216 797
216 824
216 916
216 937
216 948
216 949
216 956
216 982
216 1001
216 1044
216 1160
216 1190
216 1193
216 1201
216 1214
216 1219
216 1223
216 1245
216 1278
216 1291
216 1334
216 1401
216 1413
216 1419
216 1512
216 1519
216 1533
216 1534
216 1545
216 1571
216 1589
216 1592
216 1621
216 1637
216 1645
216 1658
216 1672
216 1713
216 1776
216 1808
216 1809
216 1832
216 1838
216 1846
216 1895
216 1907
216 1922
216 1927
216 1940
216 1970
216 1977
216 1984
216 2061
216 2077
216 2130
216 2137
216 2157
216 2173
216 2199
216 2204
217 829
217 981
217 1585
218 289
218 333
218 344
218 355
218 378
218 388
218 420
218 495
218 536
218 599
218 656
218 682
218 685
218 691
218 693
218 731
218 768
218 785
218 787
218 797
218 916
218 937
218 948
218 949
218 956
218 1001
218 1091
218 1160
218 1201
218 1214
218 1245
218 1278
218 1291
218 1296
218 1301
218 1334
218 1401
218 1415
218 1419
218 1436
218 1464
218 1512
218 1519
218 1526
218 1533
218 1545
218 1558
218 1571
218 1592
218 1607
218 1621
218 1637
218 1658
218 1726
218 1773
218 1776
218 1808
218 1832
218 1846
218 1847
218 1905
218 1907
218 1922
218 1927
218 1940
218 1947
218 1984
218 1989
218 2061
218 2077
218 2082
218 2157
218 2173
218 2199
218 2204
219 307
219 382
219 447
219 1295
219 1304
219 1449
219 1559
219 1563
219 1677
219 1849
219 1940
219 2060
219 2151
219 2168
220 338
220 690
220 2011
220 2103
221 499
221 1121
221 1136
221 1195
221 1813
221 2163
222 734
222 1193
222 1390
222 1446
222 1533
222 2194
223 810
223 1273
223 1302
223 1533
223 1575
223 1608
223 1804
223 2137
224 1132
225 358
225 1698
226 1506
226 1533
226 1947
226 2071
226 2130
227 409
227 848
227 1475
227 1490
228 1320
228 1506
228 1573
228 1585
228 1811
228 1983
228 1990
228 2031
228 2127
229 1245
229 1294
229 1360
229 1495
229 1775
229 2148
230 311
230 318
230 334
230 374
230 415
230 420
230 426
230 504
230 519
230 531
230 538
230 606
230 624
230 637
230 649
230 782
230 810
230 847
230 880
230 885
230 897
230 926
230 946
230 950
230 1014
230 1026
230 1051
230 1060
230 1072
230 1075
230 1087
230 1175
230 1199
230 1234
230 1249
230 1259
230 1273
230 1277
230 1302
230 1317
230 1331
230 1339
230 1408
230 1416
230 1454
230 1461
230 1466
230 1495
230 1506
230 1518
230 1533
230 1545
230 1548
230 1575
230 1577
230 1585
230 1663
230 1689
230 1692
230 1736
230 1738
230 1749
230 1787
230 1794
230 1797
230 1804
230 1807
230 1868
230 1872
230 1884
230 1888
230 1903
230 1919
230 1920
230 1928
230 1931
230 1947
230 1948
230 1956
230 1957
230 1983
230 1997
230 2061
230 2071
230 2089
230 2120
230 2127
230 2137
230 2142
230 2146
230 2151
230 2157
230 2169
230 2172
230 2188
230 2211
230 2218
231 281
231 537
231 560
231 622
231 828
231 899
231 942
231 1065
231 1150
231 1161
231 1261
231 1483
231 1506
231 1533
231 1717
231 1786
231 1833
231 1837
231 1842
231 1865
231 1899
231 2179
232 273
232 311
232 334
232 374
232 391
232 415
232 426
232 519
232 525
232 538
232 550
232 605
232 606
232 624
232 637
232 778
232 810
232 847
232 885
232 897
232 946
232 950
232 1014
232 1026
232 1072
232 1075
232 1087
232 1167
232 1226
232 1234
232 1249
232 1259
232 1273
232 1302
232 1317
232 1331
232 1339
232 1393
232 1416
232 1430
232 1459
232 1461
232 1473
232 1489
232 1495
232 1506
232 1518
232 1519
232 1533
232 1548
232 1585
232 1591
232 1661
232 1689
232 1692
232 1693
232 1710
232 1735
232 1738
232 1749
232 1761
232 1766
232 1787
232 1804
232 1807
232 1864
232 1868
232 1872
232 1882
232 1884
232 1888
232 1895
232 1897
232 1903
232 1928
232 1956
232 1957
232 1983
232 1997
232 2040
232 2043
232 2051
232 2061
232 2065
232 2071
232 2072
232 2090
232 2097
232 2120
232 2142
232 2146
232 2151
232 2166
232 2169
232 2172
232 2184
232 2188
232 2189
232 2193
232 2211
233 243
233 589
233 737
233 1009
233 1305
234 441
234 1450
235 466
235 2124
236 776
236 875
236 1809
236 1862
236 1947
236 1976
237 947
237 1803
238 592
238 959
238 2119
239 752
239 1117
239 1386
239 1618
239 1839
239 1845
239 1897
239 1932
239 1938
239 1992
239 2049
239 2115
239 2124
240 1176
241 351
241 356
241 382
241 417
241 435
241 456
241 560
241 671
241 697
241 834
241 846
241 884
241 995
241 1067
241 1250
241 1501
241 1525
241 1556
241 1570
241 1636
241 1652
241 1668
241 1674
241 1675
241 1758
241 1762
241 1809
241 1917
241 1947
241 1950
241 2028
241 2031
241 2034
241 2130
241 2142
241 2175
242 2001
242 2107
243 589
243 1009
243 1926
244 1594
245 325
245 1504
245 1549
245 1711
245 1888
245 1947
246 1941
246 2010
247 320
247 356
247 430
247 560
247 709
247 786
247 870
247 972
247 1200
247 1503
247 1525
247 1636
247 1698
247 1955
248 1128
248 1187
248 1897
249 1358
249 1447
249 1651
249 2058
250 759
251 1900
251 1997
251 2137
252 1482
252 1630
252 2124
252 2129
252 2213
253 257
253 286
253 289
253 333
253 344
253 346
253 378
253 388
253 420
253 495
253 523
253 536
253 568
253 598
253 623
253 629
253 656
253 682
253 685
253 693
253 701
253 731
253 753
253 787
253 937
253 948
253 949
253 956
253 975
253 1001
253 1044
253 1062
253 1091
253 1102
253 1214
253 1219
253 1223
253 1241
253 1248
253 1256
253 1278
253 1291
253 1296
253 1334
253 1401
253 1403
253 1413
253 1419
253 1436
253 1453
253 1464
253 1512
253 1519
253 1526
253 1533
253 1534
253 1545
253 1558
253 1589
253 1592
253 1607
253 1621
253 1637
253 1645
253 1658
253 1672
253 1713
253 1726
253 1733
253 1773
253 1808
253 1838
253 1846
253 1847
253 1905
253 1907
253 1927
253 1940
253 1947
253 1977
253 1984
253 2047
253 2077
253 2173
253 2199
253 2204
254 930
254 959
254 1544
254 2119
255 1304
255 1449
255 2137
256 1390
256 1401
256 1533
256 1585
256 1947
257 273
257 289
257 318
257 333
257 334
257 344
257 346
257 374
257 378
257 388
257 391
257 415
257 420
257 426
257 489
257 525
257 531
257 550
257 568
257 598
257 599
257 605
257 623
257 624
257 637
257 691
257 693
257 731
257 753
257 768
257 778
257 779
257 782
257 785
257 787
257 797
257 810
257 824
257 880
257 885
257 897
257 916
257 926
257 937
257 946
257 948
257 949
257 956
257 982
257 1001
257 1014
257 1026
257 1051
257 1060
257 1072
257 1075
257 1087
257 1091
257 1167
257 1175
257 1190
257 1193
257 1199
257 1201
257 1214
257 1219
257 1226
257 1248
257 1249
257 1256
257 1259
257 1268
257 1278
257 1291
257 1302
257 1317
257 1331
257 1334
257 1393
257 1401
257 1413
257 1416
257 1419
257 1430
257 1436
257 1459
257 1461
257 1489
257 1512
257 1519
257 1526
257 1533
257 1545
257 1548
257 1558
257 1571
257 1575
257 1577
257 1585
257 1591
257 1592
257 1607
257 1621
257 1637
257 1645
257 1658
257 1661
257 1663
257 1689
257 1692
257 1710
257 1713
257 1726
257 1735
257 1736
257 1738
257 1749
257 1766
257 1773
257 1787
257 1797
257 1807
257 1808
257 1838
257 1840
257 1854
257 1857
257 1868
257 1872
257 1882
257 1888
257 1903
257 1905
257 1907
257 1916
257 1919
257 1920
257 1922
257 1928
257 1948
257 1956
257 1957
257 1970
257 1977
257 1983
257 1984
257 1997
257 2040
257 2047
257 2051
257 2055
257 2061
257 2082
257 2090
257 2097
257 2130
257 2137
257 2142
257 2157
257 2166
257 2169
257 2170
257 2172
257 2184
257 2193
257 2211
257 2215
258 632
258 1140
258 1517
258 2137
259 560
259 1329
259 1525
259 1842
260 727
260 750
260 830
260 952
260 961
260 1443
260 1688
260 1763
260 1988
260 2137
260 2190
261 1051
262 677
262 1089
262 1093
262 2188
263 575
263 885
263 1573
263 1668
264 774
264 873
264 1347
264 1761
265 1709
266 973
266 1149
266 1839
267 311
267 318
267 605
267 643
267 885
267 897
267 1076
267 1202
267 1241
267 1254
267 1273
267 1317
267 1533
267 1534
267 1545
267 1584
267 1598
267 1661
267 1735
267 1848
267 1864
267 1883
267 1947
267 1948
267 1970
267 1975
267 2043
267 2061
267 2071
267 2082
267 2089
267 2137
267 2170
267 2219
268 374
268 572
268 885
268 1072
268 1415
268 1577
268 1625
268 1804
268 1983
268 2058
268 2071
268 2127
268 2137
269 345
269 432
269 571
269 677
269 678
269 730
269 1305
269 1531
269 1753
269 1801
269 1809
269 1812
269 1936
269 1979
269 2008
269 2094
269 2154
270 737
270 861
270 1034
270 1378
270 1722
270 1910
270 2164
271 1548
271 1663
271 2137
272 677
272 1089
272 1183
272 1491
272 2084
272 2094
273 311
273 315
273 318
273 325
273 334
273 374
273 405
273 415
273 417
273 420
273 424
273 426
273 504
273 519
273 525
273 550
273 572
273 617
273 618
273 624
273 630
273 637
273 641
273 643
273 649
273 668
273 736
273 768
273 778
273 782
273 810
273 815
273 885
273 896
273 897
273 920
273 926
273 946
273 982
273 1014
273 1026
273 1036
273 1051
273 1060
273 1072
273 1075
273 1087
273 1137
273 1152
273 1156
273 1175
273 1188
273 1199
273 1226
273 1234
273 1245
273 1249
273 1259
273 1263
273 1266
273 1268
273 1277
273 1302
273 1317
273 1320
273 1331
273 1334
273 1339
273 1346
273 1356
273 1390
273 1393
273 1408
273 1415
273 1416
273 1451
273 1454
273 1466
273 1473
273 1489
273 1495
273 1506
273 1518
273 1519
273 1524
273 1533
273 1534
273 1545
273 1548
273 1575
273 1577
273 1585
273 1591
273 1598
273 1608
273 1616
273 1623
273 1661
273 1674
273 1689
273 1693
273 1703
273 1708
273 1710
273 1726
273 1735
273 1736
273 1738
273 1749
273 1766
273 1779
273 1787
273 1797
273 1819
273 1832
273 1848
273 1854
273 1864
273 1868
273 1882
273 1884
273 1888
273 1895
273 1903
273 1916
273 1919
273 1920
273 1921
273 1928
273 1948
273 1957
273 1959
273 1983
273 1997
273 2014
273 2033
273 2037
273 2040
273 2043
273 2051
273 2055
273 2082
273 2120
273 2124
273 2137
273 2146
273 2151
273 2157
273 2162
273 2169
273 2172
273 2177
273 2184
273 2188
273 2189
273 2215
273 2218
274 1587
274 1866
274 2129
275 1371
275 2216
276 366
276 518
276 547
276 798
276 885
276 1433
276 1533
276 1723
276 1767
276 1809
276 1862
278 1453
278 2120
278 2137
279 386
279 1501
279 1533
279 1734
279 1832
280 855
280 874
280 1060
280 1443
280 1453
280 1572
280 1848
280 1897
280 1961
281 310
281 358
281 386
281 754
281 846
281 972
281 1325
281 1342
281 1717
281 1786
281 1842
281 1865
281 1955
281 1987
281 2007
281 2179
282 1262
282 1347
283 448
283 1222
283 1717
284 842
284 1887
285 495
285 883
285 1725
285 1738
285 1947
286 344
286 346
286 355
286 378
286 388
286 420
286 489
286 495
286 501
286 536
286 568
286 598
286 599
286 623
286 626
286 691
286 693
286 731
286 753
286 779
286 787
286 797
286 824
286 916
286 937
286 948
286 949
286 982
286 1044
286 1091
286 1111
286 1190
286 1201
286 1223
286 1245
286 1248
286 1256
286 1296
286 1334
286 1401
286 1404
286 1413
286 1415
286 1436
286 1464
286 1512
286 1519
286 1526
286 1533
286 1534
286 1558
286 1571
286 1589
286 1592
286 1607
286 1621
286 1645
286 1658
286 1773
286 1776
286 1808
286 1838
286 1846
286 1905
286 1907
286 1922
286 1927
286 1940
286 1947
286 1970
286 1977
286 1984
286 2043
286 2047
286 2061
286 2130
286 2137
286 2173
286 2199
287 848
288 1191
288 1452
288 1488
288 1506
288 1533
288 1674
288 1851
288 2130
289 333
289 344
289 378
289 388
289 420
289 472
289 489
289 501
289 523
289 536
289 568
289 597
289 598
289 599
289 682
289 691
289 693
289 701
289 753
289 768
289 779
289 785
289 787
289 797
289 916
289 948
289 949
289 956
289 960
289 969
289 982
289 1044
289 1062
289 1091
289 1096
289 1102
289 1160
289 1190
289 1201
289 1214
289 1241
289 1242
289 1256
289 1278
289 1291
289 1296
289 1301
289 1334
289 1390
289 1403
289 1413
289 1419
289 1436
289 1464
289 1512
289 1519
289 1526
289 1529
289 1533
289 1534
289 1558
289 1592
289 1605
289 1607
289 1645
289 1658
289 1733
289 1761
289 1773
289 1776
289 1832
289 1838
289 1846
289 1905
289 1922
289 1927
289 1940
289 1947
289 1970
289 1984
289 2021
289 2061
289 2077
289 2079
289 2130
289 2173
289 2188
289 2199
289 2211
290 458
290 521
290 556
290 825
290 933
290 1025
290 1117
290 1469
290 1564
290 1582
290 1831
290 1845
290 1874
290 1897
290 1992
290 2041
290 2124
291 1116
291 1275
291 1518
291 2201
292 644
292 1362
292 1651
292 1657
292 2084
292 2181
292 2210
293 1262
294 1183
294 1211
294 1894
294 1897
295 311
295 374
295 391
295 420
295 426
295 525
295 531
295 538
295 550
295 605
295 624
295 637
295 649
295 731
295 810
295 847
295 880
295 885
295 897
295 926
295 946
295 950
295 1014
295 1026
295 1051
295 1060
295 1072
295 1075
295 1087
295 1111
295 1160
295 1167
295 1268
295 1273
295 1277
295 1302
295 1317
295 1331
295 1339
295 1388
295 1408
295 1430
295 1459
295 1461
295 1466
295 1489
295 1495
295 1506
295 1518
295 1519
295 1533
295 1545
295 1548
295 1575
295 1591
295 1593
295 1595
295 1674
295 1689
295 1693
295 1710
295 1731
295 1735
295 1736
295 1738
295 1749
295 1807
295 1854
295 1857
295 1864
295 1868
295 1884
295 1888
295 1903
295 1916
295 1919
295 1928
295 1947
295 1956
295 1957
295 2014
295 2040
295 2043
295 2051
295 2071
295 2072
295 2089
295 2090
295 2097
295 2120
295 2151
295 2157
295 2166
295 2169
295 2172
295 2184
295 2188
295 2189
295 2193
295 2211
295 2215
296 485
296 1323
296 1326
296 1533
297 555
297 677
297 765
297 919
297 939
297 953
297 989
297 1029
297 1531
297 1701
297 1824
297 1871
297 1918
297 1936
297 1979
297 2008
297 2021
297 2094
297 2154
298 1545
298 1947
299 448
299 885
299 1533
299 1668
299 1775
299 1997
299 2078
299 2089
299 2129
299 2172
300 1117
301 857
301 900
301 972
301 1136
301 1451
302 920
302 1210
302 1647
302 1661
302 1864
302 2043
302 2137
303 1978
303 2179
304 669
304 731
304 1331
304 1545
304 1585
304 1593
304 1612
304 1804
304 1947
304 2137
304 2188
304 2189
305 946
305 1533
306 560
306 846
307 382
307 416
307 483
307 1417
307 1506
307 1563
307 1947
307 2060
307 2151
307 2168
308 2104
309 1206
309 1277
309 1317
309 1679
310 358
310 359
310 560
310 564
310 972
310 1261
310 1342
310 1390
310 1452
310 1506
310 1525
310 1533
310 1717
310 1842
310 1947
310 2007
311 318
311 325
311 334
311 375
311 391
311 397
311 405
311 415
311 417
311 420
311 426
311 504
311 519
311 525
311 531
311 572
311 576
311 605
311 606
311 617
311 618
311 624
311 637
311 641
311 643
311 649
311 668
311 671
311 722
311 734
311 742
311 768
311 782
311 810
311 815
311 864
311 880
311 885
311 896
311 920
311 926
311 946
311 950
311 1014
311 1026
311 1051
311 1060
311 1075
311 1076
311 1130
311 1156
311 1167
311 1175
311 1199
311 1202
311 1226
311 1234
311 1245
311 1249
311 1253
311 1254
311 1259
311 1263
311 1266
311 1273
311 1277
311 1302
311 1317
311 1331
311 1356
311 1374
311 1393
311 1408
311 1416
311 1430
311 1453
311 1459
311 1461
311 1466
311 1473
311 1493
311 1495
311 1506
311 1518
311 1533
311 1534
311 1548
311 1575
311 1577
311 1585
311 1592
311 1616
311 1617
311 1623
311 1661
311 1663
311 1674
311 1676
311 1679
311 1689
311 1693
311 1696
311 1703
311 1715
311 1735
311 1738
311 1760
311 1787
311 1797
311 1804
311 1805
311 1807
311 1854
311 1857
311 1872
311 1882
311 1883
311 1884
311 1888
311 1895
311 1903
311 1920
311 1921
311 1928
311 1956
311 1957
311 1966
311 1983
311 1997
311 2014
311 2031
311 2040
311 2043
311 2047
311 2051
311 2055
311 2061
311 2071
311 2072
311 2082
311 2097
311 2120
311 2127
311 2137
311 2142
311 2146
311 2151
311 2172
311 2177
311 2184
311 2189
311 2193
311 2198
311 2209
311 2211
311 2212
311 2215
311 2218
311 2219
312 1245
312 1519
312 1533
312 1717
312 1832
312 1947
312 2071
313 758
313 879
313 1043
313 1746
314 2029
315 318
315 415
315 420
315 426
315 519
315 525
315 531
315 538
315 550
315 605
315 606
315 624
315 637
315 649
315 782
315 810
315 847
315 880
315 897
315 1014
315 1026
315 1051
315 1072
315 1087
315 1167
315 1175
315 1199
315 1226
315 1234
315 1249
315 1273
315 1302
315 1331
315 1339
315 1393
315 1408
315 1453
315 1454
315 1459
315 1461
315 1466
315 1473
315 1489
315 1495
315 1506
315 1519
315 1533
315 1545
315 1575
315 1577
315 1585
315 1591
315 1674
315 1692
315 1693
315 1700
315 1738
315 1739
315 1749
315 1766
315 1787
315 1797
315 1804
315 1807
315 1840
315 1854
315 1857
315 1864
315 1868
315 1884
315 1920
315 1956
315 1957
315 1983
315 1997
315 2014
315 2040
315 2043
315 2051
315 2055
315 2071
315 2072
315 2090
315 2120
315 2124
315 2127
315 2137
315 2142
315 2151
315 2157
315 2166
315 2170
315 2172
315 2184
315 2188
315 2189
315 2198
315 2209
315 2211
315 2215
315 2218
316 566
316 1185
317 322
317 766
318 334
318 375
318 383
318 391
318 397
318 405
318 417
318 420
318 424
318 519
318 525
318 531
318 538
318 547
318 550
318 572
318 605
318 606
318 624
318 630
318 637
318 643
318 649
318 668
318 669
318 671
318 710
318 736
318 742
318 747
318 778
318 782
318 815
318 847
318 864
318 885
318 896
318 897
318 904
318 920
318 926
318 950
318 982
318 985
318 1014
318 1051
318 1060
318 1072
318 1075
318 1076
318 1087
318 1152
318 1167
318 1175
318 1188
318 1199
318 1226
318 1234
318 1249
318 1254
318 1259
318 1263
318 1266
318 1273
318 1277
318 1302
318 1317
318 1331
318 1339
318 1346
318 1390
318 1453
318 1454
318 1459
318 1461
318 1466
318 1473
318 1489
318 1506
318 1516
318 1518
318 1519
318 1533
318 1534
318 1541
318 1548
318 1577
318 1585
318 1591
318 1592
318 1608
318 1616
318 1619
318 1623
318 1661
318 1663
318 1674
318 1676
318 1689
318 1692
318 1693
318 1708
318 1710
318 1715
318 1735
318 1736
318 1738
318 1775
318 1779
318 1787
318 1797
318 1805
318 1807
318 1819
318 1840
318 1848
318 1864
318 1872
318 1882
318 1884
318 1888
318 1895
318 1916
318 1919
318 1956
318 1966
318 1973
318 1975
318 1983
318 1990
318 1997
318 2004
318 2014
318 2031
318 2037
318 2040
318 2043
318 2047
318 2048
318 2055
318 2071
318 2072
318 2085
318 2089
318 2090
318 2097
318 2120
318 2124
318 2137
318 2140
318 2142
318 2151
318 2166
318 2172
318 2177
318 2188
318 2189
318 2193
318 2208
318 2209
318 2212
318 2215
318 2218
319 382
319 1430
319 1516
319 2072
319 2121
319 2208
320 379
320 430
320 547
320 709
320 786
320 870
320 1052
320 1075
320 1196
320 1200
320 1389
320 1501
320 1525
320 1533
320 1585
320 1636
320 1698
320 1832
320 1877
320 1955
321 610
321 814
321 1025
321 1498
321 1582
321 1944
322 403
322 758
322 1043
322 1321
322 1398
322 1746
322 1791
322 1926
322 1980
323 957
323 1018
323 1149
323 1450
323 1629
323 1681
323 1712
323 1897
324 330
324 395
324 473
324 597
324 671
324 685
324 693
324 750
324 763
324 791
324 902
324 961
324 969
324 1034
324 1035
324 1070
324 1096
324 1108
324 1211
324 1271
324 1353
324 1430
324 1511
324 1532
324 1544
324 1568
324 1586
324 1605
324 1669
324 1700
324 1763
324 1765
324 1829
324 1862
324 1869
324 1970
324 2016
324 2020
324 2021
324 2042
324 2104
324 2153
324 2186
325 334
325 391
325 420
325 426
325 519
325 538
325 550
325 624
325 637
325 782
325 847
325 880
325 885
325 897
325 926
325 946
325 1014
325 1026
325 1051
325 1072
325 1087
325 1167
325 1199
325 1234
325 1245
325 1249
325 1268
325 1273
325 1277
325 1331
325 1339
325 1393
325 1408
325 1416
325 1453
325 1454
325 1461
325 1466
325 1495
325 1504
325 1506
325 1518
325 1519
325 1533
325 1548
325 1549
325 1575
325 1577
325 1585
325 1591
325 1617
325 1661
325 1668
325 1692
325 1710
325 1731
325 1736
325 1749
325 1787
325 1804
325 1807
325 1832
325 1840
325 1854
325 1857
325 1864
325 1868
325 1872
325 1884
325 1888
325 1903
325 1920
325 1947
325 1948
325 1956
325 1957
325 1983
325 2014
325 2040
325 2051
325 2055
325 2071
325 2089
325 2097
325 2120
325 2125
325 2127
325 2137
325 2146
325 2151
325 2157
325 2170
325 2172
325 2188
325 2189
325 2193
325 2198
325 2209
325 2215
325 2218
326 885
326 1533
326 1585
326 1854
326 1882
326 1947
326 1960
326 1983
326 2201
327 448
327 1460
327 1483
327 2093
328 771
328 1780
329 1390
329 1533
329 1672
329 1738
329 1811
329 2200
330 969
330 1533
330 1639
330 1799
330 2189
331 1651
331 1790
332 861
332 868
333 344
333 346
333 355
333 378
333 489
333 501
333 531
333 536
333 547
333 568
333 598
333 599
333 623
333 629
333 682
333 685
333 701
333 731
333 753
333 768
333 779
333 782
333 785
333 797
333 824
333 916
333 937
333 948
333 949
333 954
333 956
333 960
333 1001
333 1062
333 1091
333 1102
333 1160
333 1190
333 1193
333 1219
333 1223
333 1241
333 1256
333 1278
333 1296
333 1401
333 1403
333 1413
333 1436
333 1473
333 1512
333 1519
333 1526
333 1533
333 1534
333 1545
333 1558
333 1571
333 1589
333 1607
333 1645
333 1658
333 1672
333 1713
333 1726
333 1733
333 1773
333 1776
333 1808
333 1832
333 1838
333 1905
333 1907
333 1916
333 1922
333 1927
333 1940
333 1947
333 1970
333 1977
333 1984
333 2047
333 2077
333 2079
333 2137
333 2157
333 2173
333 2188
333 2211
334 374
334 375
334 405
334 420
334 426
334 504
334 519
334 531
334 538
334 550
334 572
334 605
334 624
334 630
334 637
334 641
334 643
334 649
334 668
334 671
334 742
334 747
334 778
334 782
334 810
334 815
334 847
334 864
334 880
334 885
334 896
334 926
334 946
334 950
334 981
334 982
334 1001
334 1026
334 1036
334 1060
334 1075
334 1131
334 1152
334 1175
334 1188
334 1226
334 1234
334 1245
334 1249
334 1253
334 1259
334 1266
334 1268
334 1273
334 1277
334 1302
334 1331
334 1339
334 1346
334 1408
334 1415
334 1416
334 1430
334 1459
334 1461
334 1466
334 1473
334 1489
334 1493
334 1506
334 1516
334 1518
334 1533
334 1534
334 1548
334 1577
334 1585
334 1592
334 1608
334 1616
334 1623
334 1661
334 1663
334 1679
334 1689
334 1703
334 1708
334 1710
334 1731
334 1738
334 1749
334 1766
334 1797
334 1805
334 1840
334 1848
334 1850
334 1854
334 1857
334 1864
334 1872
334 1882
334 1884
334 1903
334 1916
334 1919
334 1920
334 1921
334 1928
334 1947
334 1948
334 1956
334 1983
334 2037
334 2040
334 2043
334 2051
334 2055
334 2071
334 2072
334 2082
334 2089
334 2090
334 2097
334 2120
334 2124
334 2127
334 2137
334 2142
334 2151
334 2157
334 2162
334 2169
334 2170
334 2172
334 2177
334 2184
334 2198
334 2211
334 2215
334 2218
334 2219
335 1044
335 1256
335 1495
335 1533
335 1621
335 2077
335 2208
336 1272
336 1804
336 1947
337 1079
337 1912
337 1928
338 483
338 498
338 734
338 968
338 1088
338 1114
338 1188
338 1348
338 1446
338 1533
338 1560
338 1692
338 1709
338 1725
338 1774
338 1809
338 1832
338 1853
338 1878
338 1928
338 1981
338 2056
338 2061
338 2065
338 2196
338 2209
338 2215
339 780
339 1051
339 1502
339 2086
339 2089
339 2125
339 2137
339 2209
340 761
341 1903
341 1917
341 2137
341 2157
341 2184
342 495
342 633
342 740
342 1067
342 1533
342 1713
342 1758
342 1903
342 1947
342 2137
343 1136
343 1381
343 2216
344 346
344 378
344 388
344 445
344 472
344 495
344 501
344 523
344 536
344 568
344 598
344 623
344 624
344 629
344 656
344 685
344 691
344 693
344 740
344 753
344 768
344 779
344 782
344 797
344 824
344 937
344 948
344 949
344 956
344 1062
344 1091
344 1102
344 1124
344 1160
344 1190
344 1219
344 1223
344 1242
344 1248
344 1256
344 1278
344 1296
344 1301
344 1401
344 1403
344 1413
344 1419
344 1464
344 1512
344 1526
344 1533
344 1545
344 1556
344 1558
344 1571
344 1589
344 1621
344 1637
344 1645
344 1672
344 1713
344 1733
344 1808
344 1832
344 1846
344 1905
344 1907
344 1922
344 1940
344 1947
344 1977
344 1984
344 2047
344 2054
344 2061
344 2077
344 2082
344 2127
344 2130
344 2199
344 2204
345 398
345 432
345 677
345 678
345 730
345 907
345 919
345 939
345 953
345 1274
345 1420
345 1531
345 1583
345 1587
345 1631
345 1753
345 1812
345 1871
345 1918
345 1979
345 2154
346 355
346 388
346 420
346 472
346 495
346 501
346 568
346 623
346 629
346 656
346 682
346 685
346 691
346 693
346 701
346 731
346 753
346 768
346 785
346 797
346 824
346 848
346 948
346 949
346 956
346 960
346 982
346 1062
346 1160
346 1190
346 1201
346 1214
346 1219
346 1241
346 1242
346 1248
346 1256
346 1334
346 1390
346 1401
346 1403
346 1413
346 1415
346 1436
346 1512
346 1519
346 1526
346 1545
346 1558
346 1571
346 1607
346 1621
346 1645
346 1672
346 1726
346 1776
346 1808
346 1846
346 1847
346 1905
346 1907
346 1922
346 1927
346 1947
346 1970
346 1984
346 2043
346 2061
346 2077
346 2082
346 2130
346 2157
346 2199
346 2204
347 789
347 936
347 1489
347 1938
348 465
348 474
348 867
348 1054
348 1121
348 1438
348 1691
348 1755
348 1915
348 2118
348 2122
349 1333
349 2059
350 1210
351 619
351 671
351 776
351 834
351 955
351 995
351 1067
351 1075
351 1245
351 1407
351 1416
351 1456
351 1556
351 1621
351 1636
351 1652
351 1734
351 1758
351 1762
351 1809
351 1947
351 1950
351 1976
351 2031
351 2157
351 2175
351 2184
352 1687
352 2137
353 471
353 492
353 759
353 868
353 909
353 1028
353 1045
353 1232
353 1321
353 1802
353 1994
354 742
354 1273
354 1932
354 2137
355 378
355 472
355 489
355 495
355 536
355 568
355 598
355 599
355 623
355 629
355 685
355 691
355 693
355 701
355 731
355 753
355 768
355 779
355 785
355 787
355 797
355 824
355 916
355 948
355 949
355 956
355 1044
355 1062
355 1091
355 1102
355 1160
355 1190
355 1201
355 1214
355 1242
355 1248
355 1256
355 1278
355 1291
355 1296
355 1301
355 1334
355 1390
355 1413
355 1436
355 1464
355 1512
355 1526
355 1533
355 1534
355 1545
355 1558
355 1571
355 1621
355 1637
355 1645
355 1658
355 1713
355 1733
355 1773
355 1776
355 1808
355 1809
355 1833
355 1838
355 1847
355 1940
355 1947
355 1970
355 1984
355 2077
355 2079
355 2082
355 2130
355 2137
355 2157
355 2199
355 2204
356 382
356 430
356 435
356 456
356 776
356 834
356 955
356 1052
356 1067
356 1075
356 1223
356 1407
356 1416
356 1456
356 1501
356 1503
356 1556
356 1672
356 1674
356 1675
356 1758
356 1762
356 1803
356 1809
356 1917
356 1931
356 1976
356 2026
356 2028
356 2031
356 2079
356 2137
356 2175
356 2198
356 2211
357 695
357 1129
357 1317
357 1408
357 1541
357 1595
357 1674
357 1690
357 1715
357 1948
357 2120
357 2189
357 2215
358 359
358 425
358 560
358 564
358 581
358 1065
358 1161
358 1261
358 1265
358 1320
358 1335
358 1342
358 1471
358 1503
358 1506
358 1525
358 1533
358 1717
358 1842
358 1865
358 1955
358 2007
358 2089
358 2138
358 2179
359 560
359 622
359 740
359 1261
359 1265
359 1506
359 1533
359 1545
359 1624
359 1899
359 2018
360 624
360 687
360 1037
360 1519
360 1545
360 1663
360 1809
360 1870
360 2137
361 447
361 833
361 1304
361 1849
362 552
362 1900
362 2095
363 1132
363 1596
363 1986
364 897
364 1061
364 1804
364 1947
365 403
365 475
365 909
365 1745
366 518
366 885
366 1247
366 1533
366 1723
367 955
367 1501
367 1734
367 2140
367 2189
368 933
368 1386
368 1469
369 1232
369 1260
369 2024
369 2163
370 1531
370 1871
370 1979
371 963
371 1655
371 1913
371 2110
372 569
372 632
372 1140
372 1155
372 1292
372 1548
372 1663
372 1739
372 2120
373 740
373 1194
373 1357
373 1595
373 1947
373 2125
373 2137
373 2208
374 375
374 391
374 417
374 420
374 424
374 426
374 519
374 525
374 531
374 605
374 606
374 617
374 618
374 624
374 641
374 643
374 649
374 671
374 742
374 747
374 768
374 778
374 782
374 815
374 864
374 880
374 904
374 920
374 946
374 950
374 954
374 963
374 1014
374 1020
374 1036
374 1063
374 1072
374 1075
374 1087
374 1148
374 1152
374 1156
374 1175
374 1188
374 1245
374 1249
374 1266
374 1268
374 1277
374 1302
374 1317
374 1320
374 1331
374 1339
374 1346
374 1364
374 1374
374 1393
374 1415
374 1416
374 1426
374 1453
374 1459
374 1461
374 1466
374 1489
374 1493
374 1506
374 1516
374 1518
374 1524
374 1533
374 1541
374 1545
374 1548
374 1592
374 1608
374 1614
374 1616
374 1623
374 1647
374 1661
374 1674
374 1676
374 1679
374 1692
374 1693
374 1708
374 1715
374 1731
374 1735
374 1736
374 1738
374 1766
374 1779
374 1797
374 1804
374 1805
374 1807
374 1840
374 1848
374 1854
374 1864
374 1868
374 1872
374 1884
374 1888
374 1895
374 1903
374 1916
374 1919
374 1920
374 1921
374 1928
374 1948
374 1956
374 2004
374 2037
374 2043
374 2047
374 2051
374 2055
374 2061
374 2063
374 2071
374 2072
374 2089
374 2097
374 2127
374 2142
374 2146
374 2151
374 2157
374 2166
374 2169
374 2170
374 2172
374 2177
374 2184
374 2188
374 2193
374 2196
374 2209
374 2211
374 2212
375 415
375 420
375 426
375 504
375 525
375 538
375 550
375 605
375 606
375 624
375 637
375 782
375 810
375 847
375 880
375 885
375 946
375 950
375 1014
375 1051
375 1060
375 1072
375 1075
375 1167
375 1175
375 1199
375 1226
375 1234
375 1245
375 1249
375 1268
375 1273
375 1277
375 1302
375 1317
375 1331
375 1393
375 1408
375 1430
375 1444
375 1453
375 1454
375 1459
375 1461
375 1466
375 1473
375 1489
375 1495
375 1506
375 1518
375 1519
375 1533
375 1534
375 1545
375 1548
375 1575
375 1577
375 1591
375 1689
375 1693
375 1715
375 1731
375 1735
375 1736
375 1749
375 1766
375 1787
375 1807
375 1840
375 1854
375 1857
375 1868
375 1872
375 1882
375 1884
375 1888
375 1895
375 1903
375 1916
375 1919
375 1920
375 1928
375 1948
375 1956
375 1997
375 2014
375 2043
375 2051
375 2071
375 2072
375 2089
375 2097
375 2137
375 2142
375 2151
375 2157
375 2169
375 2184
375 2188
375 2189
375 2198
375 2209
375 2215
375 2218
376 793
376 1009
377 458
377 711
377 1386
377 1469
377 1564
378 388
378 420
378 472
378 489
378 495
378 536
378 568
378 598
378 623
378 629
378 656
378 681
378 691
378 693
378 701
378 753
378 757
378 779
378 785
378 787
378 797
378 885
378 916
378 948
378 949
378 956
378 960
378 1001
378 1044
378 1091
378 1102
378 1201
378 1214
378 1219
378 1242
378 1245
378 1248
378 1250
378 1256
378 1278
378 1331
378 1390
378 1403
378 1413
378 1419
378 1439
378 1464
378 1534
378 1545
378 1558
378 1571
378 1589
378 1593
378 1621
378 1628
378 1637
378 1658
378 1672
378 1713
378 1726
378 1773
378 1776
378 1808
378 1838
378 1846
378 1847
378 1873
378 1905
378 1922
378 1947
378 1977
378 1984
378 2009
378 2047
378 2061
378 2065
378 2124
378 2130
378 2137
378 2194
378 2198
378 2199
378 2204
379 786
379 870
379 972
379 1075
379 1196
379 1636
380 1183
381 1017
381 1093
381 1317
381 1674
381 1739
381 2089
381 2137
381 2215
382 435
382 456
382 462
382 527
382 693
382 697
382 702
382 731
382 776
382 818
382 834
382 846
382 884
382 931
382 950
382 955
382 968
382 995
382 1075
382 1100
382 1181
382 1250
382 1295
382 1317
382 1417
382 1430
382 1449
382 1456
382 1503
382 1533
382 1545
382 1556
382 1559
382 1574
382 1636
382 1652
382 1674
382 1675
382 1689
382 1762
382 1888
382 1903
382 1940
382 1947
382 1950
382 1976
382 1990
382 2020
382 2026
382 2028
382 2034
382 2060
382 2061
382 2090
382 2103
382 2120
382 2140
382 2142
382 2151
382 2168
382 2189
382 2209
383 448
383 511
383 715
383 885
383 998
383 1037
383 1254
383 1385
383 1650
383 1674
383 1809
383 1864
383 1897
383 1931
383 1981
383 2001
383 2120
383 2215
384 566
384 994
384 1897
385 1064
386 564
386 846
386 1261
386 1317
386 1342
386 1389
386 1452
386 1503
386 1674
386 1842
386 1865
386 1887
386 1899
386 1955
386 2007
386 2175
387 2065
387 2114
388 472
388 495
388 501
388 536
388 598
388 623
388 656
388 682
388 685
388 731
388 753
388 768
388 779
388 787
388 797
388 937
388 949
388 960
388 982
388 1001
388 1044
388 1091
388 1102
388 1160
388 1190
388 1193
388 1201
388 1214
388 1223
388 1241
388 1242
388 1256
388 1291
388 1296
388 1320
388 1334
388 1390
388 1401
388 1403
388 1413
388 1436
388 1464
388 1506
388 1512
388 1519
388 1534
388 1545
388 1558
388 1571
388 1585
388 1589
388 1592
388 1607
388 1621
388 1637
388 1645
388 1658
388 1672
388 1713
388 1726
388 1773
388 1776
388 1832
388 1846
388 1905
388 1907
388 1922
388 1927
388 1940
388 1970
388 1977
388 1984
388 2047
388 2077
388 2079
388 2082
388 2130
388 2173
388 2204
389 433
389 531
389 806
389 898
389 956
389 1004
389 1138
389 1254
389 1292
389 1415
389 1625
389 1735
389 1848
389 1864
389 1916
389 1983
389 2071
389 2077
389 2089
389 2127
390 1028
391 405
391 415
391 417
391 426
391 504
391 519
391 525
391 536
391 560
391 572
391 605
391 606
391 618
391 624
391 630
391 641
391 649
391 668
391 681
391 713
391 729
391 742
391 747
391 778
391 782
391 810
391 815
391 847
391 880
391 904
391 920
391 926
391 946
391 950
391 960
391 1014
391 1036
391 1051
391 1060
391 1075
391 1087
391 1094
391 1152
391 1175
391 1176
391 1188
391 1199
391 1205
391 1226
391 1234
391 1245
391 1253
391 1259
391 1263
391 1266
391 1268
391 1277
391 1302
391 1320
391 1331
391 1339
391 1356
391 1368
391 1393
391 1408
391 1415
391 1416
391 1421
391 1430
391 1453
391 1454
391 1459
391 1461
391 1466
391 1473
391 1493
391 1495
391 1506
391 1516
391 1518
391 1519
391 1533
391 1545
391 1571
391 1575
391 1577
391 1589
391 1591
391 1592
391 1598
391 1616
391 1630
391 1661
391 1663
391 1679
391 1692
391 1693
391 1703
391 1708
391 1715
391 1731
391 1734
391 1736
391 1738
391 1747
391 1779
391 1787
391 1797
391 1805
391 1807
391 1819
391 1832
391 1840
391 1854
391 1868
391 1872
391 1884
391 1903
391 1919
391 1920
391 1921
391 1948
391 1957
391 1966
391 1983
391 1995
391 1997
391 2014
391 2033
391 2037
391 2040
391 2043
391 2047
391 2055
391 2063
391 2071
391 2075
391 2082
391 2097
391 2120
391 2124
391 2127
391 2137
391 2151
391 2157
391 2162
391 2166
391 2169
391 2172
391 2177
391 2184
391 2188
391 2189
391 2193
391 2209
391 2211
391 2212
391 2215
391 2218
392 601
392 747
392 1095
392 1111
392 1281
392 1320
392 1454
392 1545
392 1608
392 1679
392 1750
392 1772
392 1804
392 1916
392 2146
393 1011
393 1506
393 1533
393 1604
393 1752
393 1909
393 1947
393 1981
393 1983
393 2185
394 1327
394 1463
395 572
395 597
395 1108
395 1203
395 1415
395 1901
395 2021
395 2137
396 741
396 1049
396 1477
396 2163
397 695
397 839
397 847
397 954
397 963
397 1014
397 1170
397 1188
397 1210
397 1277
397 1280
397 1317
397 1374
397 1516
397 1541
397 1581
397 1614
397 1676
397 1735
397 1807
397 1864
397 1883
397 1937
397 1947
397 1948
397 1970
397 2004
397 2043
397 2082
397 2120
397 2137
397 2166
397 2209
398 432
398 571
398 677
398 730
398 765
398 919
398 1305
398 1420
398 1583
398 1753
398 1812
398 1871
398 1891
398 1918
398 1979
398 2008
398 2094
398 2154
399 561
399 936
399 1469
399 1744
399 1864
399 2011
399 2145
399 2154
400 494
400 798
400 1319
400 1666
400 1756
400 2027
401 1254
402 798
402 1053
402 1396
402 1409
402 1523
402 1533
402 1613
402 1756
402 1972
402 2131
403 526
403 535
403 595
403 861
403 1092
403 1195
403 1260
403 1312
403 1746
403 1791
403 1890
403 2024
403 2109
403 2163
404 660
404 1867
405 415
405 420
405 504
405 519
405 531
405 550
405 606
405 624
405 637
405 649
405 778
405 782
405 810
405 847
405 885
405 926
405 950
405 1014
405 1072
405 1075
405 1087
405 1175
405 1226
405 1259
405 1273
405 1277
405 1302
405 1317
405 1331
405 1430
405 1453
405 1459
405 1461
405 1473
405 1489
405 1495
405 1506
405 1519
405 1533
405 1534
405 1545
405 1575
405 1577
405 1585
405 1661
405 1674
405 1731
405 1735
405 1738
405 1787
405 1797
405 1804
405 1809
405 1840
405 1857
405 1864
405 1884
405 1888
405 1903
405 1919
405 1920
405 1928
405 1948
405 1956
405 1957
405 1983
405 1997
405 2040
405 2043
405 2051
405 2055
405 2061
405 2071
405 2072
405 2089
405 2120
405 2127
405 2146
405 2151
405 2157
405 2166
405 2169
405 2170
405 2172
405 2184
405 2188
405 2189
405 2193
405 2209
405 2211
405 2215
405 2218
406 1830
407 1220
407 1533
407 1947
408 984
408 1054
408 1893
408 2111
409 515
409 833
409 1123
410 562
410 962
410 1333
411 669
411 1853
411 2201
412 533
412 1148
412 1152
412 1194
412 1533
412 1794
412 2004
412 2065
412 2071
412 2120
412 2125
412 2137
412 2189
412 2208
413 434
413 1862
414 1506
414 1533
414 1805
414 1903
414 2172
414 2215
415 417
415 426
415 504
415 519
415 525
415 531
415 572
415 605
415 606
415 617
415 618
415 624
415 637
415 643
415 649
415 668
415 742
415 747
415 768
415 778
415 782
415 810
415 815
415 847
415 880
415 885
415 896
415 897
415 904
415 920
415 950
415 1036
415 1060
415 1075
415 1087
415 1156
415 1167
415 1188
415 1199
415 1202
415 1226
415 1234
415 1245
415 1249
415 1259
415 1266
415 1268
415 1273
415 1277
415 1302
415 1317
415 1320
415 1331
415 1339
415 1356
415 1393
415 1415
415 1416
415 1430
415 1454
415 1459
415 1461
415 1466
415 1473
415 1489
415 1493
415 1506
415 1516
415 1518
415 1519
415 1533
415 1534
415 1545
415 1548
415 1575
415 1591
415 1592
415 1598
415 1608
415 1616
415 1674
415 1679
415 1689
415 1692
415 1693
415 1703
415 1708
415 1715
415 1731
415 1735
415 1736
415 1738
415 1749
415 1766
415 1779
415 1797
415 1805
415 1807
415 1819
415 1854
415 1857
415 1868
415 1872
415 1884
415 1888
415 1895
415 1903
415 1916
415 1919
415 1920
415 1928
415 1948
415 1956
415 1966
415 1983
415 1997
415 2033
415 2043
415 2047
415 2055
415 2061
415 2072
415 2082
415 2089
415 2120
415 2124
415 2127
415 2142
415 2146
415 2149
415 2151
415 2157
415 2166
415 2170
415 2172
415 2177
415 2188
415 2189
415 2198
415 2209
415 2211
415 2212
415 2215
415 2219
416 817
416 1651
417 420
417 426
417 427
417 484
417 504
417 519
417 525
417 538
417 550
417 605
417 606
417 637
417 649
417 778
417 847
417 880
417 885
417 897
417 900
417 926
417 952
417 985
417 1051
417 1060
417 1087
417 1148
417 1167
417 1199
417 1226
417 1234
417 1245
417 1249
417 1255
417 1268
417 1324
417 1339
417 1393
417 1408
417 1430
417 1453
417 1454
417 1459
417 1461
417 1466
417 1473
417 1495
417 1506
417 1518
417 1519
417 1533
417 1534
417 1545
417 1575
417 1577
417 1585
417 1661
417 1663
417 1674
417 1689
417 1692
417 1710
417 1735
417 1736
417 1738
417 1749
417 1761
417 1766
417 1787
417 1797
417 1804
417 1807
417 1832
417 1840
417 1842
417 1854
417 1862
417 1864
417 1868
417 1872
417 1884
417 1903
417 1919
417 1920
417 1928
417 1948
417 1956
417 1957
417 1959
417 1983
417 1997
417 2014
417 2040
417 2051
417 2061
417 2071
417 2090
417 2097
417 2120
417 2140
417 2142
417 2151
417 2157
417 2166
417 2172
417 2188
417 2198
417 2215
417 2218
418 570
418 841
418 853
418 1086
418 1245
418 1276
418 1294
418 1390
418 1529
418 1545
418 1553
418 1775
418 1888
418 2031
418 2065
418 2072
418 2137
418 2208
419 1584
419 2137
419 2142
419 2221
420 424
420 426
420 489
420 519
420 525
420 531
420 536
420 538
420 572
420 598
420 599
420 606
420 617
420 618
420 623
420 624
420 629
420 630
420 637
420 671
420 682
420 685
420 691
420 693
420 701
420 731
420 736
420 742
420 747
420 768
420 779
420 782
420 797
420 810
420 885
420 896
420 904
420 920
420 926
420 948
420 949
420 950
420 960
420 982
420 1001
420 1026
420 1044
420 1060
420 1062
420 1075
420 1087
420 1152
420 1156
420 1160
420 1167
420 1175
420 1188
420 1190
420 1193
420 1199
420 1201
420 1202
420 1214
420 1223
420 1226
420 1234
420 1241
420 1242
420 1245
420 1248
420 1249
420 1256
420 1259
420 1263
420 1266
420 1268
420 1273
420 1278
420 1296
420 1301
420 1320
420 1331
420 1339
420 1346
420 1390
420 1393
420 1401
420 1403
420 1413
420 1415
420 1419
420 1430
420 1436
420 1453
420 1459
420 1464
420 1466
420 1473
420 1489
420 1493
420 1495
420 1506
420 1518
420 1519
420 1524
420 1533
420 1534
420 1545
420 1571
420 1577
420 1585
420 1591
420 1592
420 1598
420 1607
420 1608
420 1616
420 1621
420 1623
420 1637
420 1661
420 1663
420 1672
420 1674
420 1679
420 1689
420 1692
420 1693
420 1708
420 1713
420 1715
420 1726
420 1731
420 1735
420 1736
420 1738
420 1773
420 1776
420 1779
420 1787
420 1804
420 1805
420 1807
420 1808
420 1809
420 1819
420 1832
420 1838
420 1846
420 1847
420 1854
420 1857
420 1864
420 1868
420 1872
420 1882
420 1903
420 1907
420 1919
420 1921
420 1927
420 1928
420 1940
420 1947
420 1948
420 1966
420 1977
420 1983
420 1997
420 2031
420 2037
420 2040
420 2043
420 2047
420 2051
420 2055
420 2061
420 2072
420 2079
420 2082
420 2097
420 2130
420 2137
420 2146
420 2157
420 2162
420 2166
420 2170
420 2173
420 2177
420 2188
420 2189
420 2193
420 2198
420 2199
420 2204
420 2209
420 2218
420 2219
421 1004
421 1533
422 1477
423 952
423 1430
423 1459
423 1533
423 1585
423 1711
423 1873
423 1882
423 2014
423 2120
424 504
424 519
424 525
424 531
424 538
424 550
424 605
424 606
424 624
424 643
424 649
424 736
424 782
424 810
424 847
424 885
424 897
424 926
424 950
424 1014
424 1026
424 1060
424 1072
424 1075
424 1076
424 1167
424 1175
424 1188
424 1199
424 1202
424 1226
424 1234
424 1249
424 1259
424 1268
424 1273
424 1331
424 1339
424 1408
424 1416
424 1430
424 1453
424 1454
424 1459
424 1533
424 1575
424 1577
424 1585
424 1591
424 1598
424 1674
424 1692
424 1693
424 1703
424 1710
424 1749
424 1766
424 1840
424 1854
424 1864
424 1868
424 1872
424 1882
424 1883
424 1884
424 1888
424 1895
424 1903
424 1916
424 1919
424 1920
424 1928
424 1948
424 1956
424 1975
424 1983
424 2014
424 2040
424 2043
424 2051
424 2071
424 2072
424 2089
424 2090
424 2097
424 2127
424 2142
424 2146
424 2151
424 2166
424 2170
424 2184
424 2189
424 2193
424 2198
424 2209
424 2211
424 2215
424 2218
424 2219
425 882
425 945
425 958
425 1004
425 1075
425 1155
425 1317
425 1416
425 1541
425 1606
425 1706
425 1749
425 1785
425 1833
425 1947
425 2089
425 2120
425 2185
425 2202
426 504
426 525
426 531
426 550
426 605
426 617
426 623
426 624
426 637
426 649
426 668
426 736
426 747
426 768
426 778
426 782
426 806
426 815
426 864
426 880
426 885
426 904
426 920
426 926
426 946
426 982
426 1014
426 1026
426 1060
426 1072
426 1111
426 1152
426 1167
426 1188
426 1226
426 1245
426 1253
426 1259
426 1263
426 1266
426 1268
426 1273
426 1277
426 1302
426 1320
426 1331
426 1339
426 1346
426 1356
426 1393
426 1430
426 1453
426 1454
426 1459
426 1473
426 1489
426 1516
426 1518
426 1519
426 1524
426 1533
426 1548
426 1577
426 1585
426 1591
426 1598
426 1623
426 1679
426 1689
426 1692
426 1693
426 1703
426 1708
426 1710
426 1713
426 1715
426 1731
426 1735
426 1736
426 1779
426 1787
426 1805
426 1807
426 1819
426 1840
426 1854
426 1872
426 1895
426 1903
426 1916
426 1920
426 1928
426 1948
426 1966
426 1983
426 2031
426 2033
426 2040
426 2043
426 2047
426 2051
426 2055
426 2061
426 2071
426 2072
426 2075
426 2090
426 2097
426 2120
426 2142
426 2146
426 2149
426 2151
426 2157
426 2162
426 2169
426 2170
426 2172
426 2177
426 2184
426 2193
426 2209
426 2212
426 2215
426 2219
427 2058
428 594
428 1482
429 1580
429 1792
429 1803
430 456
430 560
430 709
430 846
430 870
430 972
430 1037
430 1389
430 1636
430 1877
430 1955
431 878
431 1054
431 1533
431 1545
431 2110
431 2122
431 2123
431 2160
431 2189
432 659
432 677
432 730
432 1420
432 1531
432 1812
432 1871
432 1954
433 964
433 1138
433 1415
433 1625
434 1862
434 2185
434 2201
435 671
435 697
435 776
435 779
435 831
435 834
435 995
435 1067
435 1075
435 1161
435 1245
435 1368
435 1369
435 1407
435 1416
435 1501
435 1503
435 1545
435 1556
435 1626
435 1636
435 1652
435 1713
435 1758
435 1762
435 1862
435 1917
435 1976
435 1984
435 2021
435 2026
435 2031
435 2034
435 2175
435 2188
435 2204
436 745
436 945
436 968
436 1021
436 1031
436 1116
436 1439
436 1479
436 1704
436 1868
436 1916
436 1928
436 2056
436 2065
436 2089
436 2156
437 528
437 763
437 809
437 1359
437 1480
437 1515
437 2021
438 2070
438 2151
439 1674
439 1792
439 1795
439 1807
439 1888
439 1925
439 2015
439 2120
439 2137
440 1875
440 1990
441 1379
441 1450
442 1154
442 1233
443 448
443 1451
443 1488
443 1674
443 1851
444 507
444 574
444 830
444 832
444 1252
444 1363
444 1533
444 1630
444 1711
444 1761
444 1961
444 2104
444 2124
445 599
445 883
445 956
445 1124
445 1251
445 1296
445 1390
445 1396
445 1401
445 1506
445 1533
445 1607
445 1658
445 1723
445 1734
445 1809
445 1832
445 1947
445 1959
445 1995
445 2127
446 641
446 1275
446 2201
447 1417
447 1427
447 1576
447 1849
448 455
448 486
448 895
448 984
448 998
448 1015
448 1101
448 1227
448 1257
448 1336
448 1366
448 1415
448 1451
448 1488
448 1545
448 1551
448 1617
448 1667
448 1668
448 1674
448 1700
448 1796
448 1806
448 1809
448 1843
448 1851
448 1885
448 1981
448 2001
448 2046
448 2051
448 2053
448 2137
449 1114
449 1298
449 1533
450 1060
450 1285
450 1711
451 1803
451 1809
451 2022
452 939
452 1531
452 1936
452 2154
453 493
453 494
453 1533
453 1843
453 2027
453 2176
454 723
454 1836
455 902
455 1098
455 1533
455 1767
455 1821
455 1996
455 2021
455 2211
456 560
456 662
456 671
456 698
456 776
456 884
456 931
456 972
456 1250
456 1407
456 1456
456 1501
456 1503
456 1525
456 1556
456 1570
456 1652
456 1668
456 1675
456 1698
456 1758
456 1762
456 1803
456 1809
456 1862
456 1903
456 1917
456 2026
456 2028
456 2031
456 2034
456 2137
456 2140
456 2142
456 2215
457 573
457 597
457 1236
458 1338
458 1564
458 2041
459 2137
459 2201
461 1542
461 1691
461 2147
462 773
462 1809
462 1832
462 1947
462 2058
462 2061
462 2209
463 1918
464 842
464 1154
464 1732
465 694
466 1701
466 2093
467 1585
467 1599
467 1692
467 2137
467 2188
468 1608
468 1888
468 2051
469 610
469 760
469 946
469 1298
469 1947
469 2120
469 2137
470 1294
470 1533
470 1553
470 1621
470 1947
470 2137
471 1078
471 1180
471 1321
471 1371
471 1994
472 489
472 501
472 536
472 568
472 599
472 623
472 656
472 682
472 691
472 731
472 753
472 768
472 779
472 787
472 797
472 824
472 948
472 956
472 982
472 1001
472 1091
472 1193
472 1201
472 1245
472 1248
472 1291
472 1301
472 1334
472 1419
472 1436
472 1506
472 1519
472 1526
472 1533
472 1545
472 1571
472 1585
472 1589
472 1621
472 1637
472 1641
472 1645
472 1658
472 1672
472 1713
472 1726
472 1773
472 1776
472 1809
472 1832
472 1838
472 1846
472 1847
472 1905
472 1907
472 1927
472 1940
472 1947
472 1970
472 2047
472 2061
472 2075
472 2077
472 2092
472 2127
472 2157
472 2173
472 2198
472 2199
472 2204
472 2208
472 2218
473 559
473 1098
473 1316
473 1378
473 1457
473 1533
473 1579
473 1761
473 1763
473 1829
473 1839
473 1897
473 1938
473 2021
474 1395
474 1435
474 2021
474 2181
475 586
475 728
475 909
475 1232
476 632
476 1619
476 1928
476 2120
477 1279
477 1371
477 1551
478 1677
478 1947
479 1533
479 1571
479 1585
480 1245
480 1947
481 751
481 1613
481 1756
481 2176
482 1386
482 1469
482 1533
482 1564
482 1761
482 1772
483 734
483 1067
483 1295
483 1417
483 1533
483 1563
483 1677
483 1903
483 1958
484 913
484 934
484 1308
484 1533
484 1683
484 1888
484 1897
484 2189
485 582
485 666
485 827
485 862
485 867
485 1098
485 1117
485 1149
485 1162
485 1182
485 1297
485 1326
485 1347
485 1458
485 1497
485 1531
485 1554
485 1634
485 1651
485 1767
485 1772
485 1781
485 1821
485 1839
485 1862
485 2011
485 2045
485 2164
486 646
486 1100
486 1206
486 1344
486 1526
486 1617
486 1809
486 2137
486 2206
487 2137
488 1119
488 1474
488 1730
488 1867
488 1910
488 2139
489 495
489 501
489 536
489 568
489 598
489 599
489 623
489 656
489 682
489 685
489 691
489 693
489 701
489 731
489 753
489 779
489 787
489 797
489 916
489 937
489 956
489 960
489 982
489 1001
489 1062
489 1091
489 1102
489 1124
489 1160
489 1193
489 1201
489 1223
489 1241
489 1242
489 1248
489 1256
489 1278
489 1291
489 1296
489 1301
489 1334
489 1390
489 1401
489 1403
489 1413
489 1419
489 1436
489 1464
489 1526
489 1533
489 1534
489 1545
489 1556
489 1558
489 1571
489 1589
489 1592
489 1607
489 1621
489 1637
489 1658
489 1672
489 1726
489 1733
489 1773
489 1776
489 1808
489 1838
489 1846
489 1905
489 1907
489 1940
489 1947
489 1970
489 1984
489 2079
489 2130
489 2157
489 2173
489 2199
490 1096
490 1271
490 1988
491 575
491 1320
491 1826
491 2089
492 759
492 1028
493 494
493 788
493 2027
493 2176
494 1409
494 1533
494 1613
494 1723
494 2027
494 2176
495 501
495 511
495 523
495 531
495 536
495 568
495 598
495 599
495 624
495 629
495 682
495 685
495 691
495 693
495 701
495 729
495 731
495 753
495 768
495 779
495 782
495 785
495 797
495 916
495 937
495 948
495 949
495 960
495 981
495 982
495 1062
495 1091
495 1102
495 1115
495 1124
495 1160
495 1193
495 1201
495 1214
495 1219
495 1242
495 1248
495 1256
495 1263
495 1278
495 1291
495 1301
495 1356
495 1370
495 1390
495 1401
495 1403
495 1413
495 1419
495 1436
495 1512
495 1519
495 1526
495 1529
495 1533
495 1534
495 1545
495 1571
495 1585
495 1589
495 1592
495 1607
495 1621
495 1628
495 1637
495 1645
495 1658
495 1672
495 1674
495 1713
495 1726
495 1733
495 1738
495 1758
495 1776
495 1787
495 1808
495 1832
495 1838
495 1847
495 1907
495 1917
495 1919
495 1922
495 1940
495 1947
495 1977
495 2017
495 2054
495 2061
495 2075
495 2137
495 2157
495 2188
495 2198
495 2211
496 1009
496 1986
497 1463
498 745
498 958
498 968
498 987
498 1021
498 1031
498 1114
498 1116
498 1320
498 1439
498 1479
498 1489
498 1704
498 1853
498 1868
498 1916
498 1981
498 2009
498 2065
498 2089
498 2120
498 2137
498 2192
498 2201
499 1136
500 2076
500 2150
501 523
501 536
501 629
501 656
501 685
501 691
501 701
501 731
501 785
501 797
501 948
501 949
501 956
501 960
501 982
501 1001
501 1044
501 1062
501 1102
501 1214
501 1219
501 1223
501 1241
501 1242
501 1248
501 1256
501 1278
501 1301
501 1390
501 1401
501 1403
501 1413
501 1419
501 1464
501 1512
501 1519
501 1526
501 1533
501 1545
501 1571
501 1589
501 1592
501 1607
501 1637
501 1658
501 1713
501 1773
501 1809
501 1832
501 1840
501 1846
501 1847
501 1905
501 1907
501 1922
501 1940
501 1977
501 1984
501 2047
501 2077
501 2079
501 2082
501 2130
501 2137
501 2157
501 2173
501 2199
502 1051
502 1317
502 1674
503 527
503 548
503 654
503 1047
503 1390
503 1685
503 1876
503 1990
503 2031
504 519
504 531
504 550
504 572
504 617
504 618
504 624
504 637
504 641
504 643
504 668
504 671
504 778
504 810
504 815
504 880
504 885
504 896
504 897
504 904
504 926
504 946
504 950
504 982
504 1026
504 1036
504 1051
504 1060
504 1072
504 1075
504 1152
504 1156
504 1175
504 1188
504 1199
504 1202
504 1234
504 1245
504 1249
504 1253
504 1263
504 1266
504 1302
504 1317
504 1320
504 1331
504 1356
504 1393
504 1408
504 1416
504 1430
504 1454
504 1459
504 1461
504 1466
504 1473
504 1489
504 1493
504 1495
504 1518
504 1519
504 1524
504 1533
504 1534
504 1545
504 1548
504 1575
504 1577
504 1592
504 1598
504 1616
504 1623
504 1661
504 1663
504 1674
504 1679
504 1689
504 1693
504 1708
504 1710
504 1726
504 1735
504 1736
504 1738
504 1766
504 1787
504 1797
504 1804
504 1807
504 1819
504 1840
504 1854
504 1857
504 1868
504 1882
504 1884
504 1903
504 1916
504 1919
504 1920
504 1921
504 1928
504 1956
504 1957
504 1966
504 1973
504 1983
504 1997
504 2014
504 2031
504 2033
504 2040
504 2043
504 2047
504 2051
504 2055
504 2061
504 2072
504 2089
504 2097
504 2120
504 2124
504 2127
504 2137
504 2142
504 2151
504 2157
504 2162
504 2169
504 2170
504 2188
504 2212
504 2218
505 666
505 670
505 1417
505 1533
505 1630
505 1811
505 1832
506 1243
506 1851
507 723
507 1060
507 1482
507 1961
507 2164
508 509
508 653
508 763
508 835
508 1158
508 1314
508 1754
508 1839
508 1901
508 1939
509 653
509 763
509 835
509 956
509 1158
509 1359
509 1430
509 1608
509 1767
509 1840
509 1939
509 1946
510 1506
510 1710
510 1883
510 1888
510 2137
511 536
511 621
511 623
511 731
511 903
511 982
511 990
511 1278
511 1384
511 1390
511 1430
511 1533
511 1585
511 1621
511 1641
511 1675
511 1709
511 1762
511 1809
511 1832
511 1862
511 1947
511 2044
511 2061
511 2137
511 2215
512 1000
512 1987
513 1729
514 1041
514 1533
514 1814
515 535
515 833
515 1123
515 2216
516 1053
517 1775
517 2137
517 2201
518 798
518 955
518 956
518 1433
518 1545
518 1723
518 1767
518 1984
519 525
519 531
519 538
519 550
519 572
519 617
519 637
519 641
519 649
519 668
519 671
519 736
519 747
519 778
519 810
519 847
519 864
519 880
519 885
519 896
519 904
519 920
519 950
519 982
519 1026
519 1036
519 1051
519 1060
519 1072
519 1075
519 1087
519 1156
519 1167
519 1199
519 1202
519 1226
519 1234
519 1249
519 1253
519 1263
519 1266
519 1277
519 1302
519 1320
519 1339
519 1356
519 1390
519 1393
519 1415
519 1416
519 1430
519 1459
519 1461
519 1466
519 1473
519 1493
519 1495
519 1506
519 1516
519 1518
519 1519
519 1533
519 1534
519 1545
519 1548
519 1577
519 1591
519 1608
519 1612
519 1616
519 1619
519 1674
519 1689
519 1700
519 1708
519 1710
519 1715
519 1731
519 1749
519 1766
519 1779
519 1787
519 1797
519 1804
519 1805
519 1819
519 1840
519 1848
519 1854
519 1864
519 1868
519 1872
519 1888
519 1900
519 1903
519 1920
519 1921
519 1947
519 1948
519 1956
519 1983
519 2014
519 2031
519 2033
519 2040
519 2043
519 2047
519 2051
519 2055
519 2061
519 2071
519 2072
519 2082
519 2089
519 2090
519 2137
519 2142
519 2157
519 2162
519 2169
519 2170
519 2172
519 2177
519 2184
519 2189
519 2198
519 2209
519 2212
519 2215
519 2218
520 1094
520 1533
521 1386
521 1469
521 1564
521 1831
521 2058
522 1203
522 1415
522 1674
522 1735
522 1864
522 1920
522 1975
522 1997
522 2137
523 536
523 568
523 598
523 599
523 623
523 656
523 682
523 691
523 731
523 753
523 785
523 824
523 916
523 1001
523 1044
523 1091
523 1193
523 1201
523 1214
523 1219
523 1223
523 1256
523 1278
523 1291
523 1296
523 1334
523 1401
523 1413
523 1419
523 1436
523 1512
523 1519
523 1533
523 1534
523 1558
523 1571
523 1589
523 1592
523 1607
523 1621
523 1637
523 1645
523 1658
523 1672
523 1713
523 1726
523 1776
523 1838
523 1846
523 1847
523 1905
523 1907
523 1970
523 1984
523 2043
523 2047
523 2077
523 2082
523 2130
523 2137
523 2157
523 2173
523 2199
523 2204
523 2218
524 588
524 1136
524 1165
525 538
525 550
525 605
525 618
525 630
525 632
525 637
525 641
525 643
525 671
525 736
525 747
525 749
525 768
525 782
525 815
525 847
525 864
525 880
525 885
525 896
525 904
525 926
525 950
525 952
525 1004
525 1014
525 1026
525 1036
525 1051
525 1060
525 1072
525 1075
525 1130
525 1156
525 1167
525 1176
525 1199
525 1202
525 1226
525 1234
525 1245
525 1259
525 1292
525 1294
525 1302
525 1317
525 1331
525 1339
525 1346
525 1356
525 1390
525 1393
525 1415
525 1416
525 1453
525 1454
525 1461
525 1466
525 1493
525 1495
525 1506
525 1516
525 1518
525 1524
525 1533
525 1534
525 1548
525 1585
525 1591
525 1592
525 1598
525 1619
525 1623
525 1663
525 1692
525 1693
525 1703
525 1710
525 1715
525 1736
525 1738
525 1749
525 1766
525 1776
525 1779
525 1787
525 1807
525 1846
525 1848
525 1868
525 1888
525 1903
525 1916
525 1919
525 1920
525 1948
525 1956
525 1957
525 1966
525 1983
525 1997
525 2014
525 2033
525 2040
525 2043
525 2047
525 2055
525 2071
525 2072
525 2082
525 2089
525 2097
525 2117
525 2120
525 2127
525 2137
525 2142
525 2146
525 2151
525 2157
525 2162
525 2169
525 2170
525 2172
525 2174
525 2177
525 2188
525 2189
525 2193
525 2209
525 2212
525 2215
525 2218
526 725
526 795
526 820
526 1092
526 1195
526 1260
526 1509
526 1881
526 2024
527 548
527 865
527 876
527 1104
527 1390
527 1516
527 1584
527 1685
529 1160
529 1533
529 1832
529 1940
529 1973
529 2137
529 2218
530 556
530 863
530 933
530 1117
530 1582
530 1630
530 1845
530 1892
530 1897
530 1941
530 2011
531 533
531 550
531 618
531 623
531 624
531 630
531 641
531 643
531 649
531 651
531 668
531 695
531 705
531 736
531 742
531 747
531 768
531 778
531 782
531 864
531 880
531 885
531 897
531 920
531 926
531 946
531 954
531 963
531 982
531 1014
531 1026
531 1036
531 1060
531 1067
531 1072
531 1075
531 1087
531 1111
531 1129
531 1152
531 1167
531 1170
531 1175
531 1199
531 1202
531 1210
531 1215
531 1226
531 1234
531 1253
531 1254
531 1259
531 1268
531 1317
531 1320
531 1331
531 1339
531 1346
531 1356
531 1374
531 1393
531 1408
531 1416
531 1426
531 1430
531 1453
531 1454
531 1461
531 1466
531 1473
531 1489
531 1495
531 1518
531 1524
531 1533
531 1545
531 1548
531 1575
531 1577
531 1585
531 1598
531 1608
531 1623
531 1647
531 1661
531 1663
531 1674
531 1676
531 1679
531 1689
531 1692
531 1693
531 1703
531 1708
531 1715
531 1731
531 1735
531 1738
531 1749
531 1766
531 1787
531 1794
531 1804
531 1805
531 1819
531 1832
531 1840
531 1854
531 1868
531 1872
531 1882
531 1884
531 1888
531 1895
531 1909
531 1921
531 1928
531 1948
531 1957
531 1983
531 1997
531 2031
531 2033
531 2037
531 2043
531 2055
531 2061
531 2063
531 2072
531 2075
531 2082
531 2097
531 2117
531 2127
531 2142
531 2157
531 2166
531 2169
531 2170
531 2172
531 2184
531 2188
531 2193
531 2211
531 2218
532 1336
532 1355
532 1582
532 1744
532 1996
533 651
533 782
533 839
533 847
533 1014
533 1114
533 1129
533 1170
533 1210
533 1215
533 1253
533 1277
533 1320
533 1356
533 1364
533 1374
533 1500
533 1502
533 1516
533 1533
533 1541
533 1543
533 1560
533 1614
533 1647
533 1661
533 1676
533 1715
533 1843
533 1909
533 1916
533 1928
533 1937
533 2117
533 2120
533 2125
533 2137
533 2189
533 2208
533 2209
534 1685
534 1990
535 750
535 1078
535 1451
535 2001
536 568
536 598
536 599
536 623
536 624
536 629
536 632
536 656
536 682
536 685
536 691
536 701
536 731
536 734
536 753
536 757
536 764
536 768
536 779
536 785
536 787
536 797
536 824
536 883
536 916
536 937
536 949
536 956
536 960
536 1001
536 1044
536 1062
536 1091
536 1167
536 1190
536 1219
536 1241
536 1245
536 1248
536 1256
536 1278
536 1291
536 1296
536 1393
536 1401
536 1403
536 1413
536 1419
536 1436
536 1464
536 1484
536 1519
536 1526
536 1533
536 1534
536 1545
536 1556
536 1558
536 1568
536 1571
536 1584
536 1585
536 1589
536 1592
536 1607
536 1632
536 1637
536 1645
536 1672
536 1686
536 1692
536 1713
536 1726
536 1738
536 1776
536 1808
536 1809
536 1832
536 1838
536 1846
536 1862
536 1907
536 1911
536 1917
536 1922
536 1927
536 1931
536 1940
536 1947
536 1984
536 2075
536 2079
536 2082
536 2127
536 2130
536 2142
536 2151
536 2157
536 2159
536 2182
536 2188
536 2198
536 2199
536 2208
536 2211
537 560
537 899
537 962
537 972
537 1065
537 1261
537 1329
537 1525
537 1865
538 550
538 576
538 605
538 606
538 617
538 630
538 634
538 637
538 649
538 668
538 736
538 742
538 782
538 847
538 880
538 885
538 896
538 897
538 904
538 920
538 926
538 943
538 946
538 950
538 982
538 1030
538 1036
538 1072
538 1075
538 1087
538 1152
538 1156
538 1175
538 1188
538 1202
538 1226
538 1253
538 1259
538 1263
538 1266
538 1268
538 1277
538 1317
538 1320
538 1331
538 1339
538 1393
538 1408
538 1415
538 1416
538 1453
538 1454
538 1459
538 1466
538 1489
538 1493
538 1506
538 1518
538 1519
538 1524
538 1533
538 1545
538 1548
538 1575
538 1577
538 1585
538 1591
538 1592
538 1608
538 1623
538 1632
538 1661
538 1663
538 1674
538 1679
538 1689
538 1692
538 1693
538 1703
538 1710
538 1715
538 1731
538 1735
538 1738
538 1749
538 1779
538 1787
538 1797
538 1804
538 1805
538 1807
538 1819
538 1840
538 1848
538 1857
538 1868
538 1882
538 1884
538 1895
538 1903
538 1904
538 1916
538 1919
538 1920
538 1921
538 1928
538 1947
538 1948
538 1957
538 1966
538 1983
538 1997
538 2014
538 2031
538 2040
538 2043
538 2047
538 2071
538 2072
538 2082
538 2089
538 2097
538 2120
538 2127
538 2142
538 2146
538 2157
538 2162
538 2166
538 2172
538 2177
538 2188
538 2189
538 2193
538 2198
538 2215
538 2218
538 2219
539 680
539 1376
539 1897
539 2115
540 2201
541 1367
541 1678
541 1867
542 1128
542 1187
542 1604
543 688
543 963
543 1160
543 1396
543 1506
543 1558
543 1715
543 1733
543 1832
543 1860
543 2092
543 2137
544 737
544 848
544 1322
544 1536
544 2108
545 1533
545 1616
545 1864
545 1888
545 1900
545 2137
546 666
546 735
546 876
546 1080
546 1677
547 570
547 576
547 593
547 782
547 963
547 1063
547 1124
547 1169
547 1430
547 1433
547 1529
547 1545
547 1615
547 1862
547 1904
547 1983
547 2054
547 2056
547 2065
547 2124
547 2201
547 2208
548 654
548 775
548 876
548 893
548 1080
548 1104
548 1320
548 1584
548 1677
548 1685
548 1951
549 1136
549 1323
549 1544
549 1596
549 1730
549 1986
549 2109
550 606
550 618
550 630
550 637
550 641
550 643
550 668
550 671
550 742
550 747
550 778
550 810
550 847
550 880
550 885
550 896
550 897
550 904
550 920
550 926
550 946
550 950
550 982
550 1014
550 1026
550 1036
550 1060
550 1072
550 1087
550 1156
550 1188
550 1202
550 1234
550 1245
550 1253
550 1263
550 1266
550 1273
550 1277
550 1320
550 1331
550 1346
550 1356
550 1408
550 1415
550 1430
550 1444
550 1454
550 1459
550 1461
550 1473
550 1489
550 1506
550 1524
550 1533
550 1534
550 1545
550 1548
550 1575
550 1577
550 1585
550 1591
550 1592
550 1598
550 1608
550 1661
550 1663
550 1689
550 1692
550 1693
550 1708
550 1710
550 1713
550 1731
550 1736
550 1738
550 1779
550 1787
550 1797
550 1805
550 1807
550 1819
550 1832
550 1840
550 1848
550 1854
550 1857
550 1868
550 1872
550 1882
550 1884
550 1888
550 1903
550 1904
550 1920
550 1921
550 1928
550 1947
550 1957
550 1966
550 1983
550 1997
550 2014
550 2040
550 2043
550 2047
550 2055
550 2061
550 2071
550 2077
550 2082
550 2090
550 2124
550 2142
550 2146
550 2151
550 2157
550 2162
550 2169
550 2170
550 2172
550 2177
550 2184
550 2189
550 2193
550 2198
550 2209
550 2218
550 2219
551 1488
551 1525
551 1674
551 1851
552 830
552 1482
552 1761
553 608
553 944
553 1330
554 798
554 2054
555 814
555 941
555 1616
555 2137
556 1355
556 1386
556 1469
556 1898
557 1863
557 2093
557 2216
559 1098
559 1839
559 1897
559 1901
559 2001
559 2021
560 564
560 581
560 622
560 657
560 709
560 786
560 828
560 834
560 842
560 884
560 899
560 972
560 1065
560 1075
560 1136
560 1150
560 1329
560 1335
560 1342
560 1471
560 1483
560 1501
560 1525
560 1533
560 1636
560 1717
560 1842
560 1887
560 1899
560 1928
560 1955
560 2007
560 2102
560 2130
560 2175
560 2179
561 925
561 1681
561 1880
562 962
562 1330
562 1488
563 956
563 1339
563 1805
563 1947
563 2110
564 972
564 1342
564 1525
564 1717
564 1842
564 1865
564 2007
565 678
565 1367
565 1450
565 1531
565 1683
565 1741
566 1666
567 843
567 1205
567 2021
568 598
568 599
568 623
568 629
568 656
568 682
568 685
568 691
568 693
568 701
568 731
568 768
568 779
568 785
568 797
568 916
568 937
568 956
568 960
568 982
568 1001
568 1044
568 1062
568 1100
568 1102
568 1190
568 1214
568 1219
568 1223
568 1242
568 1248
568 1278
568 1291
568 1334
568 1401
568 1413
568 1419
568 1436
568 1464
568 1512
568 1519
568 1533
568 1545
568 1558
568 1571
568 1589
568 1592
568 1621
568 1637
568 1658
568 1672
568 1713
568 1726
568 1733
568 1809
568 1847
568 1907
568 1922
568 1927
568 1940
568 1947
568 1970
568 1977
568 1984
568 2061
568 2079
568 2130
568 2137
568 2199
568 2204
568 2211
569 1004
569 1051
569 1140
569 1155
569 1518
569 1888
569 2137
570 998
570 1050
570 1343
570 1451
570 1504
570 1516
570 1533
570 1585
570 1668
570 1886
570 1888
570 1947
570 1957
570 1983
570 2120
570 2146
570 2218
571 677
571 678
571 919
571 1305
571 1420
571 1531
571 1753
571 1801
571 1812
571 1871
571 1918
571 2008
572 605
572 637
572 649
572 655
572 669
572 699
572 775
572 782
572 847
572 880
572 897
572 926
572 946
572 950
572 952
572 1014
572 1051
572 1060
572 1072
572 1075
572 1087
572 1167
572 1199
572 1203
572 1226
572 1268
572 1273
572 1277
572 1302
572 1317
572 1331
572 1339
572 1383
572 1393
572 1408
572 1415
572 1416
572 1424
572 1453
572 1459
572 1466
572 1473
572 1495
572 1506
572 1519
572 1533
572 1534
572 1545
572 1548
572 1575
572 1577
572 1585
572 1607
572 1623
572 1661
572 1663
572 1672
572 1689
572 1692
572 1693
572 1711
572 1725
572 1731
572 1735
572 1749
572 1766
572 1773
572 1787
572 1804
572 1807
572 1857
572 1868
572 1882
572 1888
572 1895
572 1900
572 1928
572 1947
572 1948
572 1956
572 1983
572 1997
572 2009
572 2014
572 2021
572 2040
572 2043
572 2051
572 2055
572 2061
572 2064
572 2089
572 2090
572 2097
572 2120
572 2127
572 2137
572 2142
572 2146
572 2157
572 2166
572 2169
572 2170
572 2184
572 2188
572 2189
572 2209
572 2215
572 2218
573 597
573 1096
573 1236
573 1901
573 1988
574 723
574 832
574 888
574 1298
574 1482
574 1744
574 1924
574 2129
574 2164
575 798
575 885
575 1216
575 1390
575 1533
575 1573
575 1640
575 1668
575 1775
575 1990
575 2019
575 2209
576 695
576 946
576 1111
576 1139
576 1302
576 1317
576 1533
576 1585
576 1661
576 1888
576 1904
576 2127
576 2137
577 1734
577 1809
577 1832
577 1903
577 1947
577 2193
578 1110
578 1395
579 1533
579 1585
579 1897
579 2215
579 2218
580 783
580 1002
580 1825
581 1152
581 1525
582 1182
582 1326
582 1347
583 1947
583 2188
583 2215
584 2021
584 2179
585 617
585 756
585 955
585 968
585 1245
585 1356
585 1501
585 1809
585 1832
585 2137
585 2209
585 2218
586 728
586 909
586 1232
587 740
587 762
587 876
587 1547
587 1584
587 1811
587 1940
589 892
589 1009
589 1536
589 1681
589 1897
590 837
590 1533
590 1741
590 1782
590 1791
590 2093
591 830
591 1162
591 1386
591 1740
591 1894
593 1169
593 1545
593 1905
593 2061
594 2124
595 1260
595 2088
595 2222
596 646
596 1320
596 1526
596 1617
596 1832
596 1864
596 1975
597 763
597 902
597 1034
597 1090
597 1108
597 1192
597 1211
597 1236
597 1378
597 1415
597 1511
597 1529
597 1568
597 1579
597 1754
597 1761
597 1839
597 1844
597 1901
597 2016
597 2020
597 2021
597 2108
597 2137
597 2138
597 2186
598 599
598 682
598 685
598 701
598 731
598 753
598 779
598 787
598 797
598 824
598 916
598 937
598 948
598 949
598 960
598 982
598 1044
598 1062
598 1102
598 1160
598 1190
598 1193
598 1214
598 1219
598 1242
598 1278
598 1291
598 1296
598 1334
598 1403
598 1419
598 1464
598 1512
598 1526
598 1533
598 1534
598 1558
598 1592
598 1621
598 1626
598 1637
598 1645
598 1658
598 1672
598 1713
598 1733
598 1773
598 1776
598 1787
598 1808
598 1846
598 1847
598 1905
598 1922
598 1927
598 1940
598 1947
598 1970
598 1977
598 2047
598 2061
598 2079
598 2082
598 2137
598 2146
598 2157
598 2211
599 623
599 629
599 682
599 701
599 731
599 753
599 768
599 779
599 785
599 787
599 797
599 824
599 916
599 937
599 948
599 949
599 956
599 1044
599 1062
599 1091
599 1102
599 1160
599 1201
599 1214
599 1219
599 1242
599 1248
599 1251
599 1278
599 1291
599 1296
599 1301
599 1334
599 1401
599 1413
599 1419
599 1436
599 1464
599 1519
599 1533
599 1534
599 1545
599 1558
599 1571
599 1592
599 1607
599 1628
599 1658
599 1672
599 1713
599 1773
599 1776
599 1808
599 1832
599 1838
599 1846
599 1847
599 1905
599 1907
599 1922
599 1927
599 1947
599 1977
599 2061
599 2065
599 2075
599 2077
599 2130
599 2137
599 2157
599 2194
599 2199
599 2204
600 782
600 885
600 1533
601 1060
601 1061
601 1095
601 1281
601 1285
601 1533
601 1582
601 1944
601 2066
602 1054
602 1136
602 2093
603 798
603 955
603 1037
603 1840
603 1957
604 862
604 1135
605 606
605 617
605 618
605 624
605 630
605 641
605 643
605 649
605 671
605 742
605 747
605 778
605 782
605 847
605 864
605 880
605 885
605 896
605 897
605 920
605 950
605 982
605 1014
605 1026
605 1051
605 1060
605 1072
605 1075
605 1076
605 1087
605 1152
605 1167
605 1175
605 1188
605 1199
605 1202
605 1226
605 1245
605 1249
605 1253
605 1263
605 1266
605 1268
605 1277
605 1302
605 1317
605 1320
605 1331
605 1339
605 1346
605 1430
605 1453
605 1454
605 1459
605 1461
605 1466
605 1473
605 1489
605 1493
605 1495
605 1506
605 1518
605 1533
605 1534
605 1545
605 1577
605 1591
605 1592
605 1598
605 1608
605 1616
605 1623
605 1661
605 1663
605 1674
605 1679
605 1689
605 1692
605 1708
605 1710
605 1715
605 1731
605 1735
605 1738
605 1766
605 1779
605 1787
605 1797
605 1804
605 1807
605 1848
605 1857
605 1868
605 1872
605 1882
605 1883
605 1884
605 1888
605 1916
605 1919
605 1920
605 1921
605 1928
605 1948
605 1956
605 1957
605 1966
605 1983
605 2014
605 2033
605 2037
605 2040
605 2047
605 2051
605 2055
605 2061
605 2071
605 2082
605 2089
605 2090
605 2097
605 2120
605 2127
605 2137
605 2140
605 2146
605 2151
605 2157
605 2169
605 2170
605 2172
605 2177
605 2184
605 2188
605 2189
605 2198
605 2209
605 2212
605 2215
605 2219
606 617
606 618
606 624
606 630
606 637
606 641
606 668
606 671
606 742
606 747
606 768
606 778
606 782
606 810
606 847
606 864
606 880
606 885
606 896
606 897
606 904
606 920
606 982
606 1014
606 1026
606 1030
606 1036
606 1072
606 1075
606 1087
606 1152
606 1167
606 1175
606 1188
606 1199
606 1202
606 1226
606 1245
606 1249
606 1259
606 1263
606 1266
606 1268
606 1277
606 1320
606 1331
606 1356
606 1415
606 1416
606 1430
606 1453
606 1461
606 1489
606 1495
606 1516
606 1518
606 1519
606 1524
606 1533
606 1534
606 1545
606 1548
606 1575
606 1577
606 1585
606 1598
606 1608
606 1661
606 1679
606 1689
606 1692
606 1693
606 1703
606 1708
606 1731
606 1736
606 1738
606 1779
606 1797
606 1805
606 1807
606 1848
606 1854
606 1857
606 1864
606 1868
606 1882
606 1884
606 1888
606 1916
606 1920
606 1921
606 1928
606 1947
606 1948
606 1956
606 1957
606 1973
606 1983
606 2014
606 2031
606 2033
606 2043
606 2061
606 2072
606 2089
606 2090
606 2097
606 2120
606 2124
606 2142
606 2151
606 2157
606 2162
606 2166
606 2170
606 2184
606 2188
606 2193
606 2198
606 2209
606 2211
606 2212
606 2215
606 2218
606 2219
607 872
607 1130
607 1833
607 1899
608 944
608 1330
609 642
609 1117
609 1338
609 1482
609 1564
609 1839
609 1845
609 1897
609 1992
609 2011
610 1036
610 1298
610 1300
610 1897
610 1924
610 2137
610 2170
611 1501
611 1533
611 1809
611 1947
612 1199
613 1533
613 1569
613 1585
613 1683
613 2030
613 2209
614 1533
614 1928
615 752
615 852
615 962
615 1103
615 1824
615 1996
616 1037
616 1118
616 1580
616 1617
617 624
617 637
617 649
617 778
617 847
617 880
617 885
617 926
617 946
617 981
617 1014
617 1026
617 1051
617 1060
617 1072
617 1075
617 1167
617 1199
617 1226
617 1234
617 1259
617 1268
617 1273
617 1277
617 1302
617 1317
617 1331
617 1339
617 1393
617 1416
617 1430
617 1453
617 1459
617 1461
617 1473
617 1495
617 1518
617 1519
617 1533
617 1548
617 1577
617 1585
617 1591
617 1674
617 1689
617 1692
617 1693
617 1710
617 1725
617 1736
617 1738
617 1749
617 1766
617 1787
617 1797
617 1804
617 1807
617 1854
617 1857
617 1868
617 1872
617 1879
617 1882
617 1884
617 1888
617 1903
617 1916
617 1919
617 1948
617 1956
617 1957
617 1997
617 2014
617 2037
617 2040
617 2043
617 2051
617 2055
617 2061
617 2071
617 2089
617 2090
617 2097
617 2120
617 2127
617 2137
617 2146
617 2151
617 2157
617 2169
617 2172
617 2188
617 2209
617 2211
617 2215
618 637
618 778
618 810
618 847
618 885
618 897
618 926
618 946
618 950
618 1051
618 1075
618 1167
618 1175
618 1199
618 1226
618 1234
618 1259
618 1268
618 1273
618 1302
618 1317
618 1331
618 1339
618 1393
618 1408
618 1415
618 1430
618 1454
618 1459
618 1461
618 1466
618 1489
618 1495
618 1518
618 1533
618 1534
618 1545
618 1548
618 1661
618 1663
618 1674
618 1689
618 1692
618 1710
618 1731
618 1735
618 1736
618 1766
618 1787
618 1797
618 1807
618 1857
618 1864
618 1868
618 1872
618 1882
618 1884
618 1902
618 1903
618 1916
618 1920
618 1928
618 1948
618 1956
618 1957
618 1997
618 2015
618 2055
618 2072
618 2089
618 2090
618 2124
618 2127
618 2137
618 2142
618 2169
618 2170
618 2184
618 2188
618 2193
618 2198
618 2209
618 2218
619 1067
619 1390
619 1526
619 1533
619 1762
619 1809
619 1832
619 1862
619 1947
620 1489
620 1864
620 1967
620 2120
620 2201
621 1037
621 1370
621 1533
621 1545
621 1585
621 1734
621 1803
621 1809
621 1832
621 1903
621 1917
621 1947
621 2022
621 2071
621 2157
621 2211
621 2218
622 1265
622 1533
623 629
623 656
623 682
623 685
623 693
623 701
623 731
623 753
623 757
623 779
623 782
623 785
623 787
623 916
623 937
623 948
623 949
623 956
623 960
623 1001
623 1062
623 1072
623 1091
623 1102
623 1160
623 1190
623 1201
623 1234
623 1241
623 1242
623 1256
623 1263
623 1278
623 1291
623 1296
623 1301
623 1334
623 1375
623 1403
623 1413
623 1419
623 1439
623 1519
623 1526
623 1533
623 1534
623 1545
623 1558
623 1571
623 1585
623 1589
623 1592
623 1607
623 1637
623 1641
623 1645
623 1658
623 1672
623 1713
623 1714
623 1725
623 1726
623 1773
623 1776
623 1799
623 1808
623 1809
623 1838
623 1846
623 1847
623 1905
623 1922
623 1940
623 1970
623 2047
623 2061
623 2075
623 2077
623 2082
623 2130
623 2135
623 2137
623 2189
623 2204
624 629
624 637
624 641
624 643
624 668
624 671
624 740
624 747
624 778
624 782
624 896
624 904
624 946
624 950
624 956
624 982
624 1026
624 1044
624 1051
624 1060
624 1063
624 1072
624 1075
624 1087
624 1175
624 1188
624 1199
624 1202
624 1226
624 1234
624 1245
624 1249
624 1251
624 1259
624 1263
624 1266
624 1268
624 1302
624 1317
624 1320
624 1339
624 1346
624 1393
624 1408
624 1416
624 1430
624 1439
624 1444
624 1454
624 1459
624 1461
624 1473
624 1493
624 1495
624 1516
624 1519
624 1524
624 1533
624 1534
624 1545
624 1548
624 1575
624 1577
624 1592
624 1598
624 1608
624 1616
624 1621
624 1661
624 1663
624 1674
624 1679
624 1689
624 1692
624 1693
624 1703
624 1710
624 1715
624 1725
624 1731
624 1736
624 1738
624 1749
624 1773
624 1779
624 1787
624 1797
624 1804
624 1805
624 1819
624 1840
624 1848
624 1857
624 1868
624 1869
624 1895
624 1903
624 1919
624 1920
624 1947
624 1948
624 1956
624 1957
624 1983
624 1989
624 1997
624 2031
624 2037
624 2040
624 2047
624 2051
624 2055
624 2061
624 2065
624 2071
624 2090
624 2097
624 2120
624 2124
624 2127
624 2137
624 2142
624 2157
624 2162
624 2169
624 2170
624 2172
624 2177
624 2184
624 2188
624 2198
624 2209
624 2211
624 2212
624 2215
624 2218
625 955
625 1390
626 926
626 943
626 1415
626 1478
626 1533
626 1545
626 1607
626 1663
626 1726
626 1947
626 2051
626 2061
626 2137
626 2218
627 1245
627 1533
627 1713
627 1809
627 2055
627 2077
627 2209
628 1983
628 2196
629 630
629 656
629 682
629 691
629 693
629 731
629 753
629 768
629 779
629 787
629 824
629 937
629 948
629 956
629 982
629 1001
629 1044
629 1091
629 1160
629 1190
629 1193
629 1201
629 1214
629 1219
629 1223
629 1291
629 1296
629 1301
629 1334
629 1413
629 1436
629 1464
629 1506
629 1519
629 1526
629 1534
629 1545
629 1558
629 1571
629 1589
629 1637
629 1672
629 1679
629 1710
629 1713
629 1726
629 1773
629 1776
629 1794
629 1838
629 1846
629 1847
629 1854
629 1907
629 1922
629 1940
629 1947
629 1970
629 1977
629 1984
629 2061
629 2077
629 2127
629 2130
629 2173
629 2188
629 2189
629 2199
629 2204
630 637
630 649
630 778
630 782
630 810
630 847
630 880
630 897
630 926
630 946
630 950
630 1014
630 1044
630 1072
630 1075
630 1167
630 1175
630 1199
630 1226
630 1234
630 1249
630 1259
630 1268
630 1273
630 1277
630 1317
630 1331
630 1334
630 1339
630 1393
630 1408
630 1453
630 1466
630 1473
630 1489
630 1506
630 1519
630 1533
630 1575
630 1577
630 1585
630 1595
630 1621
630 1661
630 1663
630 1674
630 1679
630 1689
630 1692
630 1710
630 1726
630 1731
630 1735
630 1736
630 1738
630 1749
630 1773
630 1797
630 1840
630 1857
630 1864
630 1868
630 1872
630 1882
630 1884
630 1888
630 1904
630 1916
630 1919
630 1920
630 1948
630 1956
630 1957
630 1997
630 2040
630 2043
630 2051
630 2055
630 2071
630 2072
630 2089
630 2090
630 2097
630 2120
630 2127
630 2151
630 2157
630 2166
630 2172
630 2184
630 2188
630 2193
630 2198
630 2208
630 2218
631 1310
632 637
632 943
632 1140
632 1155
632 1292
632 1517
632 1603
632 1619
632 1706
632 1717
632 1864
632 1887
632 2120
633 1390
633 1545
634 946
634 1439
634 2137
635 783
635 1002
636 833
637 643
637 646
637 649
637 671
637 742
637 782
637 798
637 815
637 847
637 864
637 880
637 885
637 896
637 897
637 904
637 946
637 1014
637 1026
637 1036
637 1051
637 1060
637 1072
637 1075
637 1093
637 1155
637 1156
637 1175
637 1188
637 1199
637 1202
637 1226
637 1245
637 1249
637 1253
637 1259
637 1263
637 1266
637 1268
637 1273
637 1277
637 1302
637 1331
637 1339
637 1356
637 1408
637 1415
637 1416
637 1454
637 1459
637 1461
637 1473
637 1489
637 1493
637 1495
637 1506
637 1517
637 1518
637 1524
637 1533
637 1534
637 1545
637 1548
637 1591
637 1592
637 1616
637 1661
637 1674
637 1679
637 1693
637 1703
637 1710
637 1715
637 1731
637 1735
637 1736
637 1749
637 1766
637 1779
637 1787
637 1797
637 1805
637 1807
637 1819
637 1854
637 1857
637 1882
637 1888
637 1895
637 1916
637 1921
637 1928
637 1947
637 1948
637 1956
637 1957
637 1966
637 1983
637 2031
637 2037
637 2040
637 2043
637 2051
637 2069
637 2071
637 2072
637 2089
637 2090
637 2097
637 2117
637 2120
637 2127
637 2142
637 2146
637 2151
637 2157
637 2170
637 2177
637 2184
637 2189
637 2193
637 2198
637 2209
637 2212
637 2215
637 2219
638 1044
639 1080
639 1100
639 1372
639 1689
639 1817
640 649
640 1617
640 1966
641 778
641 782
641 880
641 885
641 926
641 946
641 950
641 1051
641 1060
641 1072
641 1075
641 1175
641 1199
641 1234
641 1249
641 1268
641 1273
641 1277
641 1302
641 1317
641 1331
641 1339
641 1393
641 1408
641 1453
641 1454
641 1459
641 1461
641 1466
641 1473
641 1489
641 1495
641 1506
641 1519
641 1533
641 1534
641 1545
641 1575
641 1577
641 1591
641 1661
641 1663
641 1692
641 1710
641 1731
641 1735
641 1736
641 1749
641 1766
641 1787
641 1797
641 1807
641 1854
641 1857
641 1868
641 1882
641 1884
641 1903
641 1928
641 1948
641 1956
641 1957
641 1983
641 1997
641 2037
641 2040
641 2043
641 2051
641 2055
641 2061
641 2071
641 2072
641 2089
641 2090
641 2097
641 2125
641 2127
641 2137
641 2142
641 2146
641 2151
641 2166
641 2170
641 2172
641 2184
641 2188
641 2193
641 2198
641 2211
641 2215
642 1060
642 1564
642 1582
642 1845
642 1897
643 668
643 736
643 778
643 782
643 810
643 880
643 897
643 926
643 946
643 1014
643 1026
643 1051
643 1060
643 1072
643 1075
643 1076
643 1188
643 1199
643 1202
643 1234
643 1249
643 1259
643 1268
643 1273
643 1277
643 1317
643 1339
643 1393
643 1408
643 1415
643 1416
643 1430
643 1453
643 1459
643 1466
643 1489
643 1506
643 1518
643 1519
643 1533
643 1534
643 1545
643 1548
643 1575
643 1585
643 1598
643 1689
643 1710
643 1731
643 1735
643 1736
643 1766
643 1797
643 1807
643 1840
643 1848
643 1854
643 1857
643 1864
643 1868
643 1882
643 1883
643 1895
643 1903
643 1904
643 1916
643 1920
643 1928
643 1956
643 1975
643 1983
643 2014
643 2040
643 2048
643 2051
643 2055
643 2061
643 2071
643 2072
643 2089
643 2090
643 2097
643 2127
643 2142
643 2146
643 2151
643 2166
643 2169
643 2170
643 2184
643 2188
643 2189
643 2193
643 2209
643 2211
644 1431
644 1601
644 2084
644 2152
645 715
645 1024
645 1185
645 1685
645 1691
645 1771
646 885
646 1206
646 1277
646 1317
646 1320
646 1344
646 1440
646 1541
646 1614
646 1615
646 1654
646 1661
646 1843
646 1879
646 2137
647 693
647 1041
647 1796
647 1811
647 2027
648 921
648 2201
649 668
649 671
649 736
649 742
649 747
649 768
649 778
649 810
649 815
649 847
649 864
649 880
649 885
649 896
649 920
649 926
649 946
649 1026
649 1036
649 1051
649 1072
649 1087
649 1152
649 1175
649 1202
649 1226
649 1234
649 1249
649 1253
649 1259
649 1273
649 1331
649 1339
649 1346
649 1393
649 1416
649 1430
649 1453
649 1454
649 1461
649 1466
649 1473
649 1495
649 1506
649 1516
649 1518
649 1519
649 1524
649 1533
649 1548
649 1569
649 1575
649 1577
649 1598
649 1608
649 1616
649 1623
649 1663
649 1674
649 1679
649 1692
649 1693
649 1703
649 1708
649 1710
649 1715
649 1736
649 1738
649 1779
649 1797
649 1804
649 1805
649 1807
649 1819
649 1840
649 1857
649 1864
649 1868
649 1872
649 1884
649 1888
649 1920
649 1921
649 1948
649 1956
649 1966
649 1997
649 2014
649 2030
649 2031
649 2033
649 2037
649 2043
649 2047
649 2061
649 2082
649 2090
649 2120
649 2124
649 2127
649 2142
649 2151
649 2157
649 2162
649 2169
649 2177
649 2184
649 2188
649 2189
649 2193
649 2198
649 2209
649 2211
649 2212
649 2215
650 996
650 1103
651 695
651 714
651 839
651 847
651 1014
651 1170
651 1210
651 1215
651 1280
651 1317
651 1364
651 1374
651 1516
651 1541
651 1647
651 1661
651 1916
651 1947
651 2063
651 2072
651 2120
651 2137
651 2149
652 1051
653 835
653 969
653 1040
653 1181
653 1359
653 1691
653 1928
653 1939
653 2065
653 2118
653 2147
654 865
654 1044
654 1104
654 2051
655 1037
655 1533
655 1691
655 1931
655 1947
655 2137
656 682
656 685
656 691
656 693
656 701
656 731
656 753
656 768
656 779
656 785
656 797
656 824
656 916
656 937
656 948
656 956
656 1001
656 1044
656 1102
656 1160
656 1193
656 1201
656 1223
656 1241
656 1256
656 1291
656 1296
656 1334
656 1390
656 1403
656 1413
656 1419
656 1436
656 1512
656 1519
656 1533
656 1534
656 1545
656 1558
656 1589
656 1592
656 1607
656 1713
656 1726
656 1733
656 1773
656 1787
656 1808
656 1809
656 1838
656 1846
656 1847
656 1905
656 1907
656 1922
656 1940
656 1947
656 1970
656 1977
656 2061
656 2082
656 2157
656 2204
657 1329
657 1717
658 740
658 1111
658 1250
658 1415
658 1595
658 1621
658 1832
658 1904
658 2137
658 2189
659 939
659 1531
660 1089
660 1867
660 1918
660 2094
660 2216
661 1339
661 1735
661 1864
661 2142
662 899
662 1065
662 1533
662 1534
662 1917
662 2198
663 859
663 1021
663 1229
663 1292
663 1426
663 1519
663 1577
663 1628
663 1713
663 1749
663 1947
663 1953
663 2037
663 2068
663 2075
663 2137
664 1028
665 981
665 1948
666 670
666 1320
666 2045
667 773
667 1065
667 1329
667 1698
667 1877
668 778
668 782
668 880
668 885
668 897
668 904
668 926
668 946
668 1014
668 1026
668 1072
668 1075
668 1087
668 1167
668 1188
668 1199
668 1202
668 1249
668 1254
668 1259
668 1277
668 1302
668 1317
668 1339
668 1393
668 1408
668 1430
668 1453
668 1461
668 1466
668 1473
668 1489
668 1495
668 1506
668 1519
668 1533
668 1548
668 1575
668 1577
668 1585
668 1591
668 1598
668 1661
668 1663
668 1692
668 1693
668 1731
668 1738
668 1749
668 1766
668 1807
668 1840
668 1857
668 1864
668 1872
668 1882
668 1883
668 1888
668 1903
668 1916
668 1919
668 1920
668 1928
668 1948
668 1956
668 1957
668 1975
668 1983
668 1997
668 2040
668 2043
668 2051
668 2055
668 2061
668 2072
668 2089
668 2097
668 2127
668 2137
668 2142
668 2146
668 2151
668 2166
668 2170
668 2172
668 2188
668 2189
668 2198
668 2206
668 2215
668 2218
668 2219
669 681
669 731
669 742
669 745
669 900
669 946
669 954
669 1004
669 1152
669 1159
669 1306
669 1392
669 1506
669 1533
669 1614
669 1700
669 1713
669 1807
669 1920
669 1928
669 1947
669 1991
669 2009
669 2068
669 2072
669 2089
669 2120
669 2137
669 2188
669 2194
669 2208
669 2209
671 698
671 776
671 778
671 834
671 846
671 853
671 884
671 897
671 926
671 931
671 946
671 950
671 995
671 1014
671 1051
671 1060
671 1067
671 1075
671 1086
671 1087
671 1167
671 1169
671 1226
671 1234
671 1249
671 1250
671 1259
671 1268
671 1277
671 1302
671 1317
671 1331
671 1339
671 1393
671 1407
671 1408
671 1430
671 1453
671 1454
671 1456
671 1461
671 1473
671 1489
671 1501
671 1503
671 1506
671 1519
671 1533
671 1534
671 1545
671 1548
671 1570
671 1575
671 1591
671 1652
671 1661
671 1663
671 1675
671 1689
671 1731
671 1735
671 1749
671 1758
671 1762
671 1766
671 1787
671 1797
671 1803
671 1809
671 1840
671 1857
671 1862
671 1864
671 1872
671 1882
671 1888
671 1916
671 1917
671 1947
671 1948
671 1956
671 1983
671 2014
671 2026
671 2028
671 2031
671 2043
671 2055
671 2061
671 2072
671 2089
671 2090
671 2097
671 2120
671 2127
671 2137
671 2140
671 2142
671 2146
671 2151
671 2157
671 2166
671 2169
671 2188
671 2189
671 2209
672 1428
672 1488
672 1858
673 1462
674 778
674 1864
675 709
675 1209
675 1319
675 1900
676 822
676 2210
677 730
677 919
677 1305
677 1420
677 1801
677 1871
677 1918
677 1936
677 1979
677 2008
678 730
678 765
678 919
678 939
678 1029
678 1117
678 1305
678 1420
678 1531
678 1753
678 1777
678 1801
678 1812
678 1871
678 1918
678 1979
678 2094
679 1367
679 1729
679 2000
680 847
680 1453
680 1814
680 1888
680 2201
681 731
681 831
681 1331
681 1506
681 1533
681 1593
681 1595
681 1947
681 2137
681 2188
681 2211
682 693
682 731
682 753
682 757
682 768
682 779
682 782
682 785
682 797
682 916
682 937
682 949
682 956
682 960
682 990
682 1062
682 1091
682 1102
682 1160
682 1193
682 1201
682 1214
682 1219
682 1241
682 1242
682 1248
682 1251
682 1256
682 1263
682 1278
682 1291
682 1301
682 1401
682 1413
682 1419
682 1512
682 1526
682 1533
682 1534
682 1545
682 1558
682 1607
682 1621
682 1637
682 1645
682 1672
682 1709
682 1713
682 1726
682 1773
682 1776
682 1808
682 1809
682 1832
682 1838
682 1905
682 1927
682 1940
682 1947
682 1970
682 1977
682 1984
682 2061
682 2077
682 2082
682 2130
682 2157
682 2173
682 2198
682 2199
682 2204
682 2211
682 2218
683 2084
684 715
684 1378
684 1650
684 2021
684 2137
685 691
685 693
685 731
685 779
685 785
685 787
685 797
685 937
685 948
685 956
685 963
685 982
685 1044
685 1091
685 1160
685 1190
685 1193
685 1214
685 1245
685 1256
685 1278
685 1296
685 1401
685 1413
685 1419
685 1464
685 1512
685 1519
685 1526
685 1533
685 1545
685 1589
685 1592
685 1607
685 1621
685 1640
685 1713
685 1776
685 1808
685 1809
685 1832
685 1838
685 1846
685 1847
685 1905
685 1907
685 1922
685 1927
685 1970
685 1977
685 1984
685 2047
685 2061
685 2077
685 2137
685 2157
685 2173
685 2199
685 2204
686 1245
686 1501
686 1533
686 1832
687 1864
687 2137
688 1506
688 1593
688 1595
688 1612
688 1787
688 1819
688 1919
688 1947
688 2188
688 2208
688 2211
689 955
689 1862
689 1965
689 2125
690 1016
690 1753
690 1947
690 1981
690 2011
691 693
691 701
691 731
691 753
691 768
691 779
691 785
691 787
691 797
691 916
691 937
691 948
691 949
691 956
691 1001
691 1044
691 1062
691 1091
691 1190
691 1193
691 1201
691 1223
691 1241
691 1242
691 1248
691 1278
691 1291
691 1296
691 1301
691 1334
691 1401
691 1413
691 1419
691 1512
691 1519
691 1526
691 1533
691 1558
691 1571
691 1585
691 1589
691 1592
691 1607
691 1645
691 1672
691 1713
691 1726
691 1733
691 1776
691 1808
691 1809
691 1832
691 1838
691 1846
691 1905
691 1922
691 1927
691 1940
691 1970
691 1977
691 2047
691 2061
691 2077
691 2130
691 2137
691 2188
691 2199
691 2204
692 922
692 1489
692 1736
692 1968
692 2120
692 2137
693 701
693 731
693 753
693 779
693 787
693 797
693 916
693 982
693 1019
693 1041
693 1044
693 1062
693 1102
693 1145
693 1190
693 1193
693 1214
693 1241
693 1242
693 1245
693 1256
693 1263
693 1291
693 1295
693 1296
693 1334
693 1356
693 1401
693 1403
693 1419
693 1430
693 1436
693 1464
693 1512
693 1533
693 1545
693 1571
693 1574
693 1621
693 1637
693 1641
693 1645
693 1658
693 1672
693 1713
693 1726
693 1733
693 1776
693 1838
693 1843
693 1847
693 1862
693 1905
693 1907
693 1922
693 1947
693 1965
693 1970
693 1977
693 1984
693 2047
693 2061
693 2079
693 2082
693 2137
693 2157
693 2184
694 1158
694 1181
694 1359
694 1681
694 1691
695 714
695 782
695 1014
695 1093
695 1111
695 1129
695 1170
695 1173
695 1210
695 1215
695 1253
695 1280
695 1324
695 1364
695 1374
695 1516
695 1584
695 1614
695 1623
695 1647
695 1673
695 1690
695 1711
695 1715
695 1720
695 1807
695 1916
695 1937
695 1947
695 1965
695 1997
695 2004
695 2081
695 2089
695 2117
695 2120
695 2137
696 2163
697 776
697 834
697 846
697 884
697 931
697 955
697 995
697 1067
697 1075
697 1250
697 1407
697 1416
697 1503
697 1556
697 1570
697 1636
697 1652
697 1674
697 1675
697 1758
697 1762
697 1803
697 1809
697 1862
697 1950
697 1976
697 2026
697 2031
697 2034
697 2137
697 2140
697 2142
697 2175
697 2215
698 834
698 955
698 995
698 1178
698 1407
698 1416
698 1456
698 1556
698 1636
698 1652
698 1675
698 1758
698 1862
698 1917
698 1950
698 1976
698 2026
698 2031
698 2057
698 2175
699 788
699 974
699 986
699 1037
699 1144
699 2116
700 1176
700 1396
700 1533
700 1619
700 1651
701 731
701 753
701 768
701 779
701 785
701 787
701 797
701 916
701 937
701 949
701 956
701 982
701 1160
701 1190
701 1201
701 1214
701 1219
701 1248
701 1256
701 1278
701 1296
701 1390
701 1413
701 1436
701 1464
701 1506
701 1512
701 1519
701 1533
701 1534
701 1571
701 1607
701 1637
701 1658
701 1672
701 1713
701 1726
701 1773
701 1776
701 1787
701 1808
701 1838
701 1846
701 1907
701 1927
701 1928
701 1947
701 1970
701 1977
701 2047
701 2061
701 2077
701 2082
701 2130
701 2137
701 2157
701 2199
701 2204
701 2211
702 1430
702 1516
702 1574
702 1584
702 1611
702 2142
702 2215
703 839
703 1451
703 1674
703 1735
703 1858
703 1932
704 1061
704 1071
704 1204
704 1285
704 1489
704 1506
704 1585
704 1626
704 1843
704 1888
704 1928
704 1932
705 747
705 900
705 927
705 1302
705 1318
705 1585
705 1643
705 1735
705 1804
705 1864
705 1888
705 2002
705 2051
705 2058
705 2120
705 2124
706 718
706 753
706 1068
706 1087
706 1152
706 1193
706 1384
706 1405
706 1526
706 1545
706 1617
706 1673
706 1731
706 1734
706 1809
706 1989
706 2044
706 2089
706 2137
706 2140
707 746
707 1931
707 1947
707 2027
707 2035
708 1167
708 1245
708 1533
709 754
709 846
709 870
709 972
709 1200
709 1209
709 1389
709 1488
709 1503
709 1525
709 1636
709 1698
709 1928
709 1955
709 1985
710 773
710 990
710 1245
710 1533
710 1686
710 1709
710 1734
710 1809
710 1832
711 1978
712 1423
712 1596
713 1245
713 1545
713 1692
713 1787
713 2179
714 888
714 977
714 1060
714 1061
714 1114
714 1124
714 1170
714 1226
714 1375
714 1433
714 1439
714 1489
714 1609
714 1668
714 1674
714 1738
714 1772
714 1868
714 1897
714 1928
714 2054
714 2065
714 2071
714 2164
714 2194
714 2195
715 885
715 1181
715 1392
715 1691
715 1840
715 1885
715 1909
715 2151
716 1588
717 826
717 1533
717 1713
717 1735
717 1904
717 2044
718 812
718 1055
718 1365
718 1533
718 1809
718 1832
718 2221
719 2133
720 1320
720 1809
720 1903
720 1947
720 2137
721 1485
721 2020
722 1245
723 832
723 867
723 1039
723 1060
723 1252
723 1298
723 1358
723 1459
723 1630
723 1897
723 1961
723 2164
724 1330
725 737
725 1043
725 1195
725 1791
725 2024
725 2093
725 2216
726 888
726 952
726 1533
726 1992
727 973
727 1020
727 1317
727 1443
727 1878
727 2120
727 2209
728 909
729 778
729 990
729 1390
729 1533
729 1545
729 1621
729 1832
729 1917
729 1919
729 2043
729 2077
730 919
730 1305
730 1489
730 1531
730 1753
730 1801
730 1812
730 1871
730 1891
730 1936
730 2008
730 2154
731 734
731 787
731 796
731 937
731 948
731 960
731 1001
731 1044
731 1062
731 1102
731 1190
731 1193
731 1214
731 1219
731 1241
731 1245
731 1248
731 1256
731 1296
731 1334
731 1390
731 1401
731 1436
731 1464
731 1506
731 1512
731 1519
731 1526
731 1533
731 1545
731 1558
731 1571
731 1584
731 1585
731 1593
731 1607
731 1621
731 1645
731 1672
731 1676
731 1686
731 1687
731 1702
731 1713
731 1726
731 1776
731 1787
731 1808
731 1846
731 1847
731 1859
731 1903
731 1905
731 1907
731 1919
731 1927
731 1940
731 1947
731 1965
731 1970
731 1973
731 1977
731 1984
731 2026
731 2028
731 2047
731 2061
731 2077
731 2082
731 2140
731 2157
731 2188
731 2203
731 2204
731 2211
731 2218
732 868
732 1179
732 1232
732 1321
732 1371
732 1994
732 2001
732 2093
733 1489
733 1572
733 1606
734 949
734 968
734 1044
734 1188
734 1256
734 1334
734 1401
734 1524
734 1545
734 1558
734 1584
734 1590
734 1726
734 1905
734 2061
734 2082
734 2130
734 2208
735 1295
735 1311
735 1721
735 2091
735 2138
736 778
736 782
736 810
736 885
736 897
736 904
736 926
736 950
736 1014
736 1026
736 1051
736 1060
736 1072
736 1075
736 1188
736 1199
736 1226
736 1234
736 1249
736 1254
736 1259
736 1268
736 1273
736 1277
736 1302
736 1346
736 1393
736 1408
736 1430
736 1453
736 1454
736 1459
736 1461
736 1466
736 1473
736 1506
736 1518
736 1519
736 1533
736 1545
736 1548
736 1575
736 1577
736 1591
736 1598
736 1661
736 1663
736 1674
736 1689
736 1692
736 1703
736 1710
736 1731
736 1736
736 1738
736 1749
736 1797
736 1804
736 1840
736 1848
736 1857
736 1864
736 1872
736 1883
736 1884
736 1888
736 1895
736 1903
736 1919
736 1928
736 1948
736 1957
736 1975
736 1983
736 1997
736 2014
736 2040
736 2043
736 2051
736 2055
736 2061
736 2072
736 2089
736 2090
736 2142
736 2146
736 2151
736 2157
736 2170
736 2172
736 2189
736 2193
736 2198
736 2218
737 1043
737 1168
737 1321
737 1536
737 1891
737 1943
737 2094
737 2216
738 924
738 1185
738 1506
738 1527
738 1533
738 1627
738 2017
739 1897
739 2021
739 2045
740 903
740 990
740 1099
740 1169
740 1226
740 1245
740 1269
740 1533
740 1545
740 1556
740 1585
740 1643
740 1720
740 1724
740 1809
740 1832
740 1860
740 1878
740 1940
740 1957
740 1989
740 2044
740 2072
740 2137
740 2157
740 2184
741 1049
741 1312
741 2163
742 778
742 847
742 880
742 946
742 951
742 1051
742 1060
742 1072
742 1087
742 1156
742 1167
742 1175
742 1199
742 1226
742 1234
742 1249
742 1259
742 1268
742 1273
742 1302
742 1317
742 1331
742 1408
742 1416
742 1421
742 1453
742 1454
742 1459
742 1461
742 1466
742 1473
742 1489
742 1495
742 1506
742 1533
742 1534
742 1545
742 1548
742 1575
742 1577
742 1585
742 1591
742 1608
742 1661
742 1663
742 1674
742 1689
742 1710
742 1731
742 1735
742 1736
742 1738
742 1749
742 1766
742 1807
742 1840
742 1854
742 1872
742 1884
742 1888
742 1903
742 1904
742 1916
742 1919
742 1920
742 1928
742 1957
742 1983
742 2014
742 2033
742 2040
742 2043
742 2051
742 2055
742 2061
742 2071
742 2072
742 2097
742 2127
742 2142
742 2146
742 2151
742 2166
742 2169
742 2172
742 2184
742 2189
742 2193
742 2198
742 2209
742 2211
742 2215
742 2218
743 1533
743 1840
743 1853
743 1868
744 2025
745 945
745 987
745 1005
745 1021
745 1031
745 1114
745 1246
745 1439
745 1489
745 1704
745 1706
745 1736
745 1853
745 1868
745 1916
745 1928
745 1981
745 2056
745 2080
745 2089
745 2120
745 2192
745 2201
745 2215
746 802
746 833
746 1496
746 1584
747 748
747 782
747 847
747 880
747 885
747 897
747 926
747 946
747 950
747 1051
747 1060
747 1075
747 1087
747 1167
747 1199
747 1226
747 1234
747 1245
747 1249
747 1259
747 1268
747 1273
747 1277
747 1302
747 1317
747 1318
747 1331
747 1339
747 1393
747 1408
747 1416
747 1430
747 1454
747 1459
747 1461
747 1466
747 1473
747 1518
747 1519
747 1533
747 1534
747 1545
747 1548
747 1577
747 1585
747 1591
747 1661
747 1663
747 1674
747 1689
747 1693
747 1710
747 1731
747 1735
747 1749
747 1766
747 1797
747 1840
747 1857
747 1864
747 1872
747 1884
747 1888
747 1903
747 1916
747 1947
747 1956
747 1957
747 1983
747 2011
747 2037
747 2040
747 2051
747 2058
747 2061
747 2072
747 2097
747 2124
747 2127
747 2137
747 2146
747 2151
747 2157
747 2166
747 2169
747 2170
747 2184
747 2188
747 2193
747 2198
747 2209
747 2211
747 2215
748 760
748 808
748 822
748 897
748 900
748 913
748 1302
748 1318
748 1677
748 1735
748 1804
748 1864
748 1888
748 1916
748 1947
748 1966
748 2002
748 2051
748 2058
748 2120
748 2137
750 763
750 808
750 959
750 969
750 1034
750 1096
750 1378
750 1568
750 1763
750 2011
750 2042
750 2046
752 852
752 1824
752 1897
753 768
753 779
753 785
753 787
753 797
753 824
753 916
753 937
753 960
753 982
753 1001
753 1062
753 1102
753 1160
753 1201
753 1219
753 1223
753 1231
753 1256
753 1278
753 1291
753 1296
753 1334
753 1403
753 1436
753 1512
753 1519
753 1526
753 1533
753 1534
753 1545
753 1558
753 1571
753 1589
753 1637
753 1658
753 1672
753 1726
753 1733
753 1773
753 1776
753 1787
753 1809
753 1838
753 1905
753 1907
753 1922
753 1927
753 1940
753 1947
753 1977
753 2047
753 2061
753 2077
753 2130
753 2137
753 2157
753 2173
754 846
754 981
754 1369
754 1786
754 1837
754 1899
754 1955
754 2179
754 2183
755 1564
756 1037
756 1524
756 2176
756 2211
757 956
757 1030
757 1044
757 1062
757 1193
757 1231
757 1291
757 1390
757 1518
757 1519
757 1533
757 1545
757 1585
757 1713
757 1726
757 1733
757 1804
757 1808
757 1904
757 1947
757 1983
757 1989
757 2082
757 2218
758 879
758 1851
759 909
759 1028
759 1179
759 1321
760 926
760 1167
760 1533
760 1545
760 1903
760 2193
761 1262
762 876
762 1100
762 1781
762 2045
763 835
763 969
763 1034
763 1096
763 1108
763 1158
763 1211
763 1271
763 1378
763 1415
763 1568
763 1579
763 1605
763 1939
763 2016
763 2021
763 2182
764 1621
764 1809
764 1931
764 1959
764 2071
765 919
765 939
765 953
765 989
765 1029
765 1531
765 1583
765 1801
765 1936
765 1979
765 2154
766 823
766 1164
766 1418
766 1447
766 2216
767 1443
767 1532
767 1871
768 779
768 785
768 787
768 810
768 824
768 847
768 880
768 885
768 897
768 926
768 937
768 946
768 948
768 949
768 950
768 956
768 960
768 982
768 1001
768 1044
768 1051
768 1060
768 1072
768 1087
768 1091
768 1102
768 1160
768 1167
768 1190
768 1193
768 1199
768 1201
768 1214
768 1219
768 1223
768 1226
768 1234
768 1241
768 1242
768 1249
768 1256
768 1277
768 1291
768 1296
768 1301
768 1302
768 1317
768 1339
768 1393
768 1408
768 1413
768 1419
768 1430
768 1453
768 1454
768 1459
768 1461
768 1464
768 1473
768 1489
768 1506
768 1512
768 1518
768 1519
768 1526
768 1533
768 1534
768 1548
768 1558
768 1585
768 1589
768 1591
768 1592
768 1607
768 1621
768 1658
768 1661
768 1663
768 1674
768 1686
768 1689
768 1713
768 1731
768 1735
768 1738
768 1749
768 1766
768 1773
768 1776
768 1797
768 1804
768 1838
768 1840
768 1846
768 1847
768 1854
768 1857
768 1868
768 1872
768 1882
768 1884
768 1888
768 1895
768 1905
768 1916
768 1919
768 1920
768 1922
768 1927
768 1940
768 1947
768 1957
768 1977
768 1984
768 1997
768 2014
768 2043
768 2051
768 2055
768 2061
768 2071
768 2072
768 2077
768 2082
768 2089
768 2097
768 2120
768 2127
768 2142
768 2146
768 2151
768 2157
768 2166
768 2169
768 2173
768 2184
768 2188
768 2189
768 2193
768 2198
768 2199
768 2218
769 1620
769 1674
769 1917
769 1940
769 2026
769 2142
770 1093
770 1383
770 1533
770 1545
771 1305
771 1943
771 1979
772 1533
772 1668
772 1990
773 787
773 1245
773 1320
773 1533
773 1545
773 1584
773 1862
773 1947
773 2061
774 936
774 1262
774 1897
775 1144
775 1185
775 1516
775 1771
775 1908
775 2116
775 2216
776 834
776 846
776 875
776 884
776 931
776 995
776 1075
776 1250
776 1407
776 1456
776 1503
776 1636
776 1809
776 1862
776 1917
776 2028
776 2034
776 2137
776 2140
776 2142
776 2175
776 2215
777 848
778 782
778 815
778 829
778 885
778 896
778 897
778 920
778 926
778 946
778 956
778 981
778 982
778 1026
778 1036
778 1044
778 1051
778 1060
778 1072
778 1086
778 1087
778 1094
778 1156
778 1175
778 1188
778 1202
778 1226
778 1239
778 1249
778 1259
778 1268
778 1273
778 1277
778 1302
778 1317
778 1339
778 1346
778 1356
778 1388
778 1393
778 1408
778 1415
778 1416
778 1454
778 1461
778 1466
778 1489
778 1493
778 1495
778 1516
778 1518
778 1519
778 1533
778 1534
778 1545
778 1548
778 1591
778 1592
778 1598
778 1608
778 1616
778 1663
778 1674
778 1677
778 1689
778 1692
778 1693
778 1708
778 1711
778 1715
778 1731
778 1749
778 1766
778 1787
778 1797
778 1805
778 1854
778 1857
778 1864
778 1884
778 1895
778 1903
778 1919
778 1920
778 1921
778 1947
778 1948
778 1956
778 1966
778 1997
778 2014
778 2030
778 2031
778 2040
778 2047
778 2052
778 2055
778 2071
778 2072
778 2082
778 2085
778 2097
778 2120
778 2124
778 2127
778 2130
778 2137
778 2142
778 2146
778 2157
778 2169
778 2170
778 2172
778 2188
778 2189
778 2193
778 2211
778 2212
778 2219
779 785
779 787
779 797
779 916
779 937
779 948
779 949
779 956
779 960
779 982
779 1044
779 1091
779 1190
779 1193
779 1214
779 1219
779 1241
779 1242
779 1248
779 1278
779 1291
779 1390
779 1401
779 1419
779 1464
779 1512
779 1519
779 1533
779 1534
779 1558
779 1585
779 1621
779 1645
779 1658
779 1672
779 1726
779 1733
779 1773
779 1808
779 1809
779 1838
779 1847
779 1907
779 1922
779 1927
779 1940
779 1977
779 1984
779 2047
779 2061
779 2079
779 2082
779 2157
779 2173
779 2199
779 2204
780 1309
780 1533
780 1679
780 1709
780 1864
780 1928
781 1136
781 1551
781 1765
781 2119
781 2128
782 806
782 810
782 815
782 839
782 864
782 880
782 885
782 896
782 897
782 904
782 920
782 926
782 950
782 954
782 1014
782 1020
782 1026
782 1032
782 1044
782 1060
782 1075
782 1087
782 1141
782 1152
782 1170
782 1175
782 1188
782 1202
782 1210
782 1215
782 1226
782 1234
782 1249
782 1254
782 1259
782 1263
782 1266
782 1268
782 1273
782 1292
782 1301
782 1302
782 1317
782 1320
782 1331
782 1346
782 1356
782 1393
782 1408
782 1415
782 1453
782 1454
782 1466
782 1489
782 1493
782 1506
782 1519
782 1524
782 1533
782 1545
782 1548
782 1550
782 1575
782 1577
782 1585
782 1598
782 1608
782 1623
782 1632
782 1663
782 1674
782 1679
782 1689
782 1692
782 1708
782 1713
782 1725
782 1731
782 1735
782 1736
782 1738
782 1749
782 1766
782 1787
782 1804
782 1805
782 1819
782 1832
782 1848
782 1864
782 1868
782 1872
782 1882
782 1884
782 1888
782 1907
782 1909
782 1916
782 1920
782 1921
782 1928
782 1947
782 1948
782 1956
782 1957
782 1983
782 1997
782 2003
782 2004
782 2014
782 2015
782 2017
782 2020
782 2037
782 2040
782 2043
782 2047
782 2054
782 2061
782 2063
782 2071
782 2072
782 2082
782 2089
782 2090
782 2097
782 2120
782 2124
782 2127
782 2142
782 2146
782 2151
782 2157
782 2169
782 2172
782 2173
782 2177
782 2184
782 2189
782 2193
782 2209
782 2211
782 2215
782 2218
783 1198
784 1532
784 2119
785 824
785 937
785 949
785 960
785 982
785 1001
785 1062
785 1102
785 1160
785 1190
785 1201
785 1214
785 1219
785 1223
785 1241
785 1245
785 1256
785 1291
785 1296
785 1390
785 1401
785 1403
785 1419
785 1464
785 1512
785 1519
785 1533
785 1545
785 1558
785 1571
785 1585
785 1589
785 1592
785 1607
785 1672
785 1776
785 1832
785 1905
785 1907
785 1927
785 1970
785 2047
785 2061
785 2077
785 2079
785 2082
785 2130
785 2157
785 2204
785 2211
786 846
786 972
786 1075
786 1161
786 1196
786 1389
786 1452
786 1503
786 1525
786 1636
786 1698
786 1877
786 1955
786 2105
787 916
787 937
787 948
787 949
787 960
787 1102
787 1190
787 1193
787 1214
787 1219
787 1241
787 1242
787 1245
787 1248
787 1256
787 1278
787 1291
787 1296
787 1301
787 1390
787 1401
787 1403
787 1413
787 1419
787 1436
787 1464
787 1512
787 1519
787 1526
787 1533
787 1534
787 1545
787 1558
787 1571
787 1589
787 1592
787 1607
787 1672
787 1686
787 1726
787 1773
787 1775
787 1832
787 1847
787 1900
787 1905
787 1922
787 1927
787 1940
787 1947
787 1977
787 2047
787 2061
787 2077
787 2079
787 2130
787 2157
787 2173
787 2188
787 2199
787 2204
787 2211
788 844
788 1173
788 1534
788 1617
788 1914
788 1947
788 2061
788 2137
789 848
789 977
789 1288
789 1489
789 1660
789 2037
789 2124
790 976
790 1350
790 1456
790 1494
790 1665
790 2160
791 811
791 969
791 973
791 1096
791 1300
791 1410
791 1532
791 1913
791 2011
792 1001
792 1136
793 1009
793 1423
794 1111
794 1379
794 1584
794 1805
794 1872
795 996
795 1765
795 2093
796 831
796 1533
796 1545
796 1734
796 1808
796 1903
797 824
797 916
797 937
797 948
797 949
797 1001
797 1044
797 1190
797 1193
797 1201
797 1214
797 1219
797 1242
797 1256
797 1278
797 1291
797 1296
797 1301
797 1390
797 1401
797 1403
797 1419
797 1464
797 1526
797 1533
797 1534
797 1545
797 1558
797 1571
797 1589
797 1645
797 1658
797 1672
797 1726
797 1733
797 1776
797 1808
797 1838
797 1846
797 1847
797 1905
797 1907
797 1922
797 1927
797 1940
797 1947
797 1970
797 1977
797 1984
797 2047
797 2061
797 2079
797 2082
797 2157
797 2173
797 2188
797 2199
797 2204
797 2211
798 846
798 1004
798 1037
798 1064
798 1087
798 1090
798 1093
798 1247
798 1257
798 1405
798 1516
798 1526
798 1613
798 1674
798 1756
798 1862
798 1900
798 1947
798 1999
798 2026
798 2027
798 2069
798 2137
798 2176
798 2177
799 1089
800 945
800 1021
800 1229
800 1549
800 1715
800 2056
800 2072
800 2080
800 2120
800 2169
800 2201
801 847
801 1091
801 1502
801 1516
801 1533
801 1715
801 1726
801 1832
801 1864
801 1947
801 1970
801 2043
801 2137
801 2166
802 956
802 998
802 1533
802 2137
803 1533
803 1548
803 1873
803 2209
804 849
804 1245
804 1352
804 1533
804 1734
804 1832
804 2044
804 2218
805 846
805 1501
805 1503
805 1533
806 1253
806 1545
806 1661
806 1713
806 2075
807 1904
807 1947
807 2077
808 900
808 1136
808 1823
808 2088
809 1158
809 1359
810 815
810 847
810 864
810 880
810 885
810 896
810 904
810 920
810 926
810 946
810 950
810 982
810 1014
810 1030
810 1051
810 1072
810 1075
810 1111
810 1156
810 1167
810 1175
810 1188
810 1199
810 1203
810 1226
810 1253
810 1263
810 1266
810 1268
810 1273
810 1277
810 1317
810 1320
810 1331
810 1339
810 1346
810 1393
810 1415
810 1416
810 1430
810 1453
810 1454
810 1459
810 1473
810 1489
810 1495
810 1518
810 1524
810 1533
810 1534
810 1545
810 1548
810 1575
810 1577
810 1585
810 1591
810 1592
810 1598
810 1608
810 1616
810 1623
810 1661
810 1663
810 1674
810 1679
810 1689
810 1692
810 1703
810 1708
810 1710
810 1715
810 1726
810 1735
810 1736
810 1738
810 1766
810 1779
810 1804
810 1807
810 1819
810 1848
810 1854
810 1857
810 1868
810 1884
810 1895
810 1903
810 1916
810 1921
810 1928
810 1947
810 1948
810 1956
810 1957
810 1966
810 1983
810 2014
810 2037
810 2040
810 2043
810 2047
810 2051
810 2055
810 2061
810 2071
810 2089
810 2090
810 2097
810 2120
810 2124
810 2127
810 2157
810 2162
810 2169
810 2170
810 2172
810 2189
810 2193
810 2209
810 2212
810 2215
810 2218
811 1297
811 1482
811 1669
812 1044
812 1067
812 1245
812 1256
812 1430
812 1533
812 1545
812 1903
812 1947
812 2215
813 1203
813 1415
813 1506
813 1864
813 2030
813 2043
814 932
814 1060
814 1061
814 1098
814 1119
814 1408
814 1489
814 1668
814 1674
814 1824
814 1841
814 1897
814 1932
814 1941
814 2001
814 2058
814 2137
815 847
815 883
815 926
815 946
815 963
815 1026
815 1051
815 1072
815 1075
815 1087
815 1175
815 1234
815 1249
815 1259
815 1268
815 1273
815 1317
815 1339
815 1364
815 1416
815 1426
815 1430
815 1453
815 1454
815 1459
815 1461
815 1473
815 1489
815 1495
815 1506
815 1518
815 1519
815 1533
815 1534
815 1541
815 1548
815 1575
815 1577
815 1585
815 1591
815 1623
815 1661
815 1663
815 1674
815 1676
815 1689
815 1692
815 1693
815 1710
815 1731
815 1735
815 1738
815 1749
815 1766
815 1787
815 1804
815 1809
815 1878
815 1884
815 1903
815 1919
815 1920
815 1928
815 1948
815 1983
815 1997
815 2014
815 2043
815 2051
815 2063
815 2071
815 2072
815 2089
815 2090
815 2097
815 2120
815 2127
815 2137
815 2142
815 2151
815 2157
815 2166
815 2169
815 2170
815 2193
815 2209
815 2211
815 2218
816 869
816 1061
816 1732
816 2127
817 1430
817 1533
817 1692
817 2197
818 954
818 968
818 1320
818 1533
818 1736
818 1928
818 2201
819 2165
821 1060
821 1061
821 1285
821 1533
821 1711
822 1345
822 1740
823 848
823 1418
823 1918
824 916
824 937
824 948
824 949
824 956
824 960
824 1001
824 1062
824 1091
824 1102
824 1160
824 1193
824 1201
824 1214
824 1219
824 1223
824 1241
824 1248
824 1278
824 1296
824 1301
824 1334
824 1390
824 1401
824 1403
824 1413
824 1419
824 1436
824 1464
824 1519
824 1533
824 1534
824 1558
824 1571
824 1585
824 1589
824 1592
824 1607
824 1621
824 1645
824 1658
824 1672
824 1713
824 1726
824 1733
824 1773
824 1776
824 1832
824 1838
824 1846
824 1847
824 1905
824 1922
824 1927
824 1940
824 1947
824 1977
824 1984
824 2047
824 2077
824 2079
824 2157
824 2188
824 2199
824 2204
824 2211
824 2218
825 1136
825 1837
825 2041
826 1245
826 1533
826 1545
826 1803
826 1809
826 1832
826 2188
828 910
828 1245
828 1525
828 1717
828 2018
829 981
829 1551
829 2188
830 961
830 973
830 1139
830 1386
830 1415
830 1443
830 1482
830 1533
830 1735
830 1928
830 2011
830 2078
830 2146
830 2190
831 946
831 999
831 1167
831 1201
831 1245
831 1256
831 1334
831 1419
831 1533
831 1545
831 1593
831 1626
831 1734
831 1808
831 1832
831 1906
831 1916
831 2055
831 2130
831 2194
831 2198
831 2204
831 2211
831 2218
832 1060
832 1298
832 1630
832 2164
833 940
834 846
834 884
834 898
834 931
834 995
834 1075
834 1196
834 1250
834 1295
834 1416
834 1456
834 1503
834 1525
834 1533
834 1545
834 1556
834 1636
834 1652
834 1674
834 1675
834 1679
834 1758
834 1762
834 1803
834 1809
834 1862
834 1917
834 1950
834 1976
834 2020
834 2028
834 2034
834 2137
834 2140
834 2142
834 2175
834 2215
834 2218
834 2221
835 969
835 1533
835 1946
836 1533
836 1545
836 1734
836 1947
836 2061
837 1168
837 2093
838 1990
838 2089
839 847
839 954
839 958
839 1014
839 1093
839 1129
839 1215
839 1280
839 1317
839 1356
839 1364
839 1516
839 1614
839 1623
839 1661
839 1676
839 1797
839 1807
839 1916
839 1947
839 2120
839 2204
840 2093
841 1390
841 1519
841 2201
842 872
842 942
842 1233
842 1428
842 1525
842 1732
842 1833
842 1887
842 1941
843 1205
843 1988
843 2021
844 1017
844 1617
844 1668
844 1834
844 2137
845 979
845 1468
846 884
846 972
846 995
846 1065
846 1067
846 1075
846 1090
846 1161
846 1257
846 1294
846 1369
846 1389
846 1407
846 1451
846 1483
846 1501
846 1503
846 1525
846 1533
846 1534
846 1545
846 1556
846 1570
846 1626
846 1652
846 1668
846 1674
846 1717
846 1758
846 1762
846 1775
846 1786
846 1796
846 1808
846 1809
846 1851
846 1862
846 1887
846 1899
846 1955
846 2031
846 2034
846 2053
846 2130
846 2137
846 2175
846 2215
847 864
847 880
847 885
847 896
847 897
847 904
847 926
847 946
847 982
847 1014
847 1026
847 1036
847 1051
847 1060
847 1072
847 1087
847 1152
847 1167
847 1170
847 1175
847 1188
847 1203
847 1226
847 1234
847 1249
847 1266
847 1268
847 1273
847 1277
847 1280
847 1302
847 1320
847 1331
847 1339
847 1356
847 1364
847 1393
847 1408
847 1415
847 1416
847 1430
847 1453
847 1459
847 1461
847 1495
847 1506
847 1516
847 1518
847 1519
847 1524
847 1533
847 1541
847 1548
847 1557
847 1577
847 1585
847 1598
847 1608
847 1614
847 1623
847 1643
847 1676
847 1679
847 1689
847 1708
847 1710
847 1731
847 1735
847 1736
847 1779
847 1804
847 1805
847 1832
847 1840
847 1854
847 1864
847 1868
847 1872
847 1888
847 1895
847 1903
847 1916
847 1919
847 1920
847 1928
847 1937
847 1948
847 1956
847 1966
847 2004
847 2031
847 2033
847 2037
847 2040
847 2051
847 2063
847 2071
847 2072
847 2082
847 2089
847 2090
847 2097
847 2117
847 2127
847 2146
847 2151
847 2157
847 2162
847 2169
847 2170
847 2172
847 2184
847 2188
847 2189
847 2193
847 2209
847 2212
847 2215
847 2218
847 2219
848 1165
848 1513
848 1583
848 1664
848 1963
848 2100
848 2188
848 2207
848 2216
849 1269
849 1352
849 1734
849 1809
849 2218
850 1299
850 1833
850 2179
851 909
851 1815
852 1103
852 1765
853 1004
853 1169
853 1467
853 1525
853 1548
853 1549
853 1553
853 1628
853 2031
854 1414
854 1837
855 889
855 1106
855 1897
855 1933
855 1944
856 2040
857 969
857 990
857 1245
857 1467
857 1533
857 1661
857 1674
857 1797
857 1809
857 2137
858 884
858 899
858 1526
858 1990
859 885
859 1519
859 1545
859 1787
859 2211
860 1254
860 1858
860 1957
860 2120
861 1008
861 1816
861 2093
862 867
862 1135
863 1582
863 2001
864 880
864 885
864 897
864 926
864 946
864 950
864 956
864 963
864 1051
864 1060
864 1087
864 1167
864 1175
864 1188
864 1215
864 1226
864 1234
864 1249
864 1253
864 1259
864 1268
864 1273
864 1277
864 1302
864 1317
864 1331
864 1374
864 1393
864 1430
864 1453
864 1461
864 1466
864 1473
864 1489
864 1495
864 1506
864 1516
864 1519
864 1533
864 1541
864 1545
864 1548
864 1575
864 1585
864 1591
864 1614
864 1623
864 1661
864 1663
864 1674
864 1676
864 1689
864 1693
864 1710
864 1736
864 1738
864 1749
864 1766
864 1804
864 1807
864 1840
864 1854
864 1857
864 1864
864 1872
864 1882
864 1884
864 1888
864 1919
864 1920
864 1957
864 1983
864 1997
864 2014
864 2040
864 2043
864 2061
864 2063
864 2071
864 2075
864 2089
864 2090
864 2097
864 2127
864 2142
864 2146
864 2151
864 2157
864 2166
864 2169
864 2170
864 2172
864 2188
864 2189
864 2198
864 2211
864 2215
864 2218
865 893
865 1685
865 1876
865 2107
866 1176
866 1403
866 1533
867 973
867 1482
867 1626
867 1630
867 1761
867 1772
867 1946
868 1180
868 1321
868 1994
869 1061
869 1506
870 972
870 1075
870 1196
870 1200
870 1389
870 1503
870 1698
870 1877
870 1955
871 1833
871 2036
871 2110
872 942
872 1119
872 1299
872 1349
872 1484
872 1674
872 1833
872 1873
872 1899
872 1941
873 1289
873 1347
873 1770
873 1888
873 2188
874 968
874 1079
874 1533
874 1928
874 2201
875 1533
875 1641
875 1809
875 1976
876 1080
876 1320
876 1547
876 1677
876 1689
876 1781
876 1811
876 1940
877 1480
878 1114
878 1245
878 1533
878 2189
878 2201
880 897
880 904
880 926
880 946
880 950
880 982
880 1014
880 1026
880 1051
880 1060
880 1072
880 1075
880 1087
880 1152
880 1156
880 1167
880 1175
880 1188
880 1199
880 1226
880 1245
880 1249
880 1250
880 1259
880 1268
880 1273
880 1277
880 1302
880 1317
880 1320
880 1331
880 1339
880 1356
880 1408
880 1415
880 1416
880 1430
880 1453
880 1454
880 1461
880 1473
880 1495
880 1506
880 1516
880 1518
880 1533
880 1545
880 1548
880 1577
880 1585
880 1591
880 1592
880 1623
880 1661
880 1674
880 1679
880 1692
880 1703
880 1708
880 1715
880 1735
880 1749
880 1779
880 1787
880 1797
880 1804
880 1805
880 1807
880 1848
880 1854
880 1857
880 1864
880 1872
880 1884
880 1888
880 1903
880 1904
880 1916
880 1920
880 1921
880 1957
880 1966
880 1983
880 2031
880 2033
880 2037
880 2040
880 2047
880 2051
880 2061
880 2072
880 2082
880 2089
880 2090
880 2097
880 2120
880 2124
880 2127
880 2137
880 2142
880 2151
880 2157
880 2162
880 2166
880 2170
880 2172
880 2177
880 2184
880 2188
880 2198
880 2212
880 2215
880 2218
881 1460
881 2039
881 2163
882 1277
882 1805
882 2120
882 2137
882 2215
883 956
883 1044
883 1193
883 1725
883 1738
883 1787
883 1970
883 1983
883 2082
884 995
884 1067
884 1407
884 1501
884 1503
884 1525
884 1545
884 1556
884 1636
884 1652
884 1758
884 1762
884 1917
884 1950
884 1976
884 2175
885 897
885 904
885 920
885 926
885 950
885 982
885 1014
885 1036
885 1051
885 1063
885 1067
885 1072
885 1087
885 1147
885 1152
885 1156
885 1175
885 1202
885 1210
885 1234
885 1245
885 1247
885 1249
885 1253
885 1259
885 1263
885 1266
885 1268
885 1273
885 1277
885 1317
885 1320
885 1331
885 1356
885 1364
885 1393
885 1408
885 1426
885 1430
885 1439
885 1453
885 1454
885 1466
885 1473
885 1489
885 1493
885 1506
885 1518
885 1519
885 1524
885 1533
885 1534
885 1541
885 1545
885 1547
885 1573
885 1575
885 1585
885 1591
885 1592
885 1598
885 1616
885 1623
885 1624
885 1625
885 1647
885 1661
885 1663
885 1668
885 1673
885 1674
885 1676
885 1679
885 1693
885 1708
885 1710
885 1715
885 1723
885 1731
885 1735
885 1736
885 1749
885 1766
885 1773
885 1776
885 1779
885 1787
885 1795
885 1797
885 1804
885 1805
885 1807
885 1819
885 1840
885 1854
885 1857
885 1862
885 1864
885 1872
885 1882
885 1888
885 1895
885 1919
885 1921
885 1928
885 1937
885 1948
885 1956
885 1975
885 1983
885 2014
885 2016
885 2019
885 2032
885 2033
885 2043
885 2051
885 2055
885 2061
885 2065
885 2071
885 2072
885 2082
885 2089
885 2090
885 2097
885 2125
885 2127
885 2142
885 2146
885 2151
885 2157
885 2177
885 2184
885 2198
885 2212
885 2215
885 2218
885 2219
886 1234
886 2137
887 898
887 1178
888 1073
888 1443
888 1489
888 1533
888 2084
888 2146
888 2209
889 1897
889 1933
890 1245
890 1404
890 1506
890 1608
890 1614
890 1616
890 1768
890 1818
890 1832
890 1864
890 1888
890 1900
890 1947
890 2137
890 2178
891 1022
891 1506
891 1533
891 1549
891 1842
891 1947
891 2120
891 2211
892 941
892 1083
892 1926
892 2124
893 1104
893 1685
893 1876
893 2036
893 2060
894 977
894 1582
894 1839
894 1845
894 1897
894 1992
894 2011
895 1867
896 926
896 946
896 950
896 1014
896 1051
896 1072
896 1075
896 1167
896 1175
896 1226
896 1234
896 1259
896 1268
896 1273
896 1302
896 1317
896 1331
896 1339
896 1393
896 1408
896 1430
896 1453
896 1454
896 1459
896 1461
896 1466
896 1473
896 1489
896 1495
896 1518
896 1519
896 1524
896 1533
896 1534
896 1548
896 1577
896 1591
896 1595
896 1608
896 1661
896 1663
896 1689
896 1692
896 1710
896 1731
896 1735
896 1736
896 1738
896 1787
896 1797
896 1804
896 1840
896 1864
896 1872
896 1884
896 1888
896 1895
896 1903
896 1916
896 1919
896 1920
896 1928
896 1957
896 1973
896 1997
896 2014
896 2040
896 2043
896 2051
896 2055
896 2061
896 2071
896 2072
896 2089
896 2097
896 2120
896 2127
896 2137
896 2142
896 2146
896 2157
896 2166
896 2170
896 2188
896 2193
896 2198
896 2209
896 2211
897 904
897 920
897 950
897 978
897 982
897 988
897 1014
897 1026
897 1030
897 1036
897 1051
897 1060
897 1072
897 1075
897 1076
897 1152
897 1167
897 1175
897 1188
897 1234
897 1245
897 1249
897 1259
897 1263
897 1266
897 1268
897 1300
897 1302
897 1317
897 1320
897 1331
897 1339
897 1346
897 1393
897 1404
897 1408
897 1416
897 1453
897 1454
897 1459
897 1461
897 1493
897 1506
897 1516
897 1518
897 1519
897 1524
897 1533
897 1534
897 1545
897 1548
897 1575
897 1577
897 1585
897 1591
897 1592
897 1609
897 1616
897 1623
897 1674
897 1677
897 1679
897 1692
897 1693
897 1697
897 1708
897 1710
897 1731
897 1738
897 1749
897 1779
897 1805
897 1832
897 1848
897 1854
897 1864
897 1868
897 1872
897 1882
897 1883
897 1903
897 1916
897 1919
897 1920
897 1928
897 1938
897 1948
897 1956
897 1975
897 1983
897 1997
897 2009
897 2014
897 2031
897 2033
897 2037
897 2043
897 2047
897 2051
897 2055
897 2058
897 2061
897 2071
897 2072
897 2082
897 2089
897 2090
897 2097
897 2120
897 2124
897 2127
897 2137
897 2142
897 2151
897 2157
897 2162
897 2169
897 2170
897 2198
897 2209
897 2215
897 2219
898 964
898 972
898 1138
898 1178
898 1625
898 1674
898 2137
899 1051
899 1150
899 1525
899 1533
899 1717
900 1106
900 1318
900 1452
900 1469
900 1533
900 1538
900 1735
900 1785
900 1938
900 2124
901 926
901 1517
901 1577
901 1855
901 2120
901 2127
901 2137
901 2218
902 969
902 1378
902 1511
902 1533
902 1829
902 1869
902 2020
902 2186
903 1391
903 1533
903 1668
903 1758
903 1832
903 2048
903 2137
903 2218
904 926
904 946
904 1014
904 1026
904 1060
904 1075
904 1076
904 1087
904 1167
904 1199
904 1226
904 1234
904 1273
904 1302
904 1317
904 1331
904 1339
904 1346
904 1393
904 1416
904 1454
904 1466
904 1495
904 1506
904 1533
904 1534
904 1545
904 1548
904 1575
904 1585
904 1591
904 1616
904 1661
904 1693
904 1710
904 1735
904 1736
904 1766
904 1797
904 1804
904 1807
904 1840
904 1848
904 1854
904 1857
904 1864
904 1868
904 1872
904 1883
904 1903
904 1916
904 1920
904 1928
904 1956
904 1957
904 1975
904 1997
904 2014
904 2043
904 2051
904 2055
904 2061
904 2071
904 2072
904 2089
904 2090
904 2127
904 2137
904 2142
904 2146
904 2151
904 2169
904 2170
904 2172
904 2184
904 2188
904 2198
904 2211
904 2215
904 2218
904 2219
905 2177
906 1824
906 1898
906 2001
907 1274
907 1587
907 1913
907 1918
907 2008
907 2094
908 1533
908 1726
908 1808
908 1832
908 1947
908 2061
908 2082
909 1028
909 1232
909 2101
910 1093
910 1320
910 1717
910 1832
910 2053
910 2179
911 1033
911 1256
911 1863
912 1000
912 1064
913 1078
913 1298
913 1336
913 1450
913 1482
913 1488
913 1814
913 1875
913 1996
913 2045
913 2179
914 1007
914 1055
914 1446
914 1459
914 1533
914 1585
914 1620
914 1832
915 1533
915 1758
915 1809
915 2137
915 2218
916 937
916 948
916 949
916 956
916 982
916 1001
916 1044
916 1062
916 1091
916 1190
916 1193
916 1214
916 1219
916 1241
916 1242
916 1248
916 1256
916 1278
916 1296
916 1334
916 1390
916 1401
916 1403
916 1413
916 1419
916 1436
916 1464
916 1512
916 1519
916 1533
916 1534
916 1545
916 1558
916 1571
916 1589
916 1592
916 1621
916 1637
916 1645
916 1672
916 1726
916 1773
916 1776
916 1808
916 1832
916 1838
916 1846
916 1847
916 1905
916 1922
916 1927
916 1940
916 1970
916 1977
916 1984
916 2061
916 2077
916 2079
916 2082
916 2130
916 2137
916 2211
916 2218
917 943
917 970
917 1292
917 1461
917 1473
917 1518
917 1608
917 1731
917 1832
917 1864
917 1903
917 1947
917 1970
917 2037
917 2214
918 1700
918 1947
919 939
919 953
919 1420
919 1531
919 1583
919 1753
919 1871
919 1897
919 1979
919 2008
919 2154
920 946
920 950
920 1014
920 1026
920 1051
920 1060
920 1072
920 1087
920 1167
920 1175
920 1226
920 1234
920 1273
920 1302
920 1317
920 1339
920 1393
920 1408
920 1430
920 1453
920 1459
920 1489
920 1495
920 1506
920 1518
920 1519
920 1533
920 1545
920 1575
920 1577
920 1585
920 1591
920 1663
920 1692
920 1693
920 1703
920 1710
920 1731
920 1735
920 1738
920 1749
920 1766
920 1804
920 1807
920 1840
920 1854
920 1857
920 1864
920 1868
920 1872
920 1888
920 1919
920 1928
920 1948
920 1983
920 1997
920 2014
920 2040
920 2055
920 2061
920 2071
920 2072
920 2089
920 2097
920 2120
920 2127
920 2137
920 2142
920 2146
920 2151
920 2157
920 2166
920 2169
920 2170
920 2172
920 2184
920 2188
920 2189
920 2193
920 2198
920 2209
920 2211
920 2218
921 1232
921 1323
921 1490
921 2171
922 1453
922 1617
922 1736
922 2120
923 1533
923 1663
924 1914
925 1831
925 1864
926 946
926 950
926 1014
926 1026
926 1051
926 1060
926 1072
926 1075
926 1156
926 1167
926 1175
926 1199
926 1226
926 1234
926 1245
926 1249
926 1259
926 1266
926 1268
926 1273
926 1277
926 1302
926 1331
926 1339
926 1346
926 1393
926 1408
926 1415
926 1416
926 1453
926 1459
926 1461
926 1466
926 1495
926 1506
926 1516
926 1518
926 1524
926 1533
926 1548
926 1575
926 1577
926 1591
926 1592
926 1595
926 1598
926 1608
926 1616
926 1623
926 1663
926 1679
926 1689
926 1692
926 1693
926 1703
926 1708
926 1710
926 1716
926 1725
926 1731
926 1735
926 1736
926 1738
926 1749
926 1766
926 1779
926 1787
926 1804
926 1807
926 1819
926 1840
926 1848
926 1854
926 1864
926 1868
926 1882
926 1884
926 1888
926 1895
926 1920
926 1921
926 1928
926 1948
926 1983
926 1997
926 2014
926 2031
926 2033
926 2040
926 2043
926 2047
926 2055
926 2072
926 2082
926 2097
926 2120
926 2124
926 2127
926 2137
926 2142
926 2157
926 2162
926 2169
926 2172
926 2177
926 2189
926 2193
926 2198
926 2212
926 2215
926 2219
927 1302
927 1864
927 1899
927 1966
927 2002
927 2051
927 2120
928 1916
928 2201
929 956
929 1245
929 1533
929 1832
929 1864
929 1947
929 2120
929 2137
930 1682
930 2216
931 995
931 1075
931 1167
931 1334
931 1407
931 1416
931 1456
931 1464
931 1501
931 1503
931 1675
931 1758
931 1762
931 1862
931 1903
931 1950
931 1976
931 2031
931 2175
932 1211
932 1218
932 1378
932 1386
932 1531
932 1579
932 1629
932 1691
932 1844
932 1947
932 2021
932 2084
932 2104
932 2137
932 2153
933 1025
933 1071
933 1386
933 1469
933 1489
933 1498
933 1582
933 1630
933 1635
933 1744
933 1831
933 1874
933 1898
933 1978
933 2164
934 1832
935 1047
935 1958
935 2121
935 2137
936 1016
936 1029
936 1288
936 1469
936 1770
936 2045
937 948
937 956
937 960
937 982
937 1044
937 1091
937 1102
937 1160
937 1190
937 1201
937 1219
937 1241
937 1245
937 1291
937 1296
937 1401
937 1403
937 1413
937 1419
937 1436
937 1512
937 1519
937 1533
937 1545
937 1558
937 1571
937 1607
937 1621
937 1637
937 1641
937 1645
937 1713
937 1714
937 1773
937 1776
937 1808
937 1832
937 1846
937 1847
937 1907
937 1922
937 1927
937 1940
937 1947
937 1970
937 1977
937 2047
937 2061
937 2077
937 2130
937 2157
937 2199
937 2211
938 1021
938 1031
938 2080
938 2201
939 989
939 1029
939 1218
939 1305
939 1420
939 1531
939 1583
939 1777
939 1801
939 1812
939 1871
939 1894
939 1936
939 1954
939 2008
939 2094
940 1118
940 1545
940 1834
940 1843
940 1930
941 1083
941 1533
941 1572
941 1707
941 1971
941 2145
942 962
942 1674
942 1833
942 1899
943 1404
943 1478
943 1533
943 1585
943 1804
943 1878
943 1920
943 1977
943 2043
944 1330
945 958
945 968
945 1011
945 1031
945 1067
945 1088
945 1246
945 1387
945 1426
945 1489
945 1540
945 1554
945 1634
945 1704
945 1706
945 1814
945 1821
945 1853
945 1868
945 1916
945 1928
945 1981
945 2072
945 2080
945 2089
945 2156
945 2172
945 2185
945 2192
945 2201
946 950
946 982
946 1014
946 1026
946 1031
946 1036
946 1051
946 1060
946 1072
946 1075
946 1152
946 1156
946 1175
946 1202
946 1226
946 1234
946 1245
946 1249
946 1253
946 1259
946 1266
946 1273
946 1277
946 1302
946 1317
946 1320
946 1331
946 1346
946 1356
946 1393
946 1408
946 1415
946 1453
946 1454
946 1459
946 1461
946 1473
946 1493
946 1495
946 1524
946 1533
946 1534
946 1545
946 1548
946 1560
946 1574
946 1575
946 1577
946 1578
946 1585
946 1592
946 1595
946 1598
946 1608
946 1661
946 1663
946 1674
946 1679
946 1689
946 1693
946 1703
946 1708
946 1710
946 1711
946 1731
946 1735
946 1736
946 1738
946 1749
946 1779
946 1787
946 1797
946 1804
946 1807
946 1840
946 1848
946 1854
946 1857
946 1864
946 1868
946 1872
946 1882
946 1884
946 1888
946 1895
946 1903
946 1916
946 1919
946 1920
946 1921
946 1948
946 1956
946 1957
946 1966
946 1997
946 2014
946 2031
946 2033
946 2037
946 2043
946 2051
946 2055
946 2061
946 2089
946 2097
946 2120
946 2124
946 2137
946 2142
946 2157
946 2166
946 2169
946 2170
946 2172
946 2184
946 2193
946 2198
946 2208
946 2209
946 2219
947 1352
947 1834
948 949
948 956
948 960
948 982
948 1001
948 1044
948 1062
948 1091
948 1102
948 1160
948 1190
948 1193
948 1201
948 1214
948 1223
948 1241
948 1242
948 1245
948 1256
948 1278
948 1291
948 1296
948 1301
948 1334
948 1390
948 1403
948 1419
948 1436
948 1464
948 1512
948 1526
948 1533
948 1545
948 1558
948 1571
948 1585
948 1589
948 1592
948 1607
948 1621
948 1645
948 1658
948 1672
948 1713
948 1776
948 1787
948 1808
948 1832
948 1846
948 1905
948 1907
948 1940
948 1970
948 1977
948 1984
948 2079
948 2082
948 2157
948 2173
948 2204
949 960
949 982
949 1001
949 1044
949 1091
949 1099
949 1102
949 1193
949 1214
949 1223
949 1241
949 1242
949 1248
949 1291
949 1296
949 1334
949 1390
949 1401
949 1419
949 1464
949 1506
949 1512
949 1519
949 1526
949 1533
949 1534
949 1558
949 1589
949 1621
949 1637
949 1658
949 1713
949 1726
949 1733
949 1773
949 1808
949 1838
949 1846
949 1847
949 1905
949 1907
949 1922
949 1927
949 1940
949 1947
949 1970
949 2071
949 2077
949 2079
949 2082
949 2157
949 2199
949 2218
950 982
950 1014
950 1026
950 1036
950 1060
950 1072
950 1075
950 1087
950 1156
950 1167
950 1175
950 1188
950 1202
950 1226
950 1259
950 1263
950 1266
950 1268
950 1273
950 1302
950 1320
950 1339
950 1393
950 1416
950 1454
950 1456
950 1459
950 1461
950 1466
950 1473
950 1489
950 1493
950 1495
950 1506
950 1516
950 1524
950 1533
950 1545
950 1548
950 1575
950 1577
950 1585
950 1592
950 1608
950 1616
950 1623
950 1663
950 1679
950 1689
950 1693
950 1703
950 1710
950 1731
950 1735
950 1736
950 1766
950 1779
950 1787
950 1804
950 1805
950 1807
950 1819
950 1854
950 1864
950 1872
950 1888
950 1916
950 1919
950 1928
950 1956
950 1966
950 2014
950 2026
950 2040
950 2043
950 2047
950 2055
950 2071
950 2072
950 2089
950 2090
950 2124
950 2127
950 2142
950 2146
950 2151
950 2157
950 2169
950 2172
950 2177
950 2188
950 2189
950 2209
950 2212
950 2215
950 2218
950 2219
951 1156
951 1421
951 1533
951 1797
951 1854
951 1864
951 1947
951 2137
952 1063
952 1192
952 1277
952 1358
952 1533
952 1684
952 1761
952 1822
952 1894
952 1897
952 1947
952 2055
952 2089
952 2120
952 2137
952 2164
952 2202
953 1029
953 1420
953 1531
953 1583
953 1801
953 1891
953 1936
953 2008
953 2154
954 1107
954 1129
954 1170
954 1206
954 1210
954 1215
954 1254
954 1280
954 1317
954 1344
954 1356
954 1374
954 1508
954 1516
954 1533
954 1541
954 1557
954 1581
954 1623
954 1647
954 1661
954 1673
954 1676
954 1715
954 1797
954 1807
954 1888
954 1916
954 1921
954 1928
954 1945
954 2003
954 2004
954 2043
954 2082
954 2089
954 2117
954 2120
955 1052
955 1067
955 1090
955 1234
955 1335
955 1339
955 1390
955 1401
955 1424
955 1481
955 1501
955 1516
955 1525
955 1533
955 1570
955 1611
955 1672
955 1713
955 1734
955 1756
955 1762
955 1767
955 1809
955 1832
955 1906
955 1947
955 1950
955 1958
955 1998
955 2017
955 2020
955 2218
956 960
956 969
956 982
956 1001
956 1062
956 1091
956 1151
956 1160
956 1193
956 1241
956 1242
956 1245
956 1248
956 1263
956 1278
956 1291
956 1296
956 1301
956 1328
956 1339
956 1357
956 1390
956 1393
956 1396
956 1403
956 1407
956 1413
956 1419
956 1436
956 1464
956 1506
956 1512
956 1521
956 1525
956 1529
956 1533
956 1555
956 1559
956 1571
956 1589
956 1607
956 1616
956 1627
956 1628
956 1645
956 1672
956 1710
956 1713
956 1714
956 1725
956 1726
956 1733
956 1758
956 1776
956 1787
956 1808
956 1809
956 1838
956 1846
956 1847
956 1857
956 1872
956 1888
956 1905
956 1907
956 1922
956 1927
956 1940
956 1965
956 1967
956 1977
956 1984
956 2051
956 2075
956 2077
956 2135
956 2155
956 2157
956 2159
956 2188
956 2189
956 2194
956 2195
956 2198
956 2199
956 2204
956 2218
957 1712
957 1744
957 1897
958 968
958 987
958 1021
958 1088
958 1114
958 1226
958 1393
958 1479
958 1545
958 1674
958 1704
958 1706
958 1738
958 1853
958 1868
958 1916
958 1981
958 2089
958 2120
958 2137
958 2156
958 2189
959 1096
959 1211
959 1544
959 2119
960 982
960 1001
960 1044
960 1091
960 1160
960 1190
960 1193
960 1201
960 1219
960 1223
960 1256
960 1291
960 1296
960 1334
960 1390
960 1419
960 1464
960 1512
960 1519
960 1526
960 1534
960 1545
960 1558
960 1571
960 1592
960 1607
960 1621
960 1637
960 1672
960 1713
960 1726
960 1773
960 1776
960 1809
960 1847
960 1905
960 1907
960 1922
960 1927
960 1947
960 1970
960 1984
960 2047
960 2061
960 2082
960 2130
960 2157
960 2173
960 2198
960 2204
960 2211
961 967
961 973
961 1073
961 1096
961 1108
961 1353
961 1529
961 1532
961 1761
961 1763
961 1894
961 2011
961 2032
961 2120
962 1333
962 1635
962 1899
962 1941
962 2093
962 2106
963 981
963 1254
963 1294
963 1317
963 1364
963 1459
963 1516
963 1541
963 1570
963 1584
963 1623
963 1628
963 1715
963 1739
963 1807
963 1811
963 1947
963 2004
963 2040
963 2054
963 2089
963 2120
963 2170
964 1415
964 1533
964 1625
964 2146
964 2193
965 1119
965 1765
965 1897
965 1915
965 2124
966 1430
967 994
967 1668
968 987
968 1031
968 1088
968 1114
968 1227
968 1390
968 1453
968 1479
968 1489
968 1533
968 1704
968 1736
968 1853
968 1903
968 1916
968 1974
968 1981
968 2056
968 2065
968 2080
968 2086
968 2089
968 2120
968 2156
968 2161
968 2198
968 2201
969 1034
969 1096
969 1108
969 1158
969 1271
969 1359
969 1378
969 1533
969 1568
969 1585
969 1605
969 1639
969 1692
969 1761
969 1939
969 1946
969 2021
969 2104
970 1883
970 2071
970 2137
970 2174
970 2218
971 1415
971 1489
971 1868
971 2137
972 1054
972 1075
972 1112
972 1178
972 1196
972 1200
972 1294
972 1342
972 1452
972 1483
972 1501
972 1503
972 1533
972 1636
972 1698
972 1734
972 1805
972 1865
972 1877
972 1906
972 1947
972 1955
972 1985
972 2007
972 2089
972 2175
972 2179
973 1211
973 1218
973 1300
973 1337
973 1410
973 1531
973 1634
973 1761
973 1969
973 2037
974 1185
974 1771
974 1813
974 1908
974 2083
974 2116
975 1667
975 1947
976 1350
977 1320
977 1489
977 1630
977 2087
977 2117
977 2201
978 1138
978 1268
978 1506
978 1516
978 1735
979 1136
980 1060
980 1897
980 2001
981 1044
981 1069
981 1136
981 1221
981 1256
981 1334
981 1359
981 1483
981 1595
981 1722
981 1820
981 1863
981 1919
981 1940
981 1947
981 1966
981 2056
981 2093
981 2130
981 2216
982 1001
982 1026
982 1051
982 1060
982 1062
982 1072
982 1091
982 1102
982 1160
982 1167
982 1190
982 1193
982 1201
982 1214
982 1234
982 1241
982 1245
982 1248
982 1249
982 1256
982 1268
982 1273
982 1277
982 1278
982 1291
982 1296
982 1301
982 1302
982 1390
982 1401
982 1403
982 1408
982 1413
982 1416
982 1430
982 1436
982 1461
982 1464
982 1466
982 1489
982 1495
982 1506
982 1518
982 1533
982 1534
982 1545
982 1548
982 1558
982 1575
982 1577
982 1585
982 1589
982 1607
982 1626
982 1637
982 1645
982 1672
982 1674
982 1689
982 1692
982 1693
982 1710
982 1713
982 1731
982 1733
982 1734
982 1736
982 1738
982 1749
982 1766
982 1773
982 1776
982 1787
982 1797
982 1804
982 1808
982 1832
982 1838
982 1840
982 1846
982 1847
982 1854
982 1857
982 1864
982 1868
982 1872
982 1882
982 1884
982 1888
982 1903
982 1905
982 1907
982 1916
982 1919
982 1920
982 1922
982 1927
982 1928
982 1947
982 1948
982 1970
982 1984
982 1997
982 2014
982 2040
982 2043
982 2047
982 2055
982 2061
982 2071
982 2072
982 2077
982 2079
982 2089
982 2090
982 2130
982 2137
982 2142
982 2146
982 2151
982 2157
982 2166
982 2170
982 2172
982 2173
982 2188
982 2189
982 2193
982 2199
982 2204
982 2209
982 2211
982 2215
982 2218
983 1015
983 1037
983 1475
984 1728
984 1893
984 2025
985 1286
985 1735
985 1809
985 1864
985 1873
985 2058
985 2137
986 1237
986 1873
986 2073
987 1020
987 1021
987 1031
987 1088
987 1114
987 1246
987 1426
987 1439
987 1479
987 1489
987 1549
987 1704
987 1736
987 1853
987 1868
987 1916
987 1928
987 2065
987 2080
987 2089
987 2156
987 2201
988 1091
988 1102
988 1533
988 1545
988 1585
988 1726
988 1947
988 2082
989 1029
989 1117
989 1897
990 1044
990 1245
990 1397
990 1693
990 1734
990 1809
990 1832
991 1109
992 1426
992 1931
992 2080
992 2201
993 1037
993 1533
993 1734
993 1803
993 1862
993 2044
994 1650
994 1727
994 1767
994 2021
995 1037
995 1067
995 1075
995 1390
995 1397
995 1416
995 1456
995 1556
995 1570
995 1652
995 1674
995 1675
995 1723
995 1762
995 1803
995 1809
995 1832
995 1862
995 1903
995 1976
995 2028
995 2031
995 2034
995 2137
995 2140
995 2142
995 2175
995 2215
996 1136
997 1003
997 1328
997 1415
997 2021
997 2078
998 1087
998 1294
998 1324
998 1343
998 1366
998 1390
998 1451
998 1455
998 1488
998 1506
998 1533
998 1545
998 1573
998 1674
998 1734
998 1794
998 1851
998 1886
998 1888
998 1897
998 1909
998 2053
998 2137
998 2176
999 1090
999 2215
1000 1064
1000 1122
1000 1463
1000 2050
1001 1044
1001 1062
1001 1102
1001 1160
1001 1190
1001 1193
1001 1201
1001 1214
1001 1219
1001 1223
1001 1241
1001 1291
1001 1296
1001 1334
1001 1403
1001 1413
1001 1419
1001 1436
1001 1464
1001 1512
1001 1519
1001 1526
1001 1533
1001 1534
1001 1545
1001 1558
1001 1571
1001 1585
1001 1589
1001 1607
1001 1626
1001 1645
1001 1658
1001 1672
1001 1713
1001 1734
1001 1808
1001 1838
1001 1846
1001 1847
1001 1903
1001 1905
1001 1907
1001 1922
1001 1927
1001 1947
1001 1970
1001 1977
1001 2043
1001 2061
1001 2077
1001 2079
1001 2130
1001 2157
1001 2173
1002 1168
1002 1198
1003 1587
1003 1866
1003 2129
1004 1169
1004 1175
1004 1227
1004 1279
1004 1285
1004 1339
1004 1382
1004 1506
1004 1545
1004 1700
1004 1711
1004 1726
1004 1785
1004 1925
1004 1928
1004 1947
1004 2054
1004 2071
1004 2087
1004 2120
1004 2137
1004 2151
1004 2161
1004 2172
1004 2188
1004 2202
1004 2209
1005 1069
1005 1533
1005 1545
1005 1585
1005 1966
1006 1590
1006 1803
1006 2092
1006 2176
1007 1074
1007 1245
1007 1320
1007 1390
1007 1397
1007 1533
1007 1809
1008 1195
1008 2021
1008 2024
1008 2163
1009 1323
1009 1423
1009 1566
1009 1598
1009 2116
1010 1686
1010 1832
1010 1888
1010 2082
1010 2137
1010 2146
1011 1020
1011 1189
1011 1280
1011 1380
1011 1426
1011 1634
1011 2172
1011 2192
1011 2201
1012 1223
1012 1390
1012 1809
1012 1947
1012 2137
1013 1437
1013 1533
1013 1545
1013 1702
1013 2137
1014 1026
1014 1036
1014 1051
1014 1060
1014 1072
1014 1075
1014 1152
1014 1156
1014 1167
1014 1170
1014 1199
1014 1202
1014 1249
1014 1259
1014 1263
1014 1266
1014 1268
1014 1273
1014 1277
1014 1317
1014 1320
1014 1331
1014 1339
1014 1346
1014 1356
1014 1364
1014 1374
1014 1393
1014 1396
1014 1408
1014 1415
1014 1416
1014 1454
1014 1461
1014 1506
1014 1516
1014 1519
1014 1524
1014 1533
1014 1534
1014 1541
1014 1548
1014 1549
1014 1575
1014 1577
1014 1591
1014 1598
1014 1608
1014 1614
1014 1616
1014 1647
1014 1661
1014 1674
1014 1679
1014 1689
1014 1692
1014 1693
1014 1708
1014 1715
1014 1725
1014 1735
1014 1736
1014 1749
1014 1766
1014 1779
1014 1787
1014 1804
1014 1805
1014 1807
1014 1840
1014 1854
1014 1857
1014 1864
1014 1868
1014 1888
1014 1903
1014 1916
1014 1920
1014 1921
1014 1956
1014 1966
1014 1983
1014 1997
1014 2003
1014 2004
1014 2014
1014 2033
1014 2037
1014 2040
1014 2043
1014 2051
1014 2055
1014 2061
1014 2071
1014 2072
1014 2082
1014 2089
1014 2097
1014 2117
1014 2120
1014 2124
1014 2127
1014 2137
1014 2146
1014 2151
1014 2157
1014 2166
1014 2169
1014 2170
1014 2177
1014 2184
1014 2188
1014 2189
1014 2193
1014 2198
1014 2211
1014 2212
1014 2215
1015 1475
1015 1476
1015 1506
1015 1668
1015 1832
1015 1947
1015 2099
1016 1149
1016 1347
1016 1469
1016 1712
1016 1770
1016 1777
1016 1981
1016 2011
1016 2084
1016 2094
1016 2145
1017 1036
1017 1051
1017 1170
1017 1317
1017 1518
1017 1541
1017 1643
1017 1749
1017 1868
1017 1916
1017 1937
1017 2004
1017 2089
1017 2120
1017 2169
1017 2170
1018 1257
1020 1021
1020 1044
1020 1088
1020 1426
1020 1439
1020 1479
1020 1533
1020 1704
1020 1710
1020 1814
1020 1853
1020 1857
1020 1868
1020 1928
1020 2056
1020 2065
1020 2089
1020 2120
1020 2125
1020 2137
1020 2156
1020 2201
1021 1031
1021 1088
1021 1246
1021 1380
1021 1439
1021 1479
1021 1489
1021 1704
1021 1706
1021 1853
1021 1916
1021 1928
1021 1981
1021 2056
1021 2065
1021 2080
1021 2089
1021 2120
1021 2137
1021 2156
1021 2192
1021 2201
1022 1842
1022 2120
1023 1533
1023 1545
1023 1792
1023 1830
1023 1832
1024 1542
1024 1876
1024 1972
1024 2083
1025 1489
1025 1564
1025 1630
1025 1874
1025 1941
1025 1978
1026 1036
1026 1051
1026 1060
1026 1072
1026 1075
1026 1087
1026 1152
1026 1156
1026 1167
1026 1175
1026 1188
1026 1226
1026 1245
1026 1249
1026 1253
1026 1259
1026 1263
1026 1266
1026 1268
1026 1273
1026 1277
1026 1302
1026 1317
1026 1339
1026 1346
1026 1393
1026 1408
1026 1416
1026 1430
1026 1453
1026 1461
1026 1466
1026 1473
1026 1489
1026 1516
1026 1524
1026 1533
1026 1534
1026 1545
1026 1548
1026 1575
1026 1577
1026 1591
1026 1592
1026 1598
1026 1616
1026 1623
1026 1661
1026 1693
1026 1708
1026 1715
1026 1731
1026 1735
1026 1736
1026 1738
1026 1749
1026 1787
1026 1804
1026 1805
1026 1819
1026 1832
1026 1840
1026 1848
1026 1854
1026 1857
1026 1864
1026 1868
1026 1872
1026 1882
1026 1884
1026 1888
1026 1895
1026 1916
1026 1919
1026 1920
1026 1928
1026 1947
1026 1948
1026 1956
1026 1957
1026 1983
1026 1997
1026 2014
1026 2031
1026 2033
1026 2037
1026 2040
1026 2043
1026 2051
1026 2055
1026 2061
1026 2071
1026 2082
1026 2097
1026 2120
1026 2127
1026 2137
1026 2142
1026 2151
1026 2157
1026 2162
1026 2166
1026 2169
1026 2170
1026 2177
1026 2184
1026 2188
1026 2189
1026 2193
1026 2198
1026 2209
1026 2211
1026 2215
1026 2218
1026 2219
1027 1030
1027 1277
1027 1317
1027 1444
1027 1473
1027 1518
1027 1524
1027 1595
1027 1697
1027 1715
1027 1726
1027 1804
1027 1854
1027 1888
1027 1947
1027 2051
1027 2082
1027 2097
1027 2120
1027 2137
1027 2208
1029 1149
1029 1347
1029 1531
1029 1801
1029 1891
1029 1897
1029 1936
1029 2008
1029 2145
1030 1051
1030 1102
1030 1156
1030 1266
1030 1415
1030 1429
1030 1454
1030 1518
1030 1575
1030 1591
1030 1592
1030 1608
1030 1616
1030 1654
1030 1663
1030 1804
1030 1970
1030 2043
1030 2044
1030 2051
1030 2071
1030 2137
1030 2142
1031 1088
1031 1246
1031 1426
1031 1439
1031 1450
1031 1479
1031 1489
1031 1533
1031 1545
1031 1627
1031 1706
1031 1853
1031 1868
1031 1916
1031 1928
1031 1981
1031 2056
1031 2065
1031 2080
1031 2120
1031 2156
1031 2172
1031 2192
1031 2201
1032 1226
1032 1516
1032 2120
1032 2137
1034 1096
1034 1108
1034 1211
1034 1378
1034 1415
1034 1529
1034 1532
1034 1605
1034 1765
1034 2016
1034 2141
1034 2186
1034 2187
1035 1682
1035 2119
1036 1051
1036 1060
1036 1072
1036 1087
1036 1199
1036 1226
1036 1234
1036 1245
1036 1259
1036 1268
1036 1273
1036 1302
1036 1331
1036 1339
1036 1393
1036 1408
1036 1416
1036 1453
1036 1489
1036 1495
1036 1506
1036 1518
1036 1519
1036 1533
1036 1534
1036 1545
1036 1548
1036 1575
1036 1577
1036 1585
1036 1661
1036 1663
1036 1689
1036 1693
1036 1710
1036 1735
1036 1736
1036 1766
1036 1787
1036 1797
1036 1807
1036 1840
1036 1857
1036 1864
1036 1872
1036 1884
1036 1895
1036 1916
1036 1919
1036 1928
1036 1948
1036 1956
1036 1983
1036 1997
1036 2014
1036 2040
1036 2043
1036 2051
1036 2061
1036 2071
1036 2072
1036 2089
1036 2120
1036 2127
1036 2146
1036 2151
1036 2157
1036 2166
1036 2169
1036 2170
1036 2172
1036 2188
1036 2193
1036 2198
1036 2209
1036 2211
1036 2215
1037 1081
1037 1118
1037 1382
1037 1412
1037 1510
1037 1580
1037 1617
1037 1627
1037 1668
1037 1796
1037 1887
1037 1900
1037 1990
1037 1999
1037 2029
1037 2200
1037 2206
1038 1277
1038 1317
1038 1516
1038 1533
1038 1585
1038 1623
1038 1674
1038 1904
1038 2089
1038 2137
1039 1837
1040 1136
1040 1158
1040 1181
1040 2147
1040 2179
1040 2216
1041 1626
1041 1903
1042 1245
1042 1947
1043 1045
1043 1092
1043 1195
1043 1305
1043 1746
1043 1890
1043 2024
1044 1062
1044 1102
1044 1137
1044 1160
1044 1193
1044 1219
1044 1223
1044 1234
1044 1241
1044 1242
1044 1245
1044 1248
1044 1249
1044 1256
1044 1278
1044 1291
1044 1296
1044 1301
1044 1334
1044 1390
1044 1401
1044 1403
1044 1413
1044 1419
1044 1436
1044 1506
1044 1533
1044 1558
1044 1563
1044 1571
1044 1585
1044 1607
1044 1658
1044 1672
1044 1702
1044 1725
1044 1726
1044 1773
1044 1808
1044 1809
1044 1838
1044 1847
1044 1860
1044 1872
1044 1888
1044 1905
1044 1906
1044 1917
1044 1922
1044 1959
1044 1970
1044 1973
1044 1984
1044 2043
1044 2044
1044 2082
1044 2125
1044 2130
1044 2140
1044 2157
1044 2162
1044 2173
1044 2188
1044 2204
1044 2211
1044 2218
1045 1802
1045 2101
1046 1150
1046 1525
1046 1717
1046 1775
1046 1798
1046 2072
1046 2138
1046 2218
1047 1317
1047 1516
1047 1674
1047 1904
1047 2125
1048 1721
1049 2163
1050 1717
1050 2072
1051 1060
1051 1087
1051 1096
1051 1152
1051 1156
1051 1167
1051 1175
1051 1188
1051 1202
1051 1215
1051 1226
1051 1253
1051 1259
1051 1268
1051 1273
1051 1277
1051 1317
1051 1331
1051 1339
1051 1346
1051 1356
1051 1392
1051 1393
1051 1408
1051 1426
1051 1453
1051 1459
1051 1461
1051 1466
1051 1500
1051 1502
1051 1524
1051 1533
1051 1534
1051 1545
1051 1548
1051 1549
1051 1575
1051 1577
1051 1585
1051 1598
1051 1608
1051 1616
1051 1623
1051 1630
1051 1679
1051 1689
1051 1692
1051 1693
1051 1703
1051 1708
1051 1715
1051 1731
1051 1736
1051 1766
1051 1779
1051 1804
1051 1805
1051 1807
1051 1854
1051 1857
1051 1864
1051 1868
1051 1878
1051 1888
1051 1895
1051 1909
1051 1916
1051 1919
1051 1921
1051 1956
1051 1983
1051 2011
1051 2014
1051 2033
1051 2040
1051 2043
1051 2047
1051 2051
1051 2058
1051 2069
1051 2071
1051 2072
1051 2085
1051 2097
1051 2120
1051 2125
1051 2127
1051 2142
1051 2146
1051 2151
1051 2157
1051 2169
1051 2170
1051 2172
1051 2177
1051 2184
1051 2189
1051 2209
1051 2211
1051 2218
1051 2219
1052 1501
1053 1319
1053 1385
1053 1441
1053 1527
1053 1756
1053 2131
1054 1923
1054 2122
1055 1320
1055 1430
1055 1453
1055 1533
1055 1617
1056 1888
1057 1236
1057 1897
1057 1941
1059 1310
1060 1071
1060 1087
1060 1130
1060 1152
1060 1156
1060 1175
1060 1188
1060 1234
1060 1245
1060 1253
1060 1259
1060 1263
1060 1268
1060 1277
1060 1285
1060 1298
1060 1302
1060 1317
1060 1331
1060 1338
1060 1346
1060 1356
1060 1393
1060 1408
1060 1415
1060 1430
1060 1453
1060 1454
1060 1469
1060 1473
1060 1482
1060 1489
1060 1493
1060 1506
1060 1518
1060 1519
1060 1533
1060 1548
1060 1564
1060 1569
1060 1572
1060 1575
1060 1585
1060 1592
1060 1608
1060 1616
1060 1623
1060 1630
1060 1635
1060 1689
1060 1693
1060 1703
1060 1708
1060 1715
1060 1731
1060 1735
1060 1736
1060 1738
1060 1744
1060 1749
1060 1766
1060 1797
1060 1804
1060 1807
1060 1819
1060 1839
1060 1840
1060 1843
1060 1848
1060 1854
1060 1857
1060 1864
1060 1868
1060 1872
1060 1882
1060 1884
1060 1892
1060 1897
1060 1903
1060 1919
1060 1928
1060 1948
1060 1956
1060 1957
1060 1961
1060 1966
1060 1983
1060 1992
1060 1993
1060 2011
1060 2030
1060 2031
1060 2037
1060 2040
1060 2043
1060 2047
1060 2051
1060 2087
1060 2089
1060 2090
1060 2120
1060 2124
1060 2127
1060 2137
1060 2142
1060 2151
1060 2157
1060 2162
1060 2169
1060 2184
1060 2188
1060 2189
1060 2193
1060 2198
1060 2209
1060 2218
1060 2219
1061 1095
1061 1285
1061 1439
1061 1482
1061 1489
1061 1506
1061 1582
1061 1585
1061 1668
1061 1725
1061 2040
1061 2164
1061 2201
1062 1091
1062 1160
1062 1193
1062 1214
1062 1219
1062 1223
1062 1245
1062 1256
1062 1278
1062 1291
1062 1296
1062 1301
1062 1390
1062 1401
1062 1413
1062 1419
1062 1436
1062 1464
1062 1512
1062 1534
1062 1545
1062 1571
1062 1592
1062 1607
1062 1621
1062 1658
1062 1672
1062 1713
1062 1726
1062 1773
1062 1838
1062 1905
1062 1940
1062 1947
1062 1977
1062 1984
1062 2047
1062 2077
1062 2082
1062 2130
1062 2137
1062 2157
1062 2173
1062 2199
1062 2204
1063 1151
1063 1169
1063 1170
1063 1251
1063 1393
1063 1519
1063 1628
1063 1647
1063 1738
1063 1983
1063 2031
1063 2065
1063 2071
1063 2137
1063 2172
1064 1105
1064 1681
1064 1959
1065 1261
1065 1320
1065 1329
1065 1369
1065 1525
1065 1533
1065 1717
1065 1842
1065 1903
1065 2179
1066 1245
1066 1533
1066 1616
1066 1713
1066 1809
1066 2051
1066 2137
1067 1075
1067 1137
1067 1245
1067 1250
1067 1387
1067 1399
1067 1446
1067 1456
1067 1479
1067 1506
1067 1556
1067 1570
1067 1617
1067 1636
1067 1652
1067 1674
1067 1758
1067 1766
1067 1803
1067 1809
1067 1862
1067 1903
1067 1917
1067 1947
1067 1950
1067 1958
1067 1976
1067 1983
1067 2026
1067 2028
1067 2031
1067 2034
1067 2061
1067 2068
1067 2086
1067 2140
1067 2175
1067 2184
1067 2215
1067 2221
1068 1545
1068 1621
1068 1832
1069 1392
1069 1667
1070 1211
1071 1451
1071 1938
1072 1075
1072 1087
1072 1111
1072 1156
1072 1175
1072 1188
1072 1199
1072 1226
1072 1245
1072 1258
1072 1259
1072 1263
1072 1266
1072 1268
1072 1320
1072 1331
1072 1408
1072 1415
1072 1416
1072 1430
1072 1454
1072 1461
1072 1466
1072 1473
1072 1516
1072 1518
1072 1519
1072 1524
1072 1533
1072 1534
1072 1575
1072 1577
1072 1591
1072 1616
1072 1623
1072 1661
1072 1663
1072 1674
1072 1679
1072 1689
1072 1693
1072 1703
1072 1708
1072 1713
1072 1715
1072 1731
1072 1749
1072 1766
1072 1779
1072 1787
1072 1797
1072 1805
1072 1807
1072 1840
1072 1848
1072 1854
1072 1857
1072 1864
1072 1868
1072 1872
1072 1884
1072 1895
1072 1903
1072 1916
1072 1920
1072 1921
1072 1928
1072 1947
1072 1948
1072 1966
1072 1983
1072 1997
1072 2031
1072 2033
1072 2037
1072 2040
1072 2043
1072 2047
1072 2051
1072 2055
1072 2061
1072 2071
1072 2072
1072 2077
1072 2082
1072 2090
1072 2097
1072 2127
1072 2137
1072 2142
1072 2146
1072 2151
1072 2157
1072 2169
1072 2170
1072 2172
1072 2177
1072 2188
1072 2189
1072 2193
1072 2211
1072 2215
1072 2219
1073 1402
1073 1579
1073 1894
1074 1533
1074 1640
1074 1642
1074 1667
1074 1695
1074 1764
1074 1805
1074 1834
1074 1879
1074 1973
1074 2198
1075 1087
1075 1093
1075 1152
1075 1156
1075 1167
1075 1175
1075 1188
1075 1199
1075 1202
1075 1234
1075 1245
1075 1249
1075 1250
1075 1259
1075 1266
1075 1268
1075 1273
1075 1277
1075 1317
1075 1320
1075 1331
1075 1339
1075 1346
1075 1393
1075 1407
1075 1408
1075 1415
1075 1453
1075 1454
1075 1456
1075 1459
1075 1461
1075 1466
1075 1489
1075 1493
1075 1495
1075 1501
1075 1506
1075 1516
1075 1518
1075 1519
1075 1524
1075 1525
1075 1533
1075 1534
1075 1545
1075 1548
1075 1556
1075 1575
1075 1577
1075 1585
1075 1591
1075 1592
1075 1608
1075 1616
1075 1623
1075 1624
1075 1636
1075 1674
1075 1675
1075 1679
1075 1689
1075 1692
1075 1693
1075 1703
1075 1708
1075 1710
1075 1715
1075 1716
1075 1735
1075 1738
1075 1749
1075 1762
1075 1766
1075 1804
1075 1807
1075 1809
1075 1819
1075 1840
1075 1848
1075 1862
1075 1864
1075 1868
1075 1882
1075 1888
1075 1895
1075 1903
1075 1919
1075 1921
1075 1948
1075 1956
1075 1957
1075 1966
1075 1976
1075 1983
1075 1997
1075 2014
1075 2026
1075 2028
1075 2033
1075 2040
1075 2055
1075 2061
1075 2069
1075 2071
1075 2082
1075 2089
1075 2090
1075 2120
1075 2124
1075 2137
1075 2140
1075 2142
1075 2151
1075 2157
1075 2162
1075 2166
1075 2169
1075 2170
1075 2172
1075 2175
1075 2177
1075 2184
1075 2188
1075 2189
1075 2193
1075 2198
1075 2209
1075 2211
1075 2215
1075 2218
1075 2219
1076 1202
1076 1268
1076 1273
1076 1317
1076 1415
1076 1429
1076 1598
1076 1616
1076 1661
1076 1703
1076 1710
1076 1735
1076 1848
1076 1864
1076 1883
1076 1947
1076 1975
1076 2071
1076 2089
1076 2170
1076 2174
1076 2219
1077 1746
1077 2039
1078 1336
1078 1996
1079 1533
1079 1928
1079 1958
1079 2086
1079 2137
1079 2147
1079 2215
1080 1100
1080 1403
1080 1430
1080 1584
1080 1620
1080 1817
1080 1912
1080 2142
1082 1622
1082 1678
1082 1729
1083 1707
1083 1894
1084 1533
1084 1961
1085 1136
1085 1829
1085 2088
1086 1872
1087 1093
1087 1167
1087 1175
1087 1202
1087 1226
1087 1234
1087 1253
1087 1259
1087 1263
1087 1266
1087 1277
1087 1317
1087 1331
1087 1339
1087 1356
1087 1393
1087 1408
1087 1415
1087 1451
1087 1453
1087 1454
1087 1459
1087 1466
1087 1473
1087 1495
1087 1506
1087 1516
1087 1518
1087 1519
1087 1533
1087 1548
1087 1575
1087 1577
1087 1585
1087 1591
1087 1592
1087 1608
1087 1617
1087 1623
1087 1663
1087 1674
1087 1692
1087 1693
1087 1703
1087 1708
1087 1710
1087 1715
1087 1731
1087 1736
1087 1738
1087 1749
1087 1766
1087 1779
1087 1797
1087 1805
1087 1807
1087 1819
1087 1832
1087 1840
1087 1848
1087 1851
1087 1854
1087 1857
1087 1864
1087 1884
1087 1888
1087 1895
1087 1903
1087 1916
1087 1919
1087 1921
1087 1928
1087 1948
1087 1956
1087 1957
1087 1983
1087 2014
1087 2031
1087 2033
1087 2037
1087 2040
1087 2043
1087 2047
1087 2051
1087 2053
1087 2055
1087 2061
1087 2071
1087 2072
1087 2082
1087 2089
1087 2090
1087 2097
1087 2124
1087 2142
1087 2151
1087 2157
1087 2169
1087 2170
1087 2172
1087 2177
1087 2184
1087 2189
1087 2193
1087 2208
1087 2211
1087 2212
1087 2215
1087 2218
1087 2219
1088 1114
1088 1246
1088 1439
1088 1479
1088 1489
1088 1617
1088 1736
1088 1853
1088 1868
1088 1916
1088 2065
1088 2080
1088 2089
1088 2120
1088 2156
1088 2201
1089 1460
1089 2039
1090 1463
1090 1533
1090 1574
1090 1717
1090 1787
1090 1808
1090 1882
1090 1887
1090 1906
1090 1947
1090 2105
1091 1102
1091 1160
1091 1214
1091 1219
1091 1223
1091 1241
1091 1248
1091 1278
1091 1291
1091 1296
1091 1334
1091 1390
1091 1401
1091 1419
1091 1436
1091 1453
1091 1464
1091 1466
1091 1512
1091 1526
1091 1533
1091 1534
1091 1545
1091 1558
1091 1571
1091 1589
1091 1592
1091 1645
1091 1672
1091 1713
1091 1726
1091 1733
1091 1773
1091 1776
1091 1808
1091 1809
1091 1838
1091 1847
1091 1907
1091 1927
1091 1940
1091 1947
1091 1965
1091 1970
1091 1977
1091 1984
1091 2043
1091 2047
1091 2061
1091 2077
1091 2130
1091 2199
1091 2204
1091 2211
1092 1195
1092 1791
1092 1890
1092 2024
1093 1153
1093 1186
1093 1451
1093 1473
1093 1508
1093 1549
1093 1673
1093 1674
1093 1690
1093 1716
1093 1797
1093 1806
1093 1855
1093 2069
1093 2136
1093 2177
1094 1533
1094 2137
1095 2137
1096 1211
1096 1363
1096 1378
1096 1402
1096 1415
1096 1439
1096 1443
1096 1532
1096 1568
1096 1630
1096 1650
1096 1669
1096 1761
1096 2016
1096 2021
1096 2042
1096 2104
1096 2120
1097 1501
1097 1533
1097 1570
1097 1832
1097 1947
1098 1457
1098 1824
1098 1833
1098 1839
1098 1897
1098 2001
1098 2021
1099 1152
1099 1320
1099 1580
1099 1725
1099 2127
1099 2201
1100 1533
1100 1563
1100 1584
1100 1585
1100 1590
1100 1617
1100 1672
1100 1689
1100 1766
1100 1817
1100 1904
1100 1912
1100 2027
1100 2176
1101 2093
1102 1160
1102 1219
1102 1223
1102 1248
1102 1256
1102 1296
1102 1301
1102 1334
1102 1390
1102 1401
1102 1413
1102 1436
1102 1464
1102 1519
1102 1534
1102 1545
1102 1558
1102 1592
1102 1608
1102 1621
1102 1637
1102 1658
1102 1726
1102 1808
1102 1809
1102 1864
1102 1907
1102 1922
1102 1927
1102 1940
1102 1947
1102 1970
1102 1977
1102 1984
1102 2047
1102 2157
1102 2173
1102 2199
1102 2204
1103 1824
1103 1831
1103 1897
1103 2001
1103 2124
1103 2216
1104 1685
1104 1876
1105 1340
1105 1514
1106 1533
1106 1660
1106 2189
1107 1533
1107 2124
1107 2137
1107 2208
1108 1211
1108 1378
1108 1529
1108 1568
1108 1605
1108 1761
1108 1763
1108 2016
1108 2021
1108 2137
1109 1699
1109 1867
1111 1124
1111 1224
1111 1245
1111 1302
1111 1390
1111 1416
1111 1426
1111 1456
1111 1532
1111 1537
1111 1545
1111 1553
1111 1585
1111 1623
1111 1647
1111 1673
1111 1674
1111 1725
1111 1779
1111 1809
1111 1814
1111 1857
1111 1872
1111 1884
1111 1904
1111 1947
1111 1959
1111 1965
1111 1981
1111 1983
1111 1997
1111 2004
1111 2054
1111 2067
1111 2089
1111 2120
1111 2137
1111 2198
1111 2208
1112 1985
1113 1823
1113 1929
1114 1246
1114 1298
1114 1446
1114 1479
1114 1489
1114 1572
1114 1599
1114 1617
1114 1671
1114 1706
1114 1853
1114 1868
1114 1878
1114 1916
1114 1925
1114 1928
1114 1981
1114 2065
1114 2080
1114 2086
1114 2089
1114 2195
1114 2201
1114 2215
1115 1533
1115 1585
1115 1692
1115 1832
1116 1245
1116 1275
1116 1439
1116 1516
1116 1518
1116 1853
1116 1884
1116 2009
1116 2201
1117 1336
1117 1338
1117 1386
1117 1482
1117 1629
1117 1712
1117 1839
1117 1845
1117 1897
1117 1992
1117 1993
1117 2001
1117 2011
1117 2021
1118 1580
1118 1617
1118 1834
1119 1694
1119 1845
1119 1918
1120 1279
1120 1518
1120 1744
1120 2089
1121 2163
1122 2093
1124 1231
1124 1390
1124 1519
1124 1533
1124 1658
1124 1907
1124 1960
1124 1983
1124 1989
1124 2054
1124 2065
1124 2080
1124 2218
1125 1245
1125 1533
1125 2051
1125 2149
1125 2157
1125 2188
1126 1396
1126 1619
1126 2137
1127 1644
1127 1677
1128 1187
1128 1604
1128 2045
1129 1210
1129 1215
1129 1277
1129 1317
1129 1364
1129 1374
1129 1516
1129 1541
1129 1614
1129 1623
1129 1647
1129 1661
1129 1673
1129 1676
1129 1807
1129 1862
1129 1916
1129 2003
1129 2004
1129 2063
1129 2089
1130 1254
1130 1339
1130 1424
1130 1458
1130 1506
1130 1735
1130 1872
1130 1896
1131 1459
1131 1461
1131 1608
1131 1997
1131 2137
1131 2188
1132 1136
1132 1168
1132 1551
1132 1823
1132 2116
1134 1167
1134 1245
1134 1809
1134 1832
1134 2044
1134 2140
1135 1651
1136 1381
1136 1483
1136 1525
1136 1551
1136 1622
1136 1719
1136 1823
1136 1934
1136 1963
1136 2038
1136 2093
1136 2154
1136 2163
1136 2167
1136 2180
1136 2216
1137 1533
1137 1758
1137 2193
1138 1268
1138 1346
1138 1415
1138 1735
1138 1848
1138 1864
1138 1975
1138 2137
1138 2177
1139 1292
1139 1517
1139 1661
1139 1761
1139 1883
1139 2011
1139 2127
1139 2137
1140 1155
1140 1258
1140 1292
1140 1517
1140 1661
1141 1245
1141 1390
1141 1632
1141 1725
1141 2137
1142 1742
1143 1245
1143 1506
1143 1533
1143 1558
1143 1581
1143 1585
1143 1947
1143 2188
1143 2194
1144 1185
1144 1237
1144 2116
1145 1295
1145 1301
1145 1526
1145 1626
1146 1742
1146 1850
1146 2107
1147 1991
1147 2089
1148 1194
1148 1541
1148 1679
1148 1947
1149 1162
1149 1172
1149 1182
1149 1288
1149 1770
1149 1777
1149 2124
1149 2145
1150 1153
1150 1261
1150 1320
1150 1451
1150 1506
1150 1525
1150 1533
1150 1717
1150 1798
1150 1887
1150 1928
1150 2198
1151 1194
1151 1251
1151 1317
1151 1628
1151 1738
1151 1832
1151 1884
1151 1947
1151 1983
1151 2065
1151 2072
1151 2127
1151 2137
1152 1199
1152 1226
1152 1234
1152 1249
1152 1259
1152 1268
1152 1317
1152 1320
1152 1331
1152 1339
1152 1390
1152 1416
1152 1430
1152 1453
1152 1459
1152 1461
1152 1489
1152 1495
1152 1506
1152 1519
1152 1533
1152 1575
1152 1591
1152 1674
1152 1710
1152 1731
1152 1736
1152 1738
1152 1766
1152 1787
1152 1797
1152 1807
1152 1840
1152 1864
1152 1882
1152 1884
1152 1888
1152 1895
1152 1916
1152 1919
1152 1928
1152 1947
1152 1948
1152 1956
1152 1957
1152 1997
1152 2009
1152 2014
1152 2040
1152 2043
1152 2061
1152 2071
1152 2072
1152 2090
1152 2097
1152 2120
1152 2127
1152 2137
1152 2142
1152 2146
1152 2166
1152 2169
1152 2170
1152 2184
1152 2188
1152 2189
1152 2198
1152 2208
1152 2218
1153 1257
1153 1451
1153 1452
1153 1465
1153 1488
1153 1533
1153 1674
1153 1717
1153 1851
1153 1973
1153 2053
1153 2179
1155 1360
1155 1517
1155 1619
1155 2211
1155 2215
1156 1175
1156 1199
1156 1226
1156 1249
1156 1259
1156 1268
1156 1273
1156 1277
1156 1302
1156 1317
1156 1331
1156 1393
1156 1416
1156 1453
1156 1454
1156 1459
1156 1461
1156 1466
1156 1473
1156 1489
1156 1518
1156 1519
1156 1533
1156 1534
1156 1575
1156 1577
1156 1585
1156 1591
1156 1608
1156 1654
1156 1661
1156 1663
1156 1674
1156 1687
1156 1689
1156 1692
1156 1693
1156 1710
1156 1736
1156 1738
1156 1766
1156 1807
1156 1840
1156 1884
1156 1888
1156 1919
1156 1947
1156 1948
1156 1956
1156 1957
1156 1970
1156 1983
1156 1997
1156 2040
1156 2043
1156 2055
1156 2071
1156 2090
1156 2097
1156 2120
1156 2127
1156 2137
1156 2146
1156 2151
1156 2157
1156 2166
1156 2170
1156 2172
1156 2189
1156 2193
1156 2198
1156 2209
1156 2211
1157 1423
1157 2116
1158 1181
1158 1359
1158 1691
1158 1939
1158 2118
1158 2147
1159 1320
1159 1617
1159 1843
1159 1928
1159 2017
1160 1242
1160 1248
1160 1256
1160 1278
1160 1291
1160 1296
1160 1334
1160 1390
1160 1401
1160 1403
1160 1464
1160 1512
1160 1519
1160 1533
1160 1534
1160 1545
1160 1571
1160 1589
1160 1592
1160 1607
1160 1621
1160 1637
1160 1645
1160 1658
1160 1726
1160 1733
1160 1773
1160 1787
1160 1832
1160 1838
1160 1905
1160 1922
1160 1970
1160 2061
1160 2077
1160 2130
1160 2157
1160 2173
1160 2188
1160 2199
1160 2211
1161 1369
1161 1717
1161 1734
1161 1786
1161 2175
1161 2179
1162 1561
1162 1705
1162 1753
1162 1938
1162 2145
1163 1208
1164 1447
1166 1167
1166 1533
1166 1545
1166 1832
1166 1947
1167 1175
1167 1188
1167 1199
1167 1202
1167 1226
1167 1245
1167 1249
1167 1259
1167 1263
1167 1266
1167 1268
1167 1277
1167 1302
1167 1317
1167 1346
1167 1356
1167 1390
1167 1408
1167 1415
1167 1416
1167 1453
1167 1461
1167 1466
1167 1495
1167 1506
1167 1516
1167 1518
1167 1519
1167 1524
1167 1533
1167 1534
1167 1545
1167 1548
1167 1577
1167 1591
1167 1592
1167 1608
1167 1621
1167 1623
1167 1661
1167 1663
1167 1672
1167 1674
1167 1689
1167 1692
1167 1693
1167 1703
1167 1710
1167 1715
1167 1735
1167 1738
1167 1749
1167 1766
1167 1787
1167 1797
1167 1807
1167 1809
1167 1848
1167 1857
1167 1864
1167 1882
1167 1884
1167 1888
1167 1903
1167 1907
1167 1916
1167 1919
1167 1920
1167 1921
1167 1928
1167 1948
1167 1956
1167 1966
1167 1983
1167 1997
1167 2031
1167 2033
1167 2040
1167 2047
1167 2048
1167 2055
1167 2061
1167 2071
1167 2072
1167 2082
1167 2089
1167 2090
1167 2097
1167 2120
1167 2127
1167 2137
1167 2157
1167 2162
1167 2166
1167 2169
1167 2170
1167 2172
1167 2177
1167 2184
1167 2188
1167 2189
1167 2212
1167 2218
1167 2219
1167 2220
1168 1825
1168 1910
1169 1430
1169 1495
1169 1545
1169 1832
1169 1983
1169 2031
1169 2137
1170 1173
1170 1210
1170 1277
1170 1292
1170 1317
1170 1364
1170 1374
1170 1516
1170 1533
1170 1541
1170 1609
1170 1614
1170 1617
1170 1623
1170 1647
1170 1661
1170 1676
1170 1878
1170 1916
1170 1928
1170 1937
1170 2003
1170 2004
1170 2040
1170 2063
1170 2117
1170 2120
1170 2201
1171 1772
1171 1897
1172 1569
1172 1831
1173 1374
1173 1947
1173 2137
1174 1415
1174 1586
1174 2021
1175 1199
1175 1202
1175 1226
1175 1234
1175 1245
1175 1249
1175 1253
1175 1259
1175 1263
1175 1266
1175 1268
1175 1273
1175 1277
1175 1294
1175 1302
1175 1317
1175 1331
1175 1339
1175 1346
1175 1356
1175 1393
1175 1415
1175 1416
1175 1430
1175 1453
1175 1461
1175 1466
1175 1493
1175 1495
1175 1506
1175 1516
1175 1518
1175 1519
1175 1524
1175 1533
1175 1534
1175 1548
1175 1585
1175 1608
1175 1612
1175 1616
1175 1617
1175 1661
1175 1674
1175 1679
1175 1692
1175 1703
1175 1708
1175 1710
1175 1715
1175 1731
1175 1736
1175 1749
1175 1787
1175 1804
1175 1805
1175 1807
1175 1809
1175 1819
1175 1840
1175 1848
1175 1857
1175 1868
1175 1879
1175 1882
1175 1884
1175 1888
1175 1895
1175 1909
1175 1920
1175 1921
1175 1928
1175 1947
1175 1957
1175 1966
1175 1997
1175 2004
1175 2014
1175 2031
1175 2033
1175 2047
1175 2055
1175 2061
1175 2071
1175 2082
1175 2089
1175 2090
1175 2097
1175 2120
1175 2124
1175 2127
1175 2137
1175 2142
1175 2146
1175 2151
1175 2157
1175 2162
1175 2169
1175 2170
1175 2177
1175 2184
1175 2188
1175 2189
1175 2193
1175 2198
1175 2202
1175 2209
1175 2211
1175 2215
1175 2218
1175 2219
1176 1439
1176 1781
1176 1853
1176 1981
1176 2061
1176 2194
1177 1489
1177 2001
1177 2021
1178 1674
1179 1371
1180 1321
1181 1542
1181 1691
1181 2118
1181 2147
1182 1326
1182 1347
1183 1211
1183 1871
1184 1675
1184 1809
1184 1832
1184 2044
1184 2137
1184 2201
1185 1237
1185 1908
1185 2116
1186 1342
1186 1624
1186 1674
1186 1716
1186 1899
1187 1604
1188 1199
1188 1202
1188 1226
1188 1234
1188 1251
1188 1259
1188 1268
1188 1277
1188 1302
1188 1331
1188 1339
1188 1346
1188 1374
1188 1390
1188 1453
1188 1454
1188 1466
1188 1495
1188 1506
1188 1518
1188 1533
1188 1534
1188 1541
1188 1545
1188 1575
1188 1577
1188 1591
1188 1598
1188 1623
1188 1661
1188 1674
1188 1676
1188 1689
1188 1692
1188 1693
1188 1703
1188 1710
1188 1715
1188 1731
1188 1736
1188 1738
1188 1749
1188 1797
1188 1807
1188 1840
1188 1848
1188 1857
1188 1864
1188 1868
1188 1872
1188 1882
1188 1883
1188 1884
1188 1888
1188 1903
1188 1916
1188 1919
1188 1920
1188 1928
1188 1948
1188 1956
1188 1975
1188 1983
1188 1997
1188 2004
1188 2014
1188 2040
1188 2051
1188 2055
1188 2061
1188 2071
1188 2097
1188 2120
1188 2137
1188 2142
1188 2146
1188 2151
1188 2157
1188 2166
1188 2169
1188 2170
1188 2172
1188 2184
1188 2189
1188 2192
1188 2193
1188 2198
1188 2211
1188 2215
1188 2219
1189 1224
1189 1426
1189 1540
1189 1981
1189 2072
1189 2156
1189 2201
1190 1219
1190 1223
1190 1242
1190 1245
1190 1248
1190 1256
1190 1278
1190 1291
1190 1301
1190 1334
1190 1390
1190 1401
1190 1403
1190 1512
1190 1519
1190 1526
1190 1533
1190 1558
1190 1571
1190 1592
1190 1637
1190 1645
1190 1726
1190 1733
1190 1773
1190 1776
1190 1809
1190 1832
1190 1838
1190 1846
1190 1847
1190 1905
1190 1907
1190 1922
1190 1927
1190 1940
1190 1947
1190 1977
1190 1984
1190 2047
1190 2061
1190 2077
1190 2082
1190 2130
1190 2157
1190 2188
1190 2204
1190 2211
1191 1533
1191 1921
1192 1415
1192 1839
1192 1901
1192 2021
1193 1201
1193 1214
1193 1219
1193 1223
1193 1242
1193 1256
1193 1278
1193 1296
1193 1301
1193 1334
1193 1401
1193 1419
1193 1464
1193 1512
1193 1519
1193 1526
1193 1533
1193 1534
1193 1545
1193 1556
1193 1558
1193 1571
1193 1592
1193 1658
1193 1672
1193 1713
1193 1726
1193 1776
1193 1808
1193 1832
1193 1838
1193 1905
1193 1907
1193 1922
1193 1970
1193 1984
1193 2047
1193 2054
1193 2077
1193 2082
1193 2130
1193 2157
1193 2173
1193 2199
1193 2218
1194 1245
1194 1357
1194 1516
1194 1541
1194 1628
1194 1738
1194 2089
1194 2125
1194 2159
1194 2176
1195 1746
1195 1791
1196 1329
1196 1452
1196 1506
1196 1636
1196 1698
1196 1805
1196 1808
1197 1656
1197 2123
1199 1234
1199 1245
1199 1249
1199 1266
1199 1273
1199 1317
1199 1339
1199 1346
1199 1356
1199 1408
1199 1415
1199 1416
1199 1453
1199 1454
1199 1459
1199 1466
1199 1473
1199 1489
1199 1493
1199 1506
1199 1516
1199 1518
1199 1519
1199 1533
1199 1548
1199 1575
1199 1577
1199 1585
1199 1591
1199 1592
1199 1598
1199 1608
1199 1617
1199 1623
1199 1674
1199 1692
1199 1703
1199 1708
1199 1726
1199 1731
1199 1735
1199 1736
1199 1738
1199 1749
1199 1766
1199 1779
1199 1787
1199 1804
1199 1807
1199 1819
1199 1840
1199 1848
1199 1854
1199 1857
1199 1864
1199 1868
1199 1872
1199 1882
1199 1895
1199 1919
1199 1920
1199 1921
1199 1928
1199 1957
1199 1966
1199 1983
1199 2014
1199 2037
1199 2040
1199 2043
1199 2047
1199 2061
1199 2071
1199 2082
1199 2089
1199 2097
1199 2120
1199 2124
1199 2137
1199 2142
1199 2146
1199 2149
1199 2151
1199 2157
1199 2166
1199 2170
1199 2177
1199 2184
1199 2189
1199 2193
1199 2212
1199 2215
1199 2219
1200 1503
1200 1698
1200 1877
1200 1955
1200 2211
1201 1214
1201 1219
1201 1241
1201 1248
1201 1256
1201 1278
1201 1296
1201 1301
1201 1334
1201 1390
1201 1401
1201 1419
1201 1436
1201 1439
1201 1512
1201 1519
1201 1526
1201 1533
1201 1534
1201 1545
1201 1558
1201 1592
1201 1607
1201 1617
1201 1625
1201 1645
1201 1658
1201 1672
1201 1713
1201 1733
1201 1773
1201 1776
1201 1808
1201 1838
1201 1847
1201 1905
1201 1922
1201 1927
1201 1940
1201 1947
1201 1970
1201 1976
1201 1977
1201 1984
1201 2047
1201 2061
1201 2077
1201 2082
1201 2157
1201 2173
1201 2188
1201 2199
1201 2204
1202 1226
1202 1249
1202 1268
1202 1277
1202 1302
1202 1331
1202 1339
1202 1346
1202 1393
1202 1416
1202 1430
1202 1453
1202 1454
1202 1466
1202 1473
1202 1489
1202 1495
1202 1506
1202 1518
1202 1519
1202 1533
1202 1534
1202 1545
1202 1548
1202 1575
1202 1591
1202 1598
1202 1616
1202 1661
1202 1674
1202 1689
1202 1693
1202 1710
1202 1731
1202 1735
1202 1736
1202 1749
1202 1766
1202 1787
1202 1804
1202 1840
1202 1848
1202 1854
1202 1872
1202 1883
1202 1884
1202 1895
1202 1916
1202 1919
1202 1957
1202 1975
1202 1997
1202 2014
1202 2043
1202 2051
1202 2071
1202 2120
1202 2127
1202 2151
1202 2169
1202 2170
1202 2172
1202 2184
1202 2189
1202 2193
1202 2198
1202 2209
1202 2219
1203 1545
1203 1608
1203 1864
1203 1967
1203 2037
1203 2174
1203 2177
1204 1533
1204 2137
1205 1626
1205 1946
1205 2021
1206 1306
1206 1317
1206 1344
1206 1533
1206 1617
1206 2043
1206 2137
1206 2206
1207 1293
1208 1260
1208 1445
1210 1215
1210 1245
1210 1266
1210 1277
1210 1280
1210 1317
1210 1331
1210 1356
1210 1364
1210 1516
1210 1623
1210 1643
1210 1647
1210 1652
1210 1676
1210 1688
1210 1690
1210 1715
1210 1916
1210 1937
1210 2003
1210 2004
1210 2030
1210 2063
1210 2117
1210 2120
1210 2136
1210 2137
1211 1378
1211 1415
1211 1529
1211 1544
1211 1579
1211 1605
1211 1888
1211 1913
1211 1928
1211 2011
1211 2021
1211 2042
1211 2084
1211 2182
1212 1475
1212 1476
1212 1533
1212 1832
1212 2099
1212 2111
1213 1596
1214 1223
1214 1248
1214 1256
1214 1296
1214 1334
1214 1390
1214 1401
1214 1419
1214 1436
1214 1512
1214 1519
1214 1526
1214 1533
1214 1534
1214 1558
1214 1571
1214 1589
1214 1592
1214 1607
1214 1637
1214 1645
1214 1776
1214 1808
1214 1809
1214 1832
1214 1838
1214 1905
1214 1907
1214 1922
1214 1927
1214 1940
1214 1970
1214 1977
1214 1984
1214 2047
1214 2061
1214 2079
1214 2130
1214 2199
1214 2204
1215 1253
1215 1277
1215 1280
1215 1317
1215 1320
1215 1356
1215 1374
1215 1430
1215 1516
1215 1533
1215 1541
1215 1595
1215 1614
1215 1647
1215 1661
1215 1674
1215 1715
1215 1784
1215 1797
1215 1807
1215 1855
1215 1937
1215 1957
1215 2003
1215 2040
1215 2063
1215 2071
1215 2089
1215 2117
1215 2120
1215 2137
1215 2170
1215 2189
1216 1542
1216 1677
1216 1972
1216 2167
1217 2095
1218 1761
1218 1777
1218 1948
1219 1223
1219 1241
1219 1242
1219 1256
1219 1278
1219 1296
1219 1301
1219 1390
1219 1419
1219 1436
1219 1464
1219 1512
1219 1519
1219 1533
1219 1534
1219 1545
1219 1558
1219 1571
1219 1589
1219 1592
1219 1607
1219 1621
1219 1637
1219 1658
1219 1713
1219 1726
1219 1733
1219 1773
1219 1776
1219 1808
1219 1832
1219 1903
1219 1907
1219 1922
1219 1927
1219 1947
1219 1977
1219 2061
1219 2079
1219 2082
1219 2130
1219 2137
1219 2157
1219 2199
1219 2204
1220 1453
1220 1788
1220 2009
1222 1549
1222 1999
1223 1241
1223 1242
1223 1245
1223 1278
1223 1296
1223 1301
1223 1334
1223 1390
1223 1401
1223 1403
1223 1419
1223 1436
1223 1512
1223 1519
1223 1533
1223 1545
1223 1558
1223 1571
1223 1607
1223 1621
1223 1645
1223 1658
1223 1672
1223 1713
1223 1733
1223 1773
1223 1776
1223 1787
1223 1808
1223 1832
1223 1846
1223 1905
1223 1907
1223 1927
1223 1947
1223 1977
1223 1984
1223 2047
1223 2077
1223 2082
1223 2130
1223 2157
1223 2173
1223 2199
1223 2204
1223 2218
1224 1617
1225 1584
1225 2151
1226 1229
1226 1234
1226 1245
1226 1253
1226 1254
1226 1263
1226 1266
1226 1268
1226 1273
1226 1277
1226 1302
1226 1317
1226 1331
1226 1339
1226 1346
1226 1356
1226 1364
1226 1374
1226 1393
1226 1408
1226 1415
1226 1430
1226 1453
1226 1454
1226 1461
1226 1466
1226 1473
1226 1489
1226 1495
1226 1506
1226 1516
1226 1518
1226 1519
1226 1533
1226 1534
1226 1541
1226 1545
1226 1577
1226 1592
1226 1608
1226 1623
1226 1643
1226 1661
1226 1674
1226 1689
1226 1692
1226 1693
1226 1703
1226 1708
1226 1710
1226 1713
1226 1715
1226 1720
1226 1731
1226 1738
1226 1749
1226 1766
1226 1779
1226 1797
1226 1805
1226 1807
1226 1819
1226 1840
1226 1848
1226 1854
1226 1857
1226 1872
1226 1882
1226 1884
1226 1888
1226 1895
1226 1916
1226 1919
1226 1921
1226 1928
1226 1956
1226 1957
1226 1997
1226 2014
1226 2031
1226 2033
1226 2037
1226 2040
1226 2043
1226 2047
1226 2051
1226 2055
1226 2061
1226 2071
1226 2089
1226 2090
1226 2097
1226 2120
1226 2137
1226 2142
1226 2146
1226 2151
1226 2162
1226 2166
1226 2169
1226 2184
1226 2188
1226 2189
1226 2193
1226 2204
1226 2212
1226 2215
1226 2218
1227 1549
1227 1778
1227 1821
1227 1864
1227 1928
1227 2120
1227 2137
1228 1453
1228 1687
1228 1797
1228 1947
1228 1970
1228 2170
1229 1242
1229 1663
1229 1706
1229 1785
1229 1807
1229 1809
1229 1916
1229 1981
1229 2056
1229 2097
1230 1506
1230 1630
1230 1761
1230 2164
1231 1320
1231 1404
1231 1436
1231 1533
1231 1658
1231 1857
1231 1947
1231 2061
1231 2082
1231 2137
1232 1260
1232 1791
1232 2024
1234 1245
1234 1249
1234 1263
1234 1268
1234 1273
1234 1277
1234 1302
1234 1320
1234 1331
1234 1339
1234 1356
1234 1393
1234 1408
1234 1415
1234 1416
1234 1430
1234 1459
1234 1461
1234 1466
1234 1473
1234 1489
1234 1493
1234 1495
1234 1506
1234 1518
1234 1524
1234 1533
1234 1534
1234 1545
1234 1548
1234 1585
1234 1591
1234 1592
1234 1608
1234 1616
1234 1623
1234 1661
1234 1679
1234 1689
1234 1692
1234 1710
1234 1713
1234 1735
1234 1749
1234 1779
1234 1787
1234 1797
1234 1804
1234 1807
1234 1819
1234 1840
1234 1848
1234 1854
1234 1857
1234 1862
1234 1864
1234 1872
1234 1882
1234 1884
1234 1916
1234 1919
1234 1928
1234 1948
1234 1956
1234 1957
1234 1983
1234 1984
1234 1997
1234 2037
1234 2040
1234 2047
1234 2051
1234 2055
1234 2061
1234 2071
1234 2072
1234 2075
1234 2082
1234 2120
1234 2124
1234 2127
1234 2137
1234 2142
1234 2146
1234 2157
1234 2162
1234 2166
1234 2169
1234 2177
1234 2188
1234 2189
1234 2193
1234 2211
1234 2212
1234 2219
1235 2031
1235 2156
1235 2201
1236 1310
1236 1754
1236 2153
1237 1940
1237 2074
1238 2052
1238 2084
1239 1506
1239 1533
1240 1531
1240 1891
1240 2008
1241 1248
1241 1278
1241 1291
1241 1401
1241 1419
1241 1436
1241 1512
1241 1519
1241 1526
1241 1533
1241 1545
1241 1571
1241 1589
1241 1592
1241 1621
1241 1637
1241 1645
1241 1658
1241 1672
1241 1776
1241 1808
1241 1838
1241 1846
1241 1847
1241 1903
1241 1905
1241 1917
1241 1922
1241 1940
1241 1947
1241 1970
1241 1977
1241 1984
1241 2047
1241 2157
1241 2199
1241 2204
1242 1248
1242 1256
1242 1278
1242 1401
1242 1413
1242 1419
1242 1430
1242 1436
1242 1464
1242 1516
1242 1533
1242 1545
1242 1558
1242 1571
1242 1585
1242 1589
1242 1607
1242 1637
1242 1658
1242 1672
1242 1713
1242 1726
1242 1773
1242 1776
1242 1808
1242 1809
1242 1838
1242 1846
1242 1847
1242 1905
1242 1907
1242 1922
1242 1927
1242 1940
1242 1947
1242 1970
1242 1977
1242 1984
1242 2043
1242 2047
1242 2077
1242 2082
1242 2130
1242 2137
1242 2157
1242 2173
1242 2199
1242 2204
1243 1851
1244 1326
1244 1347
1244 1470
1245 1249
1245 1250
1245 1256
1245 1269
1245 1273
1245 1277
1245 1278
1245 1301
1245 1302
1245 1320
1245 1331
1245 1334
1245 1339
1245 1390
1245 1393
1245 1397
1245 1416
1245 1430
1245 1453
1245 1454
1245 1459
1245 1461
1245 1473
1245 1495
1245 1506
1245 1518
1245 1519
1245 1526
1245 1533
1245 1534
1245 1545
1245 1548
1245 1555
1245 1558
1245 1563
1245 1575
1245 1580
1245 1589
1245 1617
1245 1619
1245 1641
1245 1647
1245 1650
1245 1659
1245 1663
1245 1668
1245 1672
1245 1702
1245 1710
1245 1713
1245 1714
1245 1725
1245 1726
1245 1731
1245 1734
1245 1735
1245 1736
1245 1766
1245 1779
1245 1792
1245 1797
1245 1804
1245 1808
1245 1830
1245 1832
1245 1834
1245 1840
1245 1854
1245 1857
1245 1860
1245 1862
1245 1864
1245 1872
1245 1873
1245 1882
1245 1883
1245 1884
1245 1903
1245 1917
1245 1919
1245 1920
1245 1921
1245 1925
1245 1927
1245 1928
1245 1948
1245 1950
1245 1957
1245 1958
1245 1965
1245 1970
1245 1973
1245 1977
1245 1989
1245 1995
1245 1997
1245 2014
1245 2022
1245 2037
1245 2040
1245 2043
1245 2044
1245 2048
1245 2061
1245 2065
1245 2071
1245 2077
1245 2082
1245 2089
1245 2090
1245 2092
1245 2097
1245 2120
1245 2125
1245 2130
1245 2137
1245 2140
1245 2142
1245 2146
1245 2151
1245 2160
1245 2166
1245 2169
1245 2174
1245 2184
1245 2188
1245 2189
1245 2193
1245 2198
1245 2208
1245 2211
1245 2215
1245 2218
1246 1439
1246 1479
1246 1489
1246 1706
1246 1868
1246 1916
1246 1981
1246 2054
1246 2056
1246 2065
1246 2080
1246 2089
1246 2156
1246 2201
1247 1433
1247 1723
1247 1767
1247 2077
1248 1278
1248 1291
1248 1296
1248 1334
1248 1390
1248 1403
1248 1413
1248 1419
1248 1436
1248 1512
1248 1519
1248 1526
1248 1533
1248 1589
1248 1592
1248 1607
1248 1621
1248 1637
1248 1645
1248 1672
1248 1713
1248 1726
1248 1733
1248 1773
1248 1776
1248 1787
1248 1808
1248 1846
1248 1905
1248 1907
1248 1922
1248 1927
1248 1940
1248 1970
1248 1977
1248 2047
1248 2077
1248 2079
1248 2082
1248 2130
1248 2157
1248 2173
1248 2204
1248 2218
1249 1259
1249 1302
1249 1320
1249 1331
1249 1334
1249 1339
1249 1393
1249 1416
1249 1430
1249 1453
1249 1454
1249 1459
1249 1461
1249 1466
1249 1473
1249 1489
1249 1493
1249 1506
1249 1516
1249 1519
1249 1533
1249 1548
1249 1575
1249 1577
1249 1585
1249 1592
1249 1598
1249 1608
1249 1616
1249 1621
1249 1623
1249 1663
1249 1679
1249 1689
1249 1693
1249 1703
1249 1710
1249 1731
1249 1736
1249 1797
1249 1804
1249 1805
1249 1807
1249 1819
1249 1854
1249 1857
1249 1868
1249 1872
1249 1895
1249 1916
1249 1919
1249 1920
1249 1921
1249 1928
1249 1948
1249 1956
1249 1983
1249 2014
1249 2033
1249 2037
1249 2040
1249 2047
1249 2051
1249 2061
1249 2071
1249 2072
1249 2090
1249 2097
1249 2137
1249 2142
1249 2157
1249 2169
1249 2170
1249 2177
1249 2189
1249 2193
1249 2209
1249 2211
1249 2212
1249 2215
1249 2219
1250 1416
1250 1503
1250 1636
1250 1652
1250 1663
1250 1734
1250 1758
1250 1862
1250 1917
1250 1950
1250 2026
1250 2030
1250 2031
1250 2034
1250 2044
1250 2055
1250 2137
1250 2140
1250 2184
1251 1390
1251 1393
1251 1519
1251 1533
1251 1585
1251 1713
1251 1738
1251 1884
1251 1907
1251 1983
1251 2054
1251 2065
1251 2082
1251 2097
1252 1443
1252 1506
1252 2164
1253 1259
1253 1273
1253 1277
1253 1302
1253 1317
1253 1331
1253 1339
1253 1364
1253 1374
1253 1393
1253 1408
1253 1430
1253 1453
1253 1466
1253 1489
1253 1506
1253 1516
1253 1533
1253 1541
1253 1545
1253 1548
1253 1575
1253 1577
1253 1591
1253 1614
1253 1623
1253 1647
1253 1674
1253 1689
1253 1692
1253 1693
1253 1710
1253 1725
1253 1731
1253 1735
1253 1736
1253 1738
1253 1766
1253 1804
1253 1840
1253 1854
1253 1857
1253 1868
1253 1884
1253 1895
1253 1916
1253 1919
1253 1920
1253 1928
1253 1937
1253 1956
1253 1957
1253 1997
1253 2003
1253 2004
1253 2014
1253 2051
1253 2063
1253 2071
1253 2072
1253 2089
1253 2097
1253 2127
1253 2142
1253 2146
1253 2151
1253 2157
1253 2166
1253 2169
1253 2170
1253 2172
1253 2184
1253 2188
1253 2189
1253 2198
1253 2209
1253 2211
1253 2215
1254 1268
1254 1273
1254 1317
1254 1346
1254 1364
1254 1374
1254 1415
1254 1516
1254 1598
1254 1614
1254 1623
1254 1661
1254 1703
1254 1715
1254 1735
1254 1807
1254 1848
1254 1864
1254 1883
1254 1895
1254 1916
1254 1948
1254 1975
1254 2040
1254 2063
1254 2120
1254 2166
1254 2177
1255 1761
1256 1301
1256 1334
1256 1390
1256 1393
1256 1401
1256 1403
1256 1413
1256 1419
1256 1436
1256 1464
1256 1512
1256 1519
1256 1526
1256 1533
1256 1534
1256 1545
1256 1558
1256 1589
1256 1592
1256 1607
1256 1621
1256 1626
1256 1658
1256 1672
1256 1713
1256 1726
1256 1733
1256 1776
1256 1787
1256 1808
1256 1832
1256 1838
1256 1846
1256 1847
1256 1905
1256 1906
1256 1907
1256 1922
1256 1927
1256 1947
1256 1970
1256 1977
1256 1984
1256 2017
1256 2044
1256 2047
1256 2061
1256 2077
1256 2127
1256 2130
1256 2173
1256 2188
1256 2199
1256 2204
1256 2211
1257 1488
1257 1674
1257 1851
1257 1897
1257 2053
1259 1263
1259 1266
1259 1273
1259 1277
1259 1302
1259 1317
1259 1320
1259 1339
1259 1346
1259 1356
1259 1408
1259 1415
1259 1416
1259 1430
1259 1453
1259 1454
1259 1461
1259 1466
1259 1473
1259 1489
1259 1506
1259 1516
1259 1519
1259 1524
1259 1533
1259 1534
1259 1545
1259 1548
1259 1577
1259 1591
1259 1592
1259 1616
1259 1623
1259 1661
1259 1663
1259 1674
1259 1679
1259 1692
1259 1693
1259 1703
1259 1708
1259 1710
1259 1715
1259 1731
1259 1736
1259 1738
1259 1749
1259 1766
1259 1779
1259 1804
1259 1807
1259 1819
1259 1840
1259 1854
1259 1857
1259 1864
1259 1868
1259 1872
1259 1882
1259 1884
1259 1888
1259 1903
1259 1921
1259 1957
1259 1966
1259 1983
1259 1997
1259 2014
1259 2031
1259 2033
1259 2037
1259 2040
1259 2043
1259 2051
1259 2055
1259 2061
1259 2071
1259 2072
1259 2082
1259 2090
1259 2097
1259 2127
1259 2142
1259 2146
1259 2162
1259 2169
1259 2172
1259 2177
1259 2184
1259 2188
1259 2189
1259 2193
1259 2198
1259 2208
1259 2209
1259 2219
1260 1890
1260 1980
1260 1982
1261 1434
1261 1451
1261 1506
1261 1533
1261 1624
1261 1716
1261 1999
1262 1400
1262 1781
1262 2084
1263 1268
1263 1277
1263 1295
1263 1302
1263 1317
1263 1408
1263 1416
1263 1453
1263 1454
1263 1459
1263 1461
1263 1473
1263 1489
1263 1506
1263 1526
1263 1529
1263 1533
1263 1545
1263 1548
1263 1577
1263 1591
1263 1661
1263 1663
1263 1674
1263 1689
1263 1692
1263 1693
1263 1735
1263 1738
1263 1749
1263 1766
1263 1787
1263 1797
1263 1804
1263 1807
1263 1840
1263 1854
1263 1857
1263 1864
1263 1872
1263 1882
1263 1884
1263 1888
1263 1895
1263 1916
1263 1920
1263 1928
1263 1947
1263 1965
1263 1984
1263 1997
1263 2014
1263 2017
1263 2030
1263 2040
1263 2043
1263 2051
1263 2055
1263 2061
1263 2071
1263 2072
1263 2075
1263 2082
1263 2089
1263 2090
1263 2097
1263 2120
1263 2127
1263 2135
1263 2137
1263 2142
1263 2146
1263 2166
1263 2169
1263 2172
1263 2173
1263 2184
1263 2188
1263 2189
1263 2193
1263 2198
1263 2211
1263 2215
1264 1367
1265 1533
1265 1842
1266 1268
1266 1277
1266 1302
1266 1317
1266 1331
1266 1393
1266 1408
1266 1416
1266 1430
1266 1453
1266 1459
1266 1461
1266 1466
1266 1473
1266 1495
1266 1506
1266 1533
1266 1548
1266 1585
1266 1661
1266 1663
1266 1692
1266 1693
1266 1735
1266 1738
1266 1766
1266 1787
1266 1804
1266 1807
1266 1854
1266 1864
1266 1868
1266 1872
1266 1882
1266 1884
1266 1888
1266 1895
1266 1916
1266 1919
1266 1920
1266 1956
1266 1957
1266 1983
1266 1997
1266 2014
1266 2037
1266 2051
1266 2055
1266 2061
1266 2072
1266 2090
1266 2097
1266 2120
1266 2146
1266 2157
1266 2166
1266 2170
1266 2172
1266 2184
1266 2189
1266 2193
1266 2198
1266 2209
1266 2218
1267 2216
1268 1273
1268 1277
1268 1302
1268 1307
1268 1317
1268 1320
1268 1331
1268 1339
1268 1346
1268 1356
1268 1415
1268 1416
1268 1430
1268 1453
1268 1454
1268 1459
1268 1466
1268 1489
1268 1493
1268 1495
1268 1506
1268 1516
1268 1518
1268 1524
1268 1533
1268 1534
1268 1545
1268 1592
1268 1598
1268 1608
1268 1616
1268 1623
1268 1661
1268 1674
1268 1679
1268 1689
1268 1692
1268 1693
1268 1703
1268 1708
1268 1715
1268 1735
1268 1736
1268 1749
1268 1766
1268 1779
1268 1787
1268 1797
1268 1804
1268 1805
1268 1807
1268 1819
1268 1848
1268 1854
1268 1868
1268 1872
1268 1882
1268 1884
1268 1888
1268 1916
1268 1919
1268 1920
1268 1921
1268 1928
1268 1956
1268 1957
1268 1966
1268 1975
1268 1997
1268 2014
1268 2031
1268 2033
1268 2040
1268 2043
1268 2051
1268 2055
1268 2061
1268 2071
1268 2072
1268 2082
1268 2089
1268 2090
1268 2097
1268 2120
1268 2124
1268 2137
1268 2146
1268 2151
1268 2157
1268 2162
1268 2169
1268 2184
1268 2193
1268 2198
1268 2209
1268 2212
1268 2215
1268 2219
1269 1343
1269 1533
1269 1675
1269 1803
1269 1809
1269 1832
1270 2216
1271 1605
1271 2021
1272 1947
1272 2137
1273 1277
1273 1302
1273 1317
1273 1339
1273 1346
1273 1356
1273 1393
1273 1408
1273 1430
1273 1454
1273 1459
1273 1461
1273 1466
1273 1489
1273 1495
1273 1506
1273 1516
1273 1518
1273 1519
1273 1524
1273 1533
1273 1534
1273 1545
1273 1548
1273 1577
1273 1585
1273 1598
1273 1608
1273 1616
1273 1623
1273 1661
1273 1663
1273 1679
1273 1689
1273 1692
1273 1693
1273 1703
1273 1710
1273 1715
1273 1735
1273 1738
1273 1749
1273 1766
1273 1797
1273 1805
1273 1807
1273 1819
1273 1854
1273 1857
1273 1864
1273 1868
1273 1872
1273 1882
1273 1883
1273 1895
1273 1903
1273 1920
1273 1921
1273 1928
1273 1948
1273 1956
1273 1957
1273 1966
1273 1983
1273 2014
1273 2031
1273 2037
1273 2043
1273 2055
1273 2061
1273 2071
1273 2072
1273 2089
1273 2090
1273 2120
1273 2124
1273 2127
1273 2137
1273 2146
1273 2151
1273 2162
1273 2169
1273 2170
1273 2172
1273 2184
1273 2189
1273 2211
1273 2212
1273 2218
1274 1587
1274 1631
1274 1918
1274 2008
1274 2094
1275 1853
1275 2201
1276 1343
1276 1947
1277 1280
1277 1302
1277 1317
1277 1320
1277 1324
1277 1331
1277 1356
1277 1364
1277 1374
1277 1392
1277 1393
1277 1408
1277 1415
1277 1453
1277 1454
1277 1459
1277 1461
1277 1489
1277 1493
1277 1495
1277 1518
1277 1524
1277 1533
1277 1534
1277 1541
1277 1548
1277 1585
1277 1591
1277 1598
1277 1608
1277 1614
1277 1616
1277 1623
1277 1647
1277 1661
1277 1663
1277 1674
1277 1679
1277 1689
1277 1692
1277 1703
1277 1710
1277 1731
1277 1736
1277 1738
1277 1749
1277 1766
1277 1787
1277 1797
1277 1804
1277 1819
1277 1840
1277 1848
1277 1854
1277 1857
1277 1864
1277 1868
1277 1882
1277 1888
1277 1895
1277 1903
1277 1919
1277 1920
1277 1921
1277 1928
1277 1956
1277 1957
1277 1983
1277 1995
1277 1997
1277 2003
1277 2004
1277 2014
1277 2033
1277 2037
1277 2040
1277 2043
1277 2051
1277 2061
1277 2063
1277 2072
1277 2082
1277 2089
1277 2117
1277 2124
1277 2137
1277 2142
1277 2146
1277 2166
1277 2169
1277 2170
1277 2177
1277 2189
1277 2193
1277 2209
1277 2212
1277 2215
1277 2219
1278 1291
1278 1296
1278 1301
1278 1320
1278 1334
1278 1401
1278 1403
1278 1519
1278 1526
1278 1533
1278 1545
1278 1558
1278 1571
1278 1592
1278 1607
1278 1637
1278 1641
1278 1645
1278 1658
1278 1675
1278 1713
1278 1726
1278 1733
1278 1773
1278 1776
1278 1809
1278 1838
1278 1860
1278 1905
1278 1907
1278 1947
1278 1965
1278 1970
1278 1977
1278 1984
1278 2077
1278 2079
1278 2082
1278 2130
1278 2157
1278 2173
1278 2188
1278 2199
1278 2211
1279 1506
1279 1630
1279 1772
1279 1947
1279 2023
1279 2164
1279 2188
1279 2191
1279 2209
1280 1317
1280 1320
1280 1356
1280 1364
1280 1374
1280 1516
1280 1541
1280 1614
1280 1647
1280 1676
1280 1715
1280 1738
1280 1916
1280 1937
1280 1947
1280 1983
1280 2003
1280 2004
1280 2043
1280 2063
1280 2089
1280 2117
1280 2137
1281 1489
1281 2201
1282 2093
1282 2216
1283 1780
1283 1954
1284 1584
1284 1940
1284 2027
1284 2061
1284 2092
1285 1376
1285 1489
1285 1533
1285 1660
1285 1711
1285 1944
1285 2030
1285 2066
1285 2115
1285 2137
1286 1804
1286 2051
1287 1443
1288 1336
1288 1347
1288 1469
1288 1660
1288 1770
1288 2049
1288 2145
1288 2164
1290 2124
1291 1296
1291 1301
1291 1403
1291 1413
1291 1464
1291 1512
1291 1519
1291 1533
1291 1545
1291 1558
1291 1585
1291 1589
1291 1592
1291 1621
1291 1672
1291 1686
1291 1713
1291 1726
1291 1733
1291 1773
1291 1776
1291 1808
1291 1809
1291 1832
1291 1838
1291 1846
1291 1847
1291 1907
1291 1927
1291 1940
1291 1947
1291 1984
1291 2047
1291 2061
1291 2079
1291 2082
1291 2157
1291 2204
1291 2211
1292 1489
1292 1545
1292 1928
1292 2014
1292 2051
1292 2068
1292 2137
1292 2174
1292 2215
1293 1533
1293 1723
1293 2137
1294 1389
1294 1428
1294 1503
1294 1516
1294 1545
1294 1553
1294 1775
1294 1796
1294 1832
1294 1887
1294 1903
1295 1311
1295 1417
1295 1559
1295 1626
1295 1677
1295 1897
1295 2060
1295 2137
1295 2168
1296 1334
1296 1403
1296 1413
1296 1419
1296 1464
1296 1512
1296 1519
1296 1526
1296 1533
1296 1545
1296 1592
1296 1607
1296 1645
1296 1658
1296 1713
1296 1733
1296 1776
1296 1808
1296 1832
1296 1838
1296 1847
1296 1905
1296 1907
1296 1922
1296 1927
1296 1965
1296 1977
1296 1984
1296 2047
1296 2061
1296 2079
1296 2082
1296 2130
1296 2173
1296 2188
1296 2211
1296 2218
1298 1338
1298 1386
1298 1450
1298 1482
1298 1489
1298 1596
1298 1626
1298 1744
1298 1996
1298 2001
1298 2120
1299 1484
1299 1833
1300 1363
1300 1489
1300 1533
1300 1630
1300 1928
1300 2164
1301 1390
1301 1413
1301 1436
1301 1512
1301 1526
1301 1533
1301 1534
1301 1558
1301 1589
1301 1592
1301 1621
1301 1637
1301 1645
1301 1713
1301 1733
1301 1773
1301 1776
1301 1832
1301 1838
1301 1905
1301 1907
1301 1922
1301 1927
1301 1940
1301 1947
1301 1970
1301 1977
1301 1984
1301 2061
1301 2077
1301 2079
1301 2082
1301 2173
1302 1317
1302 1320
1302 1331
1302 1339
1302 1346
1302 1348
1302 1393
1302 1408
1302 1416
1302 1430
1302 1453
1302 1454
1302 1461
1302 1466
1302 1473
1302 1489
1302 1493
1302 1518
1302 1524
1302 1533
1302 1534
1302 1548
1302 1575
1302 1577
1302 1585
1302 1591
1302 1592
1302 1595
1302 1608
1302 1616
1302 1661
1302 1674
1302 1679
1302 1689
1302 1692
1302 1693
1302 1701
1302 1703
1302 1708
1302 1710
1302 1715
1302 1735
1302 1736
1302 1738
1302 1749
1302 1779
1302 1787
1302 1797
1302 1804
1302 1819
1302 1840
1302 1848
1302 1872
1302 1882
1302 1888
1302 1916
1302 1917
1302 1920
1302 1921
1302 1947
1302 1948
1302 1957
1302 1983
1302 2014
1302 2031
1302 2033
1302 2037
1302 2040
1302 2043
1302 2047
1302 2051
1302 2055
1302 2061
1302 2071
1302 2072
1302 2090
1302 2097
1302 2120
1302 2124
1302 2127
1302 2137
1302 2142
1302 2146
1302 2151
1302 2157
1302 2162
1302 2166
1302 2170
1302 2172
1302 2177
1302 2188
1302 2193
1302 2198
1302 2209
1302 2211
1302 2212
1302 2218
1303 1332
1303 1375
1303 1497
1303 2089
1303 2137
1304 1449
1305 1321
1305 1420
1305 1531
1305 1753
1305 1801
1305 1812
1305 1891
1305 1936
1305 1943
1305 1954
1305 2008
1306 1317
1306 1344
1306 1715
1306 1855
1306 1991
1306 2009
1306 2043
1306 2120
1307 1309
1307 1735
1307 1864
1307 2120
1307 2137
1307 2169
1307 2170
1308 1482
1308 1533
1308 2107
1309 1467
1309 1533
1309 1549
1309 1621
1309 1668
1309 2169
1310 1754
1310 2165
1310 2181
1311 2091
1313 1995
1313 2103
1314 1772
1315 2084
1316 1938
1317 1320
1317 1331
1317 1344
1317 1346
1317 1364
1317 1374
1317 1392
1317 1397
1317 1408
1317 1416
1317 1430
1317 1440
1317 1453
1317 1454
1317 1459
1317 1466
1317 1493
1317 1495
1317 1506
1317 1508
1317 1516
1317 1518
1317 1519
1317 1533
1317 1534
1317 1537
1317 1545
1317 1548
1317 1557
1317 1581
1317 1591
1317 1592
1317 1608
1317 1616
1317 1617
1317 1623
1317 1647
1317 1661
1317 1663
1317 1674
1317 1675
1317 1676
1317 1679
1317 1689
1317 1690
1317 1692
1317 1693
1317 1703
1317 1708
1317 1710
1317 1715
1317 1720
1317 1726
1317 1736
1317 1784
1317 1787
1317 1792
1317 1805
1317 1807
1317 1811
1317 1819
1317 1840
1317 1848
1317 1854
1317 1855
1317 1859
1317 1864
1317 1868
1317 1872
1317 1884
1317 1897
1317 1903
1317 1928
1317 1937
1317 1947
1317 1948
1317 1953
1317 1956
1317 1966
1317 1975
1317 1983
1317 2001
1317 2003
1317 2004
1317 2014
1317 2020
1317 2031
1317 2033
1317 2037
1317 2040
1317 2043
1317 2047
1317 2061
1317 2063
1317 2069
1317 2097
1317 2117
1317 2120
1317 2121
1317 2124
1317 2125
1317 2127
1317 2136
1317 2137
1317 2140
1317 2146
1317 2151
1317 2157
1317 2162
1317 2166
1317 2169
1317 2170
1317 2172
1317 2177
1317 2184
1317 2188
1317 2189
1317 2193
1317 2198
1317 2209
1317 2211
1318 1506
1318 1533
1318 1735
1318 1873
1318 1904
1319 1683
1319 1900
1319 1910
1319 1933
1319 1942
1320 1331
1320 1335
1320 1344
1320 1364
1320 1365
1320 1390
1320 1393
1320 1408
1320 1416
1320 1430
1320 1436
1320 1453
1320 1454
1320 1459
1320 1466
1320 1485
1320 1489
1320 1495
1320 1518
1320 1519
1320 1526
1320 1533
1320 1545
1320 1548
1320 1575
1320 1577
1320 1591
1320 1610
1320 1661
1320 1663
1320 1674
1320 1679
1320 1689
1320 1692
1320 1693
1320 1717
1320 1725
1320 1731
1320 1734
1320 1735
1320 1736
1320 1738
1320 1749
1320 1787
1320 1797
1320 1798
1320 1804
1320 1809
1320 1832
1320 1840
1320 1843
1320 1854
1320 1857
1320 1868
1320 1884
1320 1888
1320 1907
1320 1916
1320 1919
1320 1922
1320 1925
1320 1928
1320 1948
1320 1956
1320 1957
1320 1962
1320 1974
1320 1977
1320 1983
1320 1990
1320 1995
1320 2009
1320 2043
1320 2044
1320 2051
1320 2055
1320 2061
1320 2090
1320 2097
1320 2120
1320 2130
1320 2137
1320 2142
1320 2151
1320 2157
1320 2166
1320 2169
1320 2170
1320 2172
1320 2188
1320 2193
1320 2198
1320 2206
1320 2209
1320 2211
1320 2215
1321 1802
1321 1891
1321 1994
1322 1325
1322 1633
1322 1982
1323 1490
1323 1596
1323 2129
1323 2171
1323 2213
1324 1392
1324 1563
1324 1595
1324 1947
1324 2066
1324 2071
1324 2089
1325 1587
1325 1982
1325 1987
1326 1347
1326 1470
1326 1835
1327 2109
1327 2163
1328 1415
1328 1475
1328 1533
1328 1545
1328 1585
1328 2021
1328 2188
1328 2208
1329 1525
1329 1865
1330 1864
1331 1339
1331 1346
1331 1392
1331 1393
1331 1404
1331 1415
1331 1416
1331 1430
1331 1454
1331 1459
1331 1461
1331 1466
1331 1473
1331 1493
1331 1506
1331 1518
1331 1519
1331 1524
1331 1533
1331 1534
1331 1545
1331 1548
1331 1577
1331 1585
1331 1592
1331 1595
1331 1608
1331 1612
1331 1623
1331 1661
1331 1663
1331 1673
1331 1679
1331 1689
1331 1692
1331 1703
1331 1708
1331 1710
1331 1715
1331 1725
1331 1731
1331 1736
1331 1738
1331 1749
1331 1766
1331 1779
1331 1792
1331 1797
1331 1805
1331 1807
1331 1819
1331 1840
1331 1848
1331 1854
1331 1857
1331 1859
1331 1864
1331 1868
1331 1872
1331 1895
1331 1916
1331 1919
1331 1920
1331 1921
1331 1928
1331 1937
1331 1956
1331 1957
1331 1966
1331 1983
1331 1997
1331 2004
1331 2014
1331 2020
1331 2031
1331 2037
1331 2040
1331 2051
1331 2061
1331 2072
1331 2089
1331 2090
1331 2120
1331 2124
1331 2125
1331 2127
1331 2162
1331 2169
1331 2170
1331 2177
1331 2184
1331 2188
1331 2189
1331 2193
1331 2209
1331 2212
1331 2218
1331 2219
1333 1856
1333 2010
1333 2106
1334 1390
1334 1401
1334 1403
1334 1413
1334 1419
1334 1464
1334 1519
1334 1533
1334 1534
1334 1545
1334 1571
1334 1585
1334 1589
1334 1592
1334 1607
1334 1621
1334 1637
1334 1658
1334 1672
1334 1700
1334 1726
1334 1733
1334 1773
1334 1787
1334 1808
1334 1809
1334 1832
1334 1838
1334 1847
1334 1872
1334 1905
1334 1907
1334 1922
1334 1940
1334 1947
1334 1970
1334 1977
1334 1984
1334 2047
1334 2061
1334 2077
1334 2079
1334 2082
1334 2137
1334 2173
1334 2188
1334 2198
1334 2199
1334 2204
1334 2211
1335 1501
1335 1525
1335 1717
1336 1564
1336 1845
1336 1875
1336 1897
1336 2021
1336 2049
1336 2094
1337 1378
1337 1415
1337 1532
1337 1605
1337 1639
1337 1869
1337 1988
1337 2042
1337 2182
1338 1386
1338 1453
1338 1482
1338 1489
1338 1564
1338 1582
1338 1635
1338 1839
1338 1897
1338 1992
1338 2011
1338 2164
1338 2201
1339 1346
1339 1356
1339 1393
1339 1408
1339 1416
1339 1424
1339 1430
1339 1454
1339 1459
1339 1466
1339 1473
1339 1493
1339 1519
1339 1533
1339 1575
1339 1577
1339 1591
1339 1592
1339 1616
1339 1623
1339 1661
1339 1663
1339 1670
1339 1674
1339 1679
1339 1692
1339 1693
1339 1703
1339 1708
1339 1710
1339 1715
1339 1735
1339 1738
1339 1749
1339 1766
1339 1779
1339 1805
1339 1807
1339 1819
1339 1840
1339 1848
1339 1864
1339 1872
1339 1882
1339 1884
1339 1888
1339 1895
1339 1903
1339 1916
1339 1919
1339 1920
1339 1928
1339 1947
1339 1956
1339 1957
1339 1966
1339 1983
1339 2031
1339 2033
1339 2043
1339 2047
1339 2051
1339 2055
1339 2061
1339 2071
1339 2072
1339 2082
1339 2089
1339 2090
1339 2110
1339 2120
1339 2124
1339 2127
1339 2137
1339 2142
1339 2146
1339 2172
1339 2177
1339 2189
1339 2193
1339 2198
1339 2215
1339 2218
1339 2219
1340 1910
1341 1737
1342 1452
1342 1717
1342 1837
1342 1842
1342 1862
1342 1865
1342 1955
1342 2007
1343 1359
1343 1533
1343 1545
1343 1585
1343 1603
1343 1734
1343 1809
1343 1860
1343 1888
1343 2044
1343 2082
1343 2157
1343 2184
1344 1526
1344 1533
1344 1617
1344 1674
1344 1726
1344 2120
1344 2137
1345 1781
1346 1393
1346 1415
1346 1416
1346 1430
1346 1453
1346 1454
1346 1466
1346 1489
1346 1495
1346 1518
1346 1533
1346 1534
1346 1545
1346 1575
1346 1585
1346 1591
1346 1598
1346 1616
1346 1661
1346 1663
1346 1674
1346 1692
1346 1693
1346 1703
1346 1710
1346 1735
1346 1736
1346 1738
1346 1749
1346 1804
1346 1807
1346 1840
1346 1848
1346 1854
1346 1857
1346 1864
1346 1882
1346 1883
1346 1884
1346 1888
1346 1895
1346 1903
1346 1920
1346 1948
1346 1956
1346 1957
1346 1983
1346 1997
1346 2040
1346 2043
1346 2051
1346 2055
1346 2061
1346 2071
1346 2072
1346 2089
1346 2090
1346 2097
1346 2120
1346 2137
1346 2142
1346 2146
1346 2151
1346 2157
1346 2170
1346 2172
1346 2188
1346 2189
1346 2209
1346 2211
1346 2215
1346 2218
1346 2219
1347 1770
1347 1777
1347 1835
1347 2145
1348 1554
1348 1804
1350 1494
1351 1415
1351 1516
1351 1726
1351 1947
1351 2082
1352 1523
1352 1533
1352 1580
1352 1736
1352 1803
1352 2055
1352 2209
1353 2021
1354 1613
1354 1668
1354 2027
1354 2176
1355 1533
1355 1897
1356 1393
1356 1408
1356 1430
1356 1453
1356 1454
1356 1459
1356 1466
1356 1473
1356 1489
1356 1506
1356 1518
1356 1519
1356 1533
1356 1541
1356 1545
1356 1548
1356 1575
1356 1577
1356 1591
1356 1623
1356 1674
1356 1676
1356 1689
1356 1693
1356 1710
1356 1725
1356 1735
1356 1736
1356 1738
1356 1766
1356 1797
1356 1804
1356 1840
1356 1857
1356 1864
1356 1868
1356 1872
1356 1884
1356 1888
1356 1895
1356 1916
1356 1928
1356 1937
1356 1945
1356 1947
1356 1948
1356 1956
1356 1957
1356 1997
1356 2003
1356 2004
1356 2040
1356 2043
1356 2061
1356 2063
1356 2071
1356 2072
1356 2075
1356 2077
1356 2089
1356 2090
1356 2120
1356 2127
1356 2142
1356 2151
1356 2166
1356 2169
1356 2170
1356 2172
1356 2173
1356 2188
1356 2189
1356 2198
1356 2209
1356 2215
1357 1393
1357 1453
1357 1506
1357 1519
1357 1533
1357 1595
1357 1673
1357 1679
1357 1710
1357 1713
1357 1725
1357 1904
1357 2137
1357 2208
1358 1489
1358 1630
1358 1961
1358 2164
1358 2205
1359 1483
1359 1939
1359 1946
1360 1833
1360 2010
1361 1533
1361 1848
1362 2210
1363 1532
1363 1947
1363 2104
1363 2181
1364 1374
1364 1541
1364 1614
1364 1647
1364 1661
1364 1715
1364 1731
1364 1735
1364 1807
1364 1864
1364 1916
1364 1937
1364 2003
1364 2004
1364 2040
1364 2097
1364 2117
1364 2120
1364 2137
1364 2166
1364 2209
1365 1430
1365 1504
1365 1533
1365 1809
1365 1832
1365 2142
1365 2215
1366 1488
1366 1533
1366 1837
1366 2102
1366 2179
1367 1638
1367 1678
1368 1506
1368 1533
1368 1557
1368 1585
1368 1614
1368 2188
1368 2189
1368 2198
1369 1506
1369 1626
1369 1786
1369 1887
1369 1955
1369 2179
1370 1545
1370 1584
1370 1734
1370 1965
1370 2092
1371 1910
1371 1986
1371 2216
1372 1817
1372 1904
1373 1683
1374 1516
1374 1541
1374 1614
1374 1623
1374 1676
1374 1715
1374 1731
1374 1895
1374 1916
1374 1948
1374 2003
1374 2004
1374 2040
1374 2063
1374 2089
1374 2117
1374 2120
1374 2209
1375 1489
1375 1533
1375 1601
1375 1928
1375 2124
1376 1533
1376 2137
1377 1459
1377 1548
1377 2137
1378 1430
1378 1520
1378 1532
1378 1568
1378 1579
1378 1639
1378 1682
1378 1761
1378 1763
1378 1832
1378 1839
1378 1862
1378 1869
1378 2016
1378 2020
1378 2034
1378 2042
1378 2153
1378 2186
1378 2187
1378 2218
1379 1735
1379 1872
1380 2201
1381 2216
1382 1415
1382 1518
1382 1735
1382 2033
1382 2137
1382 2177
1383 1545
1383 2156
1383 2201
1384 1397
1384 1407
1384 1713
1384 1734
1384 1809
1384 2140
1385 1885
1386 1443
1386 1469
1386 1564
1386 1582
1386 1618
1386 1629
1386 1630
1386 1635
1386 1680
1386 1681
1386 1744
1386 1761
1386 1831
1386 1839
1386 1892
1386 1894
1386 1897
1386 1992
1386 2011
1386 2115
1386 2145
1387 2061
1387 2121
1387 2127
1387 2201
1388 1506
1388 1533
1388 1820
1388 1907
1388 1947
1388 2208
1389 1503
1389 1533
1389 1636
1389 1832
1389 1877
1389 1955
1390 1401
1390 1403
1390 1419
1390 1439
1390 1464
1390 1501
1390 1503
1390 1506
1390 1512
1390 1526
1390 1533
1390 1535
1390 1545
1390 1558
1390 1571
1390 1573
1390 1577
1390 1584
1390 1585
1390 1589
1390 1610
1390 1619
1390 1627
1390 1632
1390 1641
1390 1675
1390 1679
1390 1692
1390 1700
1390 1702
1390 1713
1390 1725
1390 1726
1390 1733
1390 1734
1390 1768
1390 1787
1390 1809
1390 1832
1390 1838
1390 1843
1390 1846
1390 1847
1390 1868
1390 1872
1390 1873
1390 1903
1390 1904
1390 1909
1390 1919
1390 1922
1390 1959
1390 1970
1390 1989
1390 1990
1390 2037
1390 2047
1390 2061
1390 2065
1390 2072
1390 2079
1390 2082
1390 2092
1390 2127
1390 2130
1390 2137
1390 2173
1390 2188
1390 2198
1390 2204
1390 2208
1390 2211
1390 2218
1391 1409
1391 1533
1391 1580
1391 1584
1391 1668
1391 1756
1391 1809
1391 1811
1391 1832
1392 1516
1392 1591
1392 1807
1392 1888
1392 1947
1392 2188
1393 1408
1393 1415
1393 1459
1393 1461
1393 1466
1393 1493
1393 1495
1393 1506
1393 1516
1393 1519
1393 1524
1393 1533
1393 1534
1393 1545
1393 1548
1393 1575
1393 1585
1393 1592
1393 1598
1393 1608
1393 1616
1393 1621
1393 1628
1393 1661
1393 1663
1393 1674
1393 1679
1393 1689
1393 1693
1393 1703
1393 1731
1393 1735
1393 1736
1393 1738
1393 1749
1393 1766
1393 1779
1393 1787
1393 1797
1393 1804
1393 1805
1393 1807
1393 1832
1393 1840
1393 1848
1393 1854
1393 1857
1393 1864
1393 1868
1393 1872
1393 1879
1393 1884
1393 1888
1393 1895
1393 1928
1393 1947
1393 1957
1393 1966
1393 1997
1393 2033
1393 2037
1393 2040
1393 2043
1393 2047
1393 2051
1393 2061
1393 2071
1393 2072
1393 2082
1393 2089
1393 2090
1393 2120
1393 2121
1393 2124
1393 2125
1393 2127
1393 2142
1393 2146
1393 2151
1393 2157
1393 2159
1393 2166
1393 2169
1393 2170
1393 2172
1393 2184
1393 2189
1393 2193
1393 2208
1393 2209
1393 2212
1393 2218
1394 1897
1395 1423
1395 1435
1395 2088
1395 2091
1396 1506
1396 1533
1396 1545
1396 1584
1396 1619
1396 1697
1396 1792
1396 1832
1396 1903
1396 1935
1396 1981
1396 2027
1396 2061
1396 2137
1396 2168
1397 1533
1397 1628
1397 1643
1397 1734
1397 1797
1397 1809
1397 1832
1397 1931
1397 1989
1397 2037
1397 2089
1397 2209
1398 1451
1398 1528
1399 1545
1399 1957
1400 1828
1401 1403
1401 1413
1401 1419
1401 1436
1401 1464
1401 1512
1401 1519
1401 1526
1401 1533
1401 1534
1401 1558
1401 1621
1401 1645
1401 1658
1401 1672
1401 1723
1401 1733
1401 1773
1401 1787
1401 1808
1401 1832
1401 1847
1401 1905
1401 1907
1401 1940
1401 1947
1401 1970
1401 2061
1401 2077
1401 2079
1401 2082
1401 2130
1401 2199
1401 2211
1401 2218
1402 1579
1402 1691
1402 1761
1402 1894
1403 1413
1403 1419
1403 1436
1403 1464
1403 1506
1403 1519
1403 1526
1403 1534
1403 1545
1403 1558
1403 1571
1403 1585
1403 1592
1403 1607
1403 1637
1403 1658
1403 1672
1403 1674
1403 1713
1403 1773
1403 1776
1403 1808
1403 1846
1403 1847
1403 1905
1403 1907
1403 1940
1403 1947
1403 1977
1403 1984
1403 2047
1403 2061
1403 2075
1403 2077
1403 2137
1403 2157
1403 2173
1403 2188
1403 2198
1403 2204
1403 2211
1404 1478
1404 1487
1404 1506
1404 1533
1404 1977
1404 2137
1405 1617
1405 2137
1406 1608
1406 1818
1406 1900
1406 2043
1406 2125
1407 1416
1407 1503
1407 1533
1407 1570
1407 1636
1407 1641
1407 1674
1407 1675
1407 1709
1407 1803
1407 1809
1407 1832
1407 1862
1407 1903
1407 1917
1407 1950
1407 1976
1407 2026
1407 2028
1407 2034
1407 2137
1407 2140
1407 2142
1408 1415
1408 1416
1408 1454
1408 1466
1408 1473
1408 1489
1408 1493
1408 1506
1408 1516
1408 1518
1408 1519
1408 1524
1408 1533
1408 1545
1408 1548
1408 1575
1408 1577
1408 1592
1408 1598
1408 1608
1408 1616
1408 1661
1408 1663
1408 1674
1408 1679
1408 1689
1408 1693
1408 1703
1408 1710
1408 1735
1408 1736
1408 1738
1408 1749
1408 1797
1408 1804
1408 1805
1408 1807
1408 1819
1408 1840
1408 1848
1408 1864
1408 1882
1408 1884
1408 1888
1408 1916
1408 1920
1408 1928
1408 1956
1408 1966
1408 1983
1408 2014
1408 2033
1408 2037
1408 2040
1408 2043
1408 2047
1408 2051
1408 2055
1408 2058
1408 2061
1408 2072
1408 2082
1408 2089
1408 2097
1408 2124
1408 2127
1408 2137
1408 2142
1408 2146
1408 2162
1408 2169
1408 2170
1408 2172
1408 2177
1408 2189
1408 2198
1408 2209
1408 2215
1408 2219
1409 1533
1409 2027
1410 2104
1411 1910
1412 1580
1412 1617
1412 1950
1413 1436
1413 1464
1413 1512
1413 1533
1413 1558
1413 1589
1413 1592
1413 1607
1413 1672
1413 1713
1413 1733
1413 1773
1413 1808
1413 1809
1413 1832
1413 1838
1413 1905
1413 1922
1413 1940
1413 1947
1413 1970
1413 2047
1413 2077
1413 2130
1413 2157
1413 2199
1413 2204
1415 1430
1415 1443
1415 1444
1415 1454
1415 1459
1415 1461
1415 1466
1415 1473
1415 1489
1415 1506
1415 1518
1415 1519
1415 1529
1415 1533
1415 1534
1415 1545
1415 1575
1415 1577
1415 1579
1415 1585
1415 1591
1415 1598
1415 1605
1415 1625
1415 1661
1415 1689
1415 1692
1415 1693
1415 1703
1415 1725
1415 1731
1415 1735
1415 1736
1415 1738
1415 1749
1415 1761
1415 1763
1415 1787
1415 1797
1415 1807
1415 1829
1415 1840
1415 1854
1415 1868
1415 1872
1415 1882
1415 1883
1415 1884
1415 1888
1415 1895
1415 1901
1415 1919
1415 1920
1415 1965
1415 1970
1415 1983
1415 1997
1415 2014
1415 2016
1415 2021
1415 2030
1415 2037
1415 2040
1415 2043
1415 2051
1415 2071
1415 2078
1415 2082
1415 2090
1415 2097
1415 2108
1415 2120
1415 2124
1415 2127
1415 2137
1415 2146
1415 2166
1415 2172
1415 2174
1415 2177
1415 2182
1415 2184
1415 2188
1415 2189
1415 2198
1415 2211
1415 2215
1415 2218
1415 2219
1416 1453
1416 1459
1416 1461
1416 1495
1416 1503
1416 1506
1416 1517
1416 1518
1416 1519
1416 1524
1416 1533
1416 1534
1416 1545
1416 1575
1416 1591
1416 1592
1416 1598
1416 1608
1416 1623
1416 1636
1416 1652
1416 1661
1416 1674
1416 1675
1416 1679
1416 1689
1416 1692
1416 1703
1416 1710
1416 1715
1416 1731
1416 1735
1416 1738
1416 1758
1416 1762
1416 1766
1416 1779
1416 1797
1416 1804
1416 1805
1416 1809
1416 1819
1416 1840
1416 1848
1416 1854
1416 1864
1416 1884
1416 1888
1416 1895
1416 1903
1416 1917
1416 1920
1416 1921
1416 1928
1416 1947
1416 1948
1416 1950
1416 1956
1416 1957
1416 1966
1416 1976
1416 1983
1416 1997
1416 2014
1416 2026
1416 2028
1416 2033
1416 2034
1416 2037
1416 2043
1416 2047
1416 2051
1416 2055
1416 2061
1416 2069
1416 2071
1416 2097
1416 2120
1416 2124
1416 2127
1416 2146
1416 2151
1416 2157
1416 2166
1416 2169
1416 2170
1416 2172
1416 2184
1416 2188
1416 2193
1416 2198
1416 2209
1416 2211
1416 2212
1416 2218
1416 2219
1417 1506
1417 1533
1417 1545
1417 1559
1417 1563
1417 1620
1417 1644
1417 1757
1417 1951
1417 2060
1417 2103
1417 2125
1417 2151
1417 2168
1419 1436
1419 1526
1419 1534
1419 1545
1419 1558
1419 1571
1419 1589
1419 1592
1419 1607
1419 1621
1419 1637
1419 1645
1419 1658
1419 1672
1419 1726
1419 1733
1419 1773
1419 1776
1419 1808
1419 1838
1419 1846
1419 1847
1419 1905
1419 1922
1419 1927
1419 1940
1419 1947
1419 1977
1419 1984
1419 2061
1419 2082
1419 2157
1419 2173
1419 2199
1419 2204
1420 1531
1420 1583
1420 1753
1420 1801
1420 1812
1420 1871
1420 1891
1420 1936
1420 2154
1421 1518
1421 1533
1421 1687
1421 1797
1421 1804
1421 1920
1421 1970
1421 2033
1421 2188
1421 2211
1422 1561
1422 1681
1422 1793
1423 1874
1424 1670
1424 1947
1424 2137
1425 1473
1425 1533
1425 1608
1425 1921
1425 2120
1425 2124
1425 2137
1425 2211
1426 1446
1426 1577
1426 1811
1426 1814
1426 1878
1426 1884
1426 1916
1426 1928
1426 2056
1426 2089
1426 2120
1426 2172
1426 2201
1427 1972
1427 2060
1428 1458
1428 2148
1429 1454
1429 2120
1429 2137
1429 2174
1430 1454
1430 1456
1430 1459
1430 1473
1430 1489
1430 1506
1430 1516
1430 1518
1430 1519
1430 1524
1430 1533
1430 1534
1430 1541
1430 1545
1430 1548
1430 1574
1430 1575
1430 1577
1430 1584
1430 1591
1430 1592
1430 1598
1430 1616
1430 1620
1430 1623
1430 1661
1430 1674
1430 1689
1430 1693
1430 1703
1430 1715
1430 1736
1430 1738
1430 1779
1430 1783
1430 1804
1430 1805
1430 1832
1430 1840
1430 1848
1430 1854
1430 1857
1430 1864
1430 1865
1430 1868
1430 1884
1430 1888
1430 1895
1430 1903
1430 1916
1430 1917
1430 1920
1430 1928
1430 1940
1430 1948
1430 1966
1430 1983
1430 1997
1430 1998
1430 2026
1430 2031
1430 2040
1430 2043
1430 2047
1430 2051
1430 2054
1430 2061
1430 2069
1430 2072
1430 2082
1430 2089
1430 2097
1430 2120
1430 2124
1430 2135
1430 2137
1430 2142
1430 2146
1430 2157
1430 2162
1430 2166
1430 2169
1430 2170
1430 2177
1430 2184
1430 2189
1430 2209
1430 2219
1431 2038
1431 2084
1432 1661
1432 2177
1433 1704
1433 1723
1433 1862
1433 2201
1434 1471
1434 2179
1436 1464
1436 1512
1436 1519
1436 1526
1436 1533
1436 1534
1436 1545
1436 1585
1436 1589
1436 1607
1436 1617
1436 1621
1436 1637
1436 1645
1436 1658
1436 1672
1436 1713
1436 1726
1436 1733
1436 1773
1436 1776
1436 1808
1436 1809
1436 1832
1436 1838
1436 1847
1436 1905
1436 1922
1436 1927
1436 1947
1436 1977
1436 2061
1436 2079
1436 2082
1436 2137
1436 2157
1436 2173
1436 2199
1436 2204
1437 1692
1437 2207
1438 1579
1438 2021
1438 2108
1439 1479
1439 1489
1439 1519
1439 1545
1439 1679
1439 1704
1439 1706
1439 1713
1439 1736
1439 1832
1439 1853
1439 1928
1439 1947
1439 1981
1439 1989
1439 1990
1439 2061
1439 2080
1439 2127
1439 2156
1439 2194
1439 2201
1440 2137
1441 1523
1441 1613
1441 1756
1441 1940
1441 1972
1441 2131
1441 2176
1442 1474
1442 1683
1442 1867
1443 1532
1443 1533
1443 1602
1443 1822
1443 1894
1443 1897
1443 1948
1443 2011
1443 2040
1443 2058
1443 2164
1444 1495
1444 1533
1444 2097
1444 2137
1444 2146
1445 1910
1446 1519
1446 1545
1446 1584
1446 1619
1446 1787
1446 1917
1446 2137
1446 2159
1446 2172
1446 2189
1446 2194
1446 2201
1446 2215
1448 1682
1448 2119
1448 2141
1449 1506
1449 1533
1449 1726
1449 1832
1449 1849
1449 1888
1449 1951
1450 1683
1450 1706
1450 2056
1450 2137
1451 1488
1451 1596
1451 1674
1451 1730
1451 1851
1451 1916
1451 2003
1451 2053
1452 1717
1452 1842
1453 1454
1453 1466
1453 1473
1453 1493
1453 1524
1453 1526
1453 1533
1453 1534
1453 1545
1453 1572
1453 1575
1453 1577
1453 1592
1453 1598
1453 1608
1453 1616
1453 1623
1453 1658
1453 1661
1453 1679
1453 1689
1453 1710
1453 1715
1453 1731
1453 1735
1453 1747
1453 1779
1453 1787
1453 1797
1453 1804
1453 1805
1453 1807
1453 1819
1453 1840
1453 1843
1453 1847
1453 1854
1453 1857
1453 1864
1453 1872
1453 1882
1453 1888
1453 1895
1453 1897
1453 1903
1453 1947
1453 1956
1453 1957
1453 1966
1453 1983
1453 2026
1453 2031
1453 2037
1453 2040
1453 2051
1453 2061
1453 2071
1453 2072
1453 2082
1453 2090
1453 2097
1453 2127
1453 2137
1453 2142
1453 2146
1453 2157
1453 2162
1453 2166
1453 2169
1453 2172
1453 2177
1453 2184
1453 2188
1453 2189
1453 2193
1453 2209
1453 2211
1453 2215
1453 2218
1453 2219
1454 1459
1454 1466
1454 1489
1454 1495
1454 1506
1454 1516
1454 1518
1454 1519
1454 1533
1454 1534
1454 1545
1454 1575
1454 1585
1454 1598
1454 1608
1454 1616
1454 1661
1454 1663
1454 1674
1454 1679
1454 1689
1454 1693
1454 1703
1454 1708
1454 1710
1454 1726
1454 1735
1454 1736
1454 1738
1454 1766
1454 1779
1454 1797
1454 1804
1454 1805
1454 1807
1454 1848
1454 1854
1454 1861
1454 1864
1454 1868
1454 1872
1454 1884
1454 1888
1454 1895
1454 1903
1454 1919
1454 1920
1454 1921
1454 1928
1454 1932
1454 1947
1454 1966
1454 1983
1454 1997
1454 2014
1454 2037
1454 2040
1454 2043
1454 2047
1454 2051
1454 2055
1454 2061
1454 2072
1454 2082
1454 2089
1454 2090
1454 2097
1454 2120
1454 2124
1454 2127
1454 2142
1454 2146
1454 2151
1454 2157
1454 2166
1454 2177
1454 2184
1454 2188
1454 2189
1454 2193
1454 2209
1454 2211
1454 2212
1454 2219
1455 1533
1455 1545
1455 2072
1455 2188
1456 1503
1456 1517
1456 1556
1456 1577
1456 1611
1456 1636
1456 1652
1456 1668
1456 1674
1456 1762
1456 1803
1456 1809
1456 1862
1456 1884
1456 1888
1456 1903
1456 1917
1456 1976
1456 2028
1456 2031
1456 2069
1456 2085
1456 2089
1456 2140
1457 1839
1457 1897
1457 2001
1457 2075
1458 1482
1458 1833
1458 1909
1459 1461
1459 1466
1459 1472
1459 1487
1459 1489
1459 1493
1459 1506
1459 1516
1459 1519
1459 1524
1459 1533
1459 1534
1459 1545
1459 1548
1459 1549
1459 1575
1459 1577
1459 1578
1459 1585
1459 1591
1459 1592
1459 1598
1459 1616
1459 1621
1459 1623
1459 1648
1459 1661
1459 1663
1459 1674
1459 1689
1459 1692
1459 1693
1459 1708
1459 1710
1459 1713
1459 1715
1459 1731
1459 1735
1459 1736
1459 1738
1459 1749
1459 1778
1459 1779
1459 1787
1459 1805
1459 1809
1459 1840
1459 1848
1459 1854
1459 1857
1459 1862
1459 1864
1459 1872
1459 1873
1459 1882
1459 1888
1459 1896
1459 1903
1459 1916
1459 1919
1459 1920
1459 1928
1459 1948
1459 1957
1459 1966
1459 1997
1459 2031
1459 2033
1459 2037
1459 2040
1459 2043
1459 2055
1459 2061
1459 2071
1459 2072
1459 2082
1459 2089
1459 2090
1459 2097
1459 2120
1459 2127
1459 2137
1459 2142
1459 2151
1459 2166
1459 2170
1459 2172
1459 2184
1459 2188
1459 2193
1459 2198
1459 2202
1459 2218
1460 2039
1460 2163
1461 1466
1461 1489
1461 1495
1461 1516
1461 1518
1461 1524
1461 1533
1461 1534
1461 1548
1461 1577
1461 1585
1461 1591
1461 1592
1461 1598
1461 1608
1461 1616
1461 1623
1461 1674
1461 1679
1461 1693
1461 1703
1461 1710
1461 1715
1461 1736
1461 1738
1461 1748
1461 1749
1461 1766
1461 1779
1461 1787
1461 1819
1461 1840
1461 1854
1461 1857
1461 1872
1461 1882
1461 1884
1461 1888
1461 1903
1461 1916
1461 1919
1461 1920
1461 1921
1461 1928
1461 1956
1461 1997
1461 2014
1461 2031
1461 2033
1461 2037
1461 2040
1461 2043
1461 2047
1461 2051
1461 2055
1461 2071
1461 2097
1461 2120
1461 2124
1461 2137
1461 2149
1461 2151
1461 2162
1461 2166
1461 2169
1461 2170
1461 2172
1461 2177
1461 2188
1461 2198
1461 2212
1461 2215
1463 1666
1463 1879
1464 1512
1464 1519
1464 1526
1464 1533
1464 1545
1464 1558
1464 1571
1464 1589
1464 1607
1464 1621
1464 1637
1464 1658
1464 1672
1464 1713
1464 1726
1464 1733
1464 1773
1464 1776
1464 1787
1464 1832
1464 1847
1464 1907
1464 1922
1464 1927
1464 1940
1464 1970
1464 1977
1464 1984
1464 2047
1464 2061
1464 2077
1464 2079
1464 2082
1464 2157
1464 2173
1464 2211
1465 2000
1466 1473
1466 1489
1466 1493
1466 1495
1466 1506
1466 1516
1466 1519
1466 1524
1466 1533
1466 1545
1466 1575
1466 1577
1466 1591
1466 1592
1466 1598
1466 1608
1466 1616
1466 1623
1466 1661
1466 1663
1466 1674
1466 1689
1466 1693
1466 1703
1466 1708
1466 1710
1466 1736
1466 1738
1466 1749
1466 1766
1466 1797
1466 1804
1466 1807
1466 1819
1466 1840
1466 1848
1466 1854
1466 1882
1466 1884
1466 1888
1466 1903
1466 1916
1466 1919
1466 1920
1466 1928
1466 1947
1466 1956
1466 1983
1466 2014
1466 2033
1466 2037
1466 2040
1466 2043
1466 2047
1466 2061
1466 2071
1466 2072
1466 2082
1466 2090
1466 2097
1466 2120
1466 2137
1466 2142
1466 2146
1466 2151
1466 2157
1466 2162
1466 2166
1466 2169
1466 2170
1466 2172
1466 2177
1466 2184
1466 2198
1466 2212
1466 2215
1466 2218
1466 2219
1467 1549
1468 1867
1469 1506
1469 1564
1469 1618
1469 1629
1469 1681
1469 1736
1469 1744
1469 1770
1469 1777
1469 1831
1469 1839
1469 1897
1469 1898
1469 1947
1469 1948
1469 2021
1469 2115
1470 1482
1470 1835
1471 1525
1471 1534
1472 2137
1473 1493
1473 1495
1473 1506
1473 1516
1473 1518
1473 1524
1473 1533
1473 1534
1473 1541
1473 1545
1473 1575
1473 1577
1473 1585
1473 1591
1473 1592
1473 1598
1473 1608
1473 1616
1473 1661
1473 1663
1473 1674
1473 1679
1473 1689
1473 1693
1473 1708
1473 1710
1473 1715
1473 1738
1473 1749
1473 1766
1473 1779
1473 1787
1473 1797
1473 1805
1473 1807
1473 1818
1473 1819
1473 1848
1473 1854
1473 1857
1473 1859
1473 1864
1473 1872
1473 1882
1473 1884
1473 1888
1473 1895
1473 1916
1473 1919
1473 1920
1473 1925
1473 1928
1473 1948
1473 1956
1473 1997
1473 2031
1473 2040
1473 2047
1473 2051
1473 2055
1473 2061
1473 2072
1473 2082
1473 2089
1473 2090
1473 2097
1473 2120
1473 2124
1473 2127
1473 2142
1473 2146
1473 2151
1473 2157
1473 2162
1473 2166
1473 2169
1473 2170
1473 2174
1473 2184
1473 2188
1473 2189
1473 2198
1473 2209
1473 2212
1473 2219
1474 1867
1475 1476
1475 1734
1475 2025
1475 2099
1475 2111
1476 2099
1477 1691
1478 1504
1478 1545
1478 1726
1478 2071
1479 1704
1479 1706
1479 1736
1479 1814
1479 1868
1479 1928
1479 1981
1479 2056
1479 2080
1479 2089
1479 2120
1479 2156
1479 2201
1480 2093
1480 2113
1481 1940
1482 1564
1482 1582
1482 1744
1482 1839
1482 1897
1482 1961
1482 2011
1482 2129
1482 2164
1483 1837
1483 2216
1484 1833
1485 2042
1487 1502
1487 1506
1487 1585
1488 1674
1488 1842
1488 1851
1488 1985
1488 2053
1489 1493
1489 1495
1489 1506
1489 1516
1489 1517
1489 1518
1489 1519
1489 1524
1489 1533
1489 1534
1489 1545
1489 1572
1489 1575
1489 1577
1489 1585
1489 1592
1489 1598
1489 1608
1489 1617
1489 1618
1489 1623
1489 1629
1489 1630
1489 1663
1489 1674
1489 1680
1489 1689
1489 1692
1489 1693
1489 1703
1489 1704
1489 1706
1489 1708
1489 1710
1489 1715
1489 1731
1489 1736
1489 1749
1489 1766
1489 1787
1489 1804
1489 1807
1489 1814
1489 1843
1489 1848
1489 1853
1489 1857
1489 1882
1489 1884
1489 1888
1489 1892
1489 1895
1489 1897
1489 1903
1489 1919
1489 1920
1489 1921
1489 1928
1489 1938
1489 1948
1489 1956
1489 1957
1489 1961
1489 1981
1489 1997
1489 2014
1489 2031
1489 2040
1489 2043
1489 2051
1489 2055
1489 2056
1489 2065
1489 2071
1489 2072
1489 2086
1489 2089
1489 2090
1489 2097
1489 2120
1489 2124
1489 2127
1489 2137
1489 2142
1489 2146
1489 2156
1489 2157
1489 2166
1489 2177
1489 2184
1489 2189
1489 2192
1489 2193
1489 2198
1489 2201
1489 2209
1489 2211
1489 2212
1492 1876
1493 1495
1493 1506
1493 1518
1493 1519
1493 1533
1493 1534
1493 1575
1493 1663
1493 1674
1493 1692
1493 1693
1493 1731
1493 1735
1493 1736
1493 1738
1493 1749
1493 1766
1493 1787
1493 1797
1493 1857
1493 1868
1493 1872
1493 1882
1493 1884
1493 1888
1493 1916
1493 1919
1493 1920
1493 1928
1493 1948
1493 1956
1493 1957
1493 1997
1493 2014
1493 2040
1493 2043
1493 2051
1493 2055
1493 2061
1493 2068
1493 2097
1493 2142
1493 2169
1493 2170
1493 2184
1493 2188
1493 2193
1493 2211
1493 2215
1493 2218
1495 1506
1495 1518
1495 1519
1495 1532
1495 1533
1495 1534
1495 1545
1495 1553
1495 1577
1495 1585
1495 1592
1495 1595
1495 1598
1495 1608
1495 1632
1495 1653
1495 1661
1495 1679
1495 1693
1495 1703
1495 1708
1495 1738
1495 1749
1495 1766
1495 1787
1495 1792
1495 1797
1495 1805
1495 1807
1495 1840
1495 1848
1495 1854
1495 1857
1495 1864
1495 1868
1495 1872
1495 1882
1495 1888
1495 1895
1495 1903
1495 1904
1495 1958
1495 1966
1495 1981
1495 1997
1495 2031
1495 2033
1495 2037
1495 2040
1495 2043
1495 2047
1495 2055
1495 2071
1495 2082
1495 2089
1495 2090
1495 2097
1495 2120
1495 2121
1495 2124
1495 2127
1495 2136
1495 2137
1495 2142
1495 2146
1495 2151
1495 2162
1495 2169
1495 2170
1495 2172
1495 2177
1495 2184
1495 2188
1495 2189
1495 2198
1495 2211
1495 2212
1498 1770
1499 2009
1499 2208
1500 1506
1500 1533
1500 1541
1500 1991
1500 2085
1500 2089
1500 2137
1501 1503
1501 1525
1501 1533
1501 1636
1501 1650
1501 1652
1501 1659
1501 1734
1501 1756
1501 1758
1501 1762
1501 1803
1501 1832
1501 1903
1501 1917
1501 1940
1501 1950
1501 1958
1501 1976
1501 2017
1501 2026
1501 2028
1501 2034
1501 2137
1501 2175
1501 2215
1501 2221
1502 1617
1502 1642
1502 1731
1502 1968
1502 2137
1502 2166
1503 1556
1503 1570
1503 1636
1503 1652
1503 1674
1503 1675
1503 1698
1503 1758
1503 1762
1503 1809
1503 1842
1503 1862
1503 1877
1503 1899
1503 1906
1503 1917
1503 1950
1503 1976
1503 2026
1503 2031
1503 2034
1503 2130
1503 2140
1503 2142
1503 2175
1503 2211
1503 2215
1504 1533
1504 1549
1504 1603
1504 1686
1504 2137
1504 2189
1505 1518
1505 1623
1505 1818
1505 1883
1505 2089
1506 1516
1506 1518
1506 1524
1506 1529
1506 1532
1506 1533
1506 1534
1506 1535
1506 1538
1506 1548
1506 1552
1506 1557
1506 1563
1506 1569
1506 1573
1506 1574
1506 1575
1506 1577
1506 1585
1506 1591
1506 1592
1506 1593
1506 1595
1506 1607
1506 1608
1506 1613
1506 1614
1506 1616
1506 1619
1506 1623
1506 1624
1506 1626
1506 1639
1506 1641
1506 1663
1506 1677
1506 1679
1506 1684
1506 1693
1506 1695
1506 1702
1506 1703
1506 1708
1506 1710
1506 1715
1506 1717
1506 1726
1506 1733
1506 1734
1506 1735
1506 1749
1506 1766
1506 1779
1506 1787
1506 1789
1506 1804
1506 1805
1506 1807
1506 1832
1506 1840
1506 1843
1506 1848
1506 1854
1506 1864
1506 1868
1506 1872
1506 1873
1506 1879
1506 1884
1506 1888
1506 1895
1506 1903
1506 1905
1506 1906
1506 1919
1506 1921
1506 1928
1506 1933
1506 1947
1506 1948
1506 1956
1506 1957
1506 1965
1506 1966
1506 1983
1506 1997
1506 2009
1506 2014
1506 2022
1506 2031
1506 2033
1506 2036
1506 2037
1506 2043
1506 2044
1506 2047
1506 2052
1506 2060
1506 2071
1506 2072
1506 2078
1506 2084
1506 2085
1506 2092
1506 2099
1506 2124
1506 2127
1506 2134
1506 2141
1506 2142
1506 2143
1506 2146
1506 2151
1506 2162
1506 2164
1506 2169
1506 2175
1506 2176
1506 2177
1506 2179
1506 2184
1506 2188
1506 2193
1506 2198
1506 2203
1506 2208
1506 2209
1506 2211
1506 2212
1506 2215
1506 2219
1507 1980
1507 2024
1508 1533
1508 1608
1508 1654
1508 1797
1508 1855
1510 1533
1510 1832
1511 1579
1511 1839
1511 1869
1511 2021
1511 2093
1511 2186
1512 1519
1512 1533
1512 1534
1512 1558
1512 1571
1512 1589
1512 1592
1512 1607
1512 1621
1512 1637
1512 1645
1512 1672
1512 1713
1512 1733
1512 1773
1512 1838
1512 1846
1512 1847
1512 1905
1512 1917
1512 1922
1512 1940
1512 1970
1512 1977
1512 1984
1512 2047
1512 2061
1512 2079
1512 2082
1512 2173
1512 2188
1512 2199
1512 2204
1512 2211
1513 2100
1513 2187
1515 1579
1515 1869
1515 2186
1516 1518
1516 1519
1516 1533
1516 1541
1516 1545
1516 1548
1516 1575
1516 1585
1516 1591
1516 1598
1516 1614
1516 1642
1516 1643
1516 1647
1516 1661
1516 1663
1516 1672
1516 1674
1516 1679
1516 1690
1516 1704
1516 1714
1516 1731
1516 1738
1516 1749
1516 1766
1516 1787
1516 1804
1516 1832
1516 1840
1516 1854
1516 1859
1516 1864
1516 1868
1516 1872
1516 1882
1516 1884
1516 1888
1516 1903
1516 1904
1516 1916
1516 1919
1516 1925
1516 1928
1516 1947
1516 1956
1516 1957
1516 1997
1516 2003
1516 2004
1516 2014
1516 2043
1516 2051
1516 2058
1516 2071
1516 2089
1516 2090
1516 2097
1516 2117
1516 2120
1516 2121
1516 2127
1516 2137
1516 2157
1516 2169
1516 2170
1516 2184
1516 2188
1516 2190
1516 2198
1516 2209
1516 2215
1516 2218
1517 1619
1517 1647
1517 1661
1517 1674
1517 1804
1517 1864
1517 1928
1517 2137
1517 2148
1517 2157
1517 2193
1517 2201
1517 2211
1517 2215
1518 1519
1518 1524
1518 1533
1518 1545
1518 1548
1518 1568
1518 1591
1518 1592
1518 1598
1518 1608
1518 1623
1518 1661
1518 1674
1518 1679
1518 1687
1518 1690
1518 1692
1518 1693
1518 1703
1518 1708
1518 1710
1518 1726
1518 1735
1518 1766
1518 1805
1518 1819
1518 1832
1518 1840
1518 1848
1518 1854
1518 1857
1518 1861
1518 1864
1518 1868
1518 1872
1518 1882
1518 1883
1518 1884
1518 1916
1518 1919
1518 1921
1518 1928
1518 1947
1518 1956
1518 1957
1518 1966
1518 1970
1518 1983
1518 1997
1518 2014
1518 2033
1518 2040
1518 2043
1518 2047
1518 2051
1518 2055
1518 2061
1518 2072
1518 2082
1518 2120
1518 2124
1518 2127
1518 2137
1518 2142
1518 2157
1518 2162
1518 2166
1518 2169
1518 2170
1518 2177
1518 2184
1518 2188
1518 2189
1518 2193
1518 2198
1518 2211
1518 2212
1518 2215
1518 2219
1519 1533
1519 1534
1519 1545
1519 1558
1519 1577
1519 1591
1519 1592
1519 1598
1519 1607
1519 1616
1519 1621
1519 1623
1519 1637
1519 1645
1519 1661
1519 1663
1519 1674
1519 1679
1519 1692
1519 1693
1519 1703
1519 1708
1519 1710
1519 1713
1519 1715
1519 1726
1519 1731
1519 1735
1519 1749
1519 1766
1519 1787
1519 1797
1519 1804
1519 1805
1519 1819
1519 1838
1519 1840
1519 1846
1519 1847
1519 1848
1519 1854
1519 1864
1519 1868
1519 1872
1519 1882
1519 1888
1519 1895
1519 1903
1519 1905
1519 1919
1519 1922
1519 1928
1519 1947
1519 1948
1519 1957
1519 1966
1519 1970
1519 1983
1519 1984
1519 2031
1519 2033
1519 2037
1519 2040
1519 2043
1519 2047
1519 2054
1519 2055
1519 2061
1519 2065
1519 2077
1519 2082
1519 2089
1519 2090
1519 2120
1519 2124
1519 2130
1519 2137
1519 2142
1519 2146
1519 2151
1519 2157
1519 2162
1519 2169
1519 2170
1519 2172
1519 2173
1519 2177
1519 2188
1519 2193
1519 2198
1519 2199
1519 2212
1519 2219
1520 1913
1520 1929
1520 2216
1521 1621
1521 1923
1521 2122
1522 1765
1522 1915
1523 1756
1523 2027
1523 2176
1524 1533
1524 1575
1524 1577
1524 1585
1524 1591
1524 1608
1524 1661
1524 1663
1524 1674
1524 1692
1524 1693
1524 1710
1524 1735
1524 1736
1524 1766
1524 1797
1524 1807
1524 1840
1524 1854
1524 1857
1524 1864
1524 1872
1524 1884
1524 1888
1524 1895
1524 1916
1524 1919
1524 1920
1524 1928
1524 1957
1524 1983
1524 2014
1524 2040
1524 2043
1524 2051
1524 2055
1524 2071
1524 2072
1524 2089
1524 2090
1524 2120
1524 2127
1524 2137
1524 2146
1524 2151
1524 2157
1524 2166
1524 2169
1524 2170
1524 2172
1524 2189
1524 2193
1524 2198
1524 2209
1524 2211
1524 2215
1525 1533
1525 1636
1525 1698
1525 1713
1525 1798
1525 1842
1525 1899
1525 1928
1525 1955
1525 2007
1525 2130
1525 2179
1526 1534
1526 1545
1526 1558
1526 1589
1526 1592
1526 1607
1526 1621
1526 1645
1526 1726
1526 1733
1526 1773
1526 1808
1526 1809
1526 1843
1526 1846
1526 1847
1526 1907
1526 1927
1526 1940
1526 1947
1526 1977
1526 1984
1526 2047
1526 2061
1526 2077
1526 2082
1526 2173
1526 2199
1526 2200
1526 2204
1527 1875
1528 2163
1529 1533
1529 1605
1529 1650
1529 1761
1529 1763
1529 1832
1529 1983
1529 2016
1529 2182
1530 2062
1531 1583
1531 1638
1531 1701
1531 1753
1531 1801
1531 1812
1531 1897
1531 1918
1531 1936
1531 1979
1531 2008
1532 1533
1532 1705
1532 1809
1532 1947
1532 2042
1532 2181
1533 1534
1533 1535
1533 1541
1533 1545
1533 1548
1533 1550
1533 1552
1533 1553
1533 1554
1533 1555
1533 1556
1533 1557
1533 1558
1533 1570
1533 1571
1533 1573
1533 1575
1533 1577
1533 1580
1533 1581
1533 1585
1533 1586
1533 1589
1533 1590
1533 1591
1533 1592
1533 1595
1533 1598
1533 1600
1533 1602
1533 1606
1533 1607
1533 1608
1533 1613
1533 1616
1533 1617
1533 1620
1533 1621
1533 1623
1533 1624
1533 1626
1533 1632
1533 1636
1533 1637
1533 1639
1533 1641
1533 1642
1533 1648
1533 1649
1533 1653
1533 1658
1533 1661
1533 1663
1533 1672
1533 1674
1533 1675
1533 1676
1533 1677
1533 1679
1533 1685
1533 1687
1533 1689
1533 1690
1533 1692
1533 1693
1533 1696
1533 1698
1533 1702
1533 1703
1533 1706
1533 1708
1533 1709
1533 1710
1533 1712
1533 1713
1533 1715
1533 1717
1533 1718
1533 1723
1533 1724
1533 1725
1533 1726
1533 1731
1533 1733
1533 1734
1533 1735
1533 1736
1533 1738
1533 1739
1533 1749
1533 1752
1533 1766
1533 1772
1533 1773
1533 1774
1533 1776
1533 1779
1533 1786
1533 1787
1533 1789
1533 1792
1533 1794
1533 1797
1533 1798
1533 1804
1533 1805
1533 1807
1533 1808
1533 1809
1533 1819
1533 1820
1533 1830
1533 1832
1533 1834
1533 1838
1533 1840
1533 1842
1533 1843
1533 1845
1533 1847
1533 1848
1533 1853
1533 1854
1533 1857
1533 1859
1533 1860
1533 1861
1533 1862
1533 1864
1533 1868
1533 1872
1533 1873
1533 1879
1533 1882
1533 1884
1533 1888
1533 1895
1533 1903
1533 1904
1533 1905
1533 1906
1533 1907
1533 1912
1533 1914
1533 1916
1533 1917
1533 1919
1533 1920
1533 1921
1533 1925
1533 1928
1533 1940
1533 1947
1533 1948
1533 1952
1533 1956
1533 1957
1533 1958
1533 1959
1533 1965
1533 1966
1533 1970
1533 1973
1533 1983
1533 1984
1533 1995
1533 1997
1533 1998
1533 2001
1533 2011
1533 2014
1533 2017
1533 2018
1533 2021
1533 2022
1533 2025
1533 2026
1533 2028
1533 2031
1533 2033
1533 2034
1533 2037
1533 2040
1533 2043
1533 2044
1533 2047
1533 2048
1533 2051
1533 2053
1533 2054
1533 2055
1533 2056
1533 2057
1533 2061
1533 2067
1533 2068
1533 2071
1533 2072
1533 2075
1533 2077
1533 2078
1533 2082
1533 2087
1533 2089
1533 2090
1533 2097
1533 2106
1533 2120
1533 2124
1533 2125
1533 2127
1533 2128
1533 2130
1533 2137
1533 2138
1533 2140
1533 2143
1533 2146
1533 2151
1533 2157
1533 2162
1533 2164
1533 2166
1533 2169
1533 2170
1533 2172
1533 2176
1533 2177
1533 2178
1533 2184
1533 2188
1533 2189
1533 2193
1533 2194
1533 2198
1533 2199
1533 2200
1533 2203
1533 2204
1533 2206
1533 2208
1533 2209
1533 2211
1533 2212
1533 2215
1533 2218
1533 2219
1533 2220
1534 1558
1534 1571
1534 1575
1534 1589
1534 1592
1534 1598
1534 1608
1534 1623
1534 1637
1534 1645
1534 1658
1534 1661
1534 1663
1534 1672
1534 1674
1534 1679
1534 1693
1534 1703
1534 1708
1534 1710
1534 1713
1534 1715
1534 1733
1534 1735
1534 1736
1534 1738
1534 1766
1534 1776
1534 1779
1534 1787
1534 1797
1534 1805
1534 1819
1534 1838
1534 1840
1534 1846
1534 1848
1534 1854
1534 1857
1534 1864
1534 1868
1534 1872
1534 1884
1534 1895
1534 1903
1534 1907
1534 1916
1534 1919
1534 1920
1534 1921
1534 1922
1534 1927
1534 1928
1534 1940
1534 1947
1534 1948
1534 1956
1534 1957
1534 1966
1534 1984
1534 1997
1534 2014
1534 2033
1534 2040
1534 2043
1534 2047
1534 2051
1534 2053
1534 2061
1534 2072
1534 2077
1534 2079
1534 2082
1534 2089
1534 2090
1534 2097
1534 2120
1534 2124
1534 2127
1534 2130
1534 2142
1534 2146
1534 2151
1534 2162
1534 2166
1534 2170
1534 2173
1534 2177
1534 2188
1534 2189
1534 2198
1534 2199
1534 2212
1534 2215
1534 2219
1535 1585
1535 1803
1535 1809
1535 1832
1535 2044
1537 2156
1537 2201
1538 1897
1538 1948
1538 2137
1539 1728
1540 1897
1540 1981
1540 2107
1540 2137
1540 2156
1540 2172
1541 1614
1541 1661
1541 1674
1541 1676
1541 1731
1541 1803
1541 1807
1541 1859
1541 1879
1541 1916
1541 1917
1541 1937
1541 1945
1541 1947
1541 1948
1541 1957
1541 2003
1541 2004
1541 2040
1541 2063
1541 2089
1541 2121
1541 2137
1541 2166
1541 2189
1541 2190
1541 2208
1542 1691
1542 1909
1542 2083
1542 2118
1542 2147
1543 1560
1543 1696
1543 1809
1543 2221
1544 1928
1544 2016
1544 2128
1544 2141
1545 1549
1545 1555
1545 1556
1545 1558
1545 1571
1545 1573
1545 1575
1545 1577
1545 1589
1545 1591
1545 1607
1545 1608
1545 1613
1545 1614
1545 1617
1545 1621
1545 1623
1545 1626
1545 1637
1545 1641
1545 1642
1545 1645
1545 1650
1545 1658
1545 1661
1545 1663
1545 1672
1545 1674
1545 1686
1545 1693
1545 1700
1545 1702
1545 1703
1545 1708
1545 1710
1545 1715
1545 1720
1545 1726
1545 1731
1545 1733
1545 1736
1545 1738
1545 1749
1545 1756
1545 1762
1545 1766
1545 1768
1545 1776
1545 1786
1545 1787
1545 1788
1545 1797
1545 1807
1545 1819
1545 1832
1545 1834
1545 1838
1545 1840
1545 1846
1545 1847
1545 1848
1545 1854
1545 1857
1545 1864
1545 1868
1545 1884
1545 1886
1545 1888
1545 1903
1545 1905
1545 1907
1545 1917
1545 1919
1545 1920
1545 1921
1545 1922
1545 1925
1545 1927
1545 1947
1545 1948
1545 1956
1545 1957
1545 1959
1545 1962
1545 1965
1545 1966
1545 1970
1545 1973
1545 1977
1545 1981
1545 1983
1545 1984
1545 1989
1545 1995
1545 2009
1545 2014
1545 2031
1545 2033
1545 2037
1545 2040
1545 2043
1545 2044
1545 2047
1545 2048
1545 2054
1545 2055
1545 2067
1545 2071
1545 2072
1545 2079
1545 2082
1545 2089
1545 2090
1545 2120
1545 2130
1545 2142
1545 2146
1545 2157
1545 2162
1545 2166
1545 2170
1545 2172
1545 2173
1545 2176
1545 2177
1545 2184
1545 2188
1545 2189
1545 2193
1545 2194
1545 2198
1545 2199
1545 2200
1545 2204
1545 2211
1545 2212
1545 2215
1545 2218
1546 1669
1546 1888
1546 2210
1547 1781
1548 1575
1548 1577
1548 1592
1548 1608
1548 1616
1548 1623
1548 1674
1548 1689
1548 1693
1548 1703
1548 1708
1548 1710
1548 1735
1548 1738
1548 1749
1548 1766
1548 1779
1548 1787
1548 1805
1548 1807
1548 1819
1548 1840
1548 1848
1548 1864
1548 1868
1548 1882
1548 1884
1548 1888
1548 1919
1548 1920
1548 1921
1548 1928
1548 1948
1548 1966
1548 2014
1548 2033
1548 2037
1548 2040
1548 2043
1548 2047
1548 2051
1548 2061
1548 2082
1548 2089
1548 2090
1548 2120
1548 2127
1548 2137
1548 2142
1548 2157
1548 2166
1548 2169
1548 2170
1548 2172
1548 2177
1548 2184
1548 2211
1548 2215
1548 2218
1548 2219
1549 1632
1549 1668
1549 1735
1549 1797
1549 1953
1549 1957
1549 2053
1549 2068
1549 2089
1549 2120
1549 2169
1549 2172
1549 2209
1550 1577
1550 1884
1550 2120
1550 2125
1550 2137
1550 2208
1551 1606
1551 1674
1551 1851
1551 1863
1551 1880
1551 2005
1551 2086
1551 2093
1551 2216
1552 2019
1552 2215
1553 1832
1554 1569
1554 1596
1554 1878
1554 2080
1555 1734
1555 1832
1555 1947
1556 1570
1556 1575
1556 1652
1556 1675
1556 1738
1556 1762
1556 1803
1556 1809
1556 1832
1556 1853
1556 1862
1556 1917
1556 1976
1556 1983
1556 2026
1556 2028
1556 2031
1556 2034
1556 2061
1556 2071
1556 2137
1556 2140
1556 2142
1556 2175
1557 1726
1557 2146
1558 1571
1558 1585
1558 1589
1558 1592
1558 1607
1558 1621
1558 1637
1558 1645
1558 1658
1558 1679
1558 1713
1558 1776
1558 1808
1558 1838
1558 1846
1558 1847
1558 1862
1558 1905
1558 1907
1558 1922
1558 1927
1558 1940
1558 1947
1558 1970
1558 1977
1558 2047
1558 2077
1558 2079
1558 2082
1558 2130
1558 2137
1558 2157
1558 2173
1558 2188
1558 2198
1558 2199
1558 2211
1558 2218
1559 1563
1559 1621
1559 1677
1559 2036
1559 2060
1559 2151
1559 2168
1560 2137
1562 1660
1562 1867
1563 1644
1563 1672
1563 1677
1563 1853
1563 1904
1563 1912
1563 1958
1563 1990
1563 2060
1563 2125
1563 2151
1563 2168
1564 1582
1564 1618
1564 1629
1564 1707
1564 1712
1564 1744
1564 1839
1564 1897
1564 1961
1564 1978
1564 1992
1564 2001
1564 2011
1564 2045
1565 1608
1565 1735
1565 1809
1565 1959
1565 2037
1565 2137
1565 2217
1566 1691
1566 2216
1567 2073
1567 2116
1568 1605
1568 1761
1568 1832
1568 1970
1568 2021
1568 2104
1568 2182
1569 1585
1569 1711
1569 1944
1569 2137
1570 1636
1570 1650
1570 1652
1570 1762
1570 1917
1570 1976
1570 1990
1570 2026
1570 2031
1570 2034
1570 2175
1570 2218
1571 1607
1571 1621
1571 1637
1571 1672
1571 1713
1571 1726
1571 1733
1571 1773
1571 1776
1571 1808
1571 1809
1571 1846
1571 1927
1571 1940
1571 1947
1571 1977
1571 2047
1571 2061
1571 2079
1571 2082
1571 2130
1571 2157
1571 2173
1571 2188
1571 2199
1572 1599
1572 1671
1572 2072
1572 2086
1572 2201
1573 1668
1573 1711
1574 1626
1575 1591
1575 1592
1575 1598
1575 1608
1575 1623
1575 1674
1575 1679
1575 1689
1575 1692
1575 1703
1575 1708
1575 1710
1575 1715
1575 1731
1575 1735
1575 1738
1575 1749
1575 1766
1575 1779
1575 1787
1575 1797
1575 1805
1575 1807
1575 1819
1575 1832
1575 1840
1575 1848
1575 1854
1575 1864
1575 1884
1575 1895
1575 1903
1575 1916
1575 1919
1575 1928
1575 1932
1575 1948
1575 1957
1575 1966
1575 1983
1575 2031
1575 2033
1575 2037
1575 2040
1575 2047
1575 2051
1575 2061
1575 2071
1575 2072
1575 2082
1575 2097
1575 2120
1575 2124
1575 2137
1575 2146
1575 2151
1575 2157
1575 2162
1575 2166
1575 2169
1575 2177
1575 2188
1575 2189
1575 2198
1575 2209
1575 2211
1575 2212
1575 2218
1575 2219
1576 1849
1576 1990
1577 1585
1577 1591
1577 1598
1577 1608
1577 1616
1577 1647
1577 1674
1577 1692
1577 1693
1577 1715
1577 1731
1577 1735
1577 1736
1577 1738
1577 1779
1577 1787
1577 1804
1577 1807
1577 1819
1577 1857
1577 1868
1577 1872
1577 1878
1577 1882
1577 1884
1577 1888
1577 1895
1577 1916
1577 1919
1577 1947
1577 1948
1577 1956
1577 1957
1577 1983
1577 1997
1577 2031
1577 2043
1577 2047
1577 2071
1577 2082
1577 2090
1577 2097
1577 2120
1577 2124
1577 2130
1577 2142
1577 2146
1577 2151
1577 2157
1577 2162
1577 2166
1577 2169
1577 2170
1577 2172
1577 2184
1577 2189
1577 2198
1577 2208
1577 2211
1577 2215
1577 2218
1577 2219
1578 2137
1579 1586
1579 1605
1579 1618
1579 1639
1579 1681
1579 1763
1579 1794
1579 1829
1579 1839
1579 2020
1579 2115
1579 2152
1579 2153
1579 2182
1579 2186
1580 1640
1580 1832
1580 1834
1580 1843
1580 2035
1581 1679
1581 1726
1581 1738
1581 1970
1581 1977
1581 2043
1581 2061
1582 1630
1582 1635
1582 1647
1582 1845
1582 1874
1582 1897
1582 1916
1582 1944
1582 1978
1582 2011
1582 2124
1583 1777
1583 1801
1583 1936
1583 1979
1583 2008
1584 1619
1584 1620
1584 1672
1584 1689
1584 1756
1584 1808
1584 1809
1584 1903
1584 1990
1584 2026
1584 2045
1584 2070
1584 2092
1584 2137
1584 2203
1584 2218
1585 1592
1585 1608
1585 1612
1585 1616
1585 1623
1585 1626
1585 1657
1585 1661
1585 1674
1585 1675
1585 1677
1585 1689
1585 1692
1585 1693
1585 1696
1585 1731
1585 1733
1585 1736
1585 1738
1585 1739
1585 1749
1585 1761
1585 1766
1585 1779
1585 1787
1585 1797
1585 1803
1585 1804
1585 1805
1585 1807
1585 1808
1585 1809
1585 1819
1585 1840
1585 1853
1585 1857
1585 1868
1585 1872
1585 1873
1585 1879
1585 1882
1585 1884
1585 1895
1585 1903
1585 1904
1585 1906
1585 1916
1585 1917
1585 1919
1585 1920
1585 1921
1585 1922
1585 1928
1585 1956
1585 1957
1585 1959
1585 1966
1585 1968
1585 1983
1585 1995
1585 1997
1585 2009
1585 2017
1585 2022
1585 2033
1585 2037
1585 2040
1585 2043
1585 2044
1585 2055
1585 2061
1585 2063
1585 2067
1585 2071
1585 2072
1585 2082
1585 2097
1585 2105
1585 2120
1585 2127
1585 2130
1585 2137
1585 2140
1585 2142
1585 2146
1585 2151
1585 2157
1585 2162
1585 2166
1585 2169
1585 2170
1585 2172
1585 2184
1585 2189
1585 2193
1585 2198
1585 2200
1585 2209
1585 2211
1585 2214
1585 2215
1585 2218
1585 2219
1586 1639
1586 1763
1586 1901
1586 1988
1586 2021
1587 1631
1587 1866
1587 2094
1587 2129
1587 2139
1587 2158
1589 1592
1589 1607
1589 1637
1589 1645
1589 1672
1589 1733
1589 1773
1589 1776
1589 1787
1589 1808
1589 1832
1589 1838
1589 1846
1589 1847
1589 1905
1589 1907
1589 1922
1589 1940
1589 1970
1589 1984
1589 2047
1589 2061
1589 2079
1589 2130
1589 2137
1589 2173
1589 2188
1589 2198
1589 2204
1589 2211
1590 1947
1591 1608
1591 1623
1591 1663
1591 1674
1591 1679
1591 1689
1591 1692
1591 1703
1591 1710
1591 1715
1591 1731
1591 1736
1591 1738
1591 1766
1591 1779
1591 1804
1591 1819
1591 1832
1591 1840
1591 1848
1591 1854
1591 1857
1591 1864
1591 1868
1591 1882
1591 1884
1591 1888
1591 1895
1591 1919
1591 1920
1591 1921
1591 1928
1591 1947
1591 1956
1591 1957
1591 1966
1591 1983
1591 1997
1591 2014
1591 2031
1591 2037
1591 2043
1591 2047
1591 2051
1591 2055
1591 2061
1591 2071
1591 2072
1591 2082
1591 2089
1591 2090
1591 2120
1591 2124
1591 2127
1591 2137
1591 2142
1591 2146
1591 2151
1591 2157
1591 2162
1591 2166
1591 2169
1591 2170
1591 2172
1591 2188
1591 2189
1591 2209
1591 2211
1591 2212
1591 2215
1592 1608
1592 1621
1592 1645
1592 1658
1592 1661
1592 1663
1592 1672
1592 1674
1592 1693
1592 1726
1592 1731
1592 1733
1592 1735
1592 1736
1592 1738
1592 1749
1592 1776
1592 1787
1592 1797
1592 1804
1592 1840
1592 1847
1592 1864
1592 1872
1592 1882
1592 1888
1592 1920
1592 1922
1592 1927
1592 1928
1592 1940
1592 1947
1592 1948
1592 1956
1592 1957
1592 1970
1592 1977
1592 1983
1592 1984
1592 1997
1592 2051
1592 2061
1592 2071
1592 2072
1592 2090
1592 2097
1592 2120
1592 2127
1592 2130
1592 2137
1592 2142
1592 2146
1592 2151
1592 2157
1592 2169
1592 2170
1592 2173
1592 2193
1592 2198
1592 2204
1592 2209
1592 2211
1592 2215
1592 2218
1593 1787
1593 1832
1593 1947
1593 2188
1593 2208
1594 1775
1595 1674
1595 1675
1595 1679
1595 1787
1595 1797
1595 1937
1595 1947
1595 2004
1595 2020
1595 2044
1595 2055
1595 2120
1595 2136
1595 2137
1595 2140
1595 2188
1595 2189
1595 2208
1596 1888
1596 1986
1596 2094
1596 2109
1596 2112
1597 1691
1597 2216
1598 1616
1598 1661
1598 1674
1598 1692
1598 1703
1598 1731
1598 1735
1598 1738
1598 1749
1598 1766
1598 1787
1598 1804
1598 1807
1598 1840
1598 1854
1598 1868
1598 1872
1598 1882
1598 1884
1598 1888
1598 1903
1598 1916
1598 1919
1598 1920
1598 1928
1598 1948
1598 1957
1598 1975
1598 1983
1598 1997
1598 2014
1598 2040
1598 2043
1598 2051
1598 2055
1598 2061
1598 2071
1598 2089
1598 2090
1598 2127
1598 2137
1598 2151
1598 2157
1598 2166
1598 2169
1598 2170
1598 2172
1598 2188
1598 2189
1598 2193
1598 2198
1598 2211
1598 2215
1598 2218
1599 1888
1599 1928
1600 1734
1600 1809
1600 1903
1600 2061
1600 2140
1601 1705
1601 2124
1602 1761
1602 1839
1604 1862
1605 1639
1605 2016
1605 2021
1605 2182
1606 1932
1607 1621
1607 1645
1607 1713
1607 1726
1607 1776
1607 1787
1607 1847
1607 1905
1607 1907
1607 1922
1607 1927
1607 1940
1607 1965
1607 1970
1607 1977
1607 1984
1607 2047
1607 2061
1607 2077
1607 2082
1607 2137
1607 2173
1607 2198
1607 2199
1607 2204
1607 2211
1607 2218
1608 1621
1608 1625
1608 1639
1608 1661
1608 1673
1608 1674
1608 1687
1608 1690
1608 1701
1608 1710
1608 1731
1608 1735
1608 1736
1608 1738
1608 1747
1608 1749
1608 1766
1608 1787
1608 1804
1608 1807
1608 1818
1608 1819
1608 1840
1608 1848
1608 1854
1608 1864
1608 1872
1608 1884
1608 1888
1608 1895
1608 1903
1608 1916
1608 1917
1608 1919
1608 1921
1608 1928
1608 1947
1608 1948
1608 1956
1608 1957
1608 1983
1608 1997
1608 2040
1608 2043
1608 2051
1608 2061
1608 2089
1608 2090
1608 2097
1608 2120
1608 2127
1608 2136
1608 2137
1608 2146
1608 2157
1608 2162
1608 2166
1608 2170
1608 2172
1608 2178
1608 2184
1608 2188
1608 2193
1608 2209
1608 2214
1608 2215
1609 2040
1609 2089
1610 2201
1611 1674
1612 1672
1612 2137
1612 2188
1612 2211
1613 1756
1613 1832
1613 1843
1613 2027
1613 2176
1614 1621
1614 1623
1614 1647
1614 1661
1614 1676
1614 1715
1614 1807
1614 1832
1614 2004
1614 2040
1614 2063
1614 2089
1614 2117
1614 2137
1614 2170
1614 2208
1615 1628
1615 1738
1615 1878
1615 1947
1615 2077
1615 2201
1616 1661
1616 1663
1616 1692
1616 1731
1616 1735
1616 1736
1616 1738
1616 1785
1616 1787
1616 1797
1616 1818
1616 1840
1616 1854
1616 1857
1616 1861
1616 1864
1616 1872
1616 1883
1616 1888
1616 1919
1616 1920
1616 1957
1616 1983
1616 2045
1616 2055
1616 2061
1616 2071
1616 2089
1616 2090
1616 2120
1616 2137
1616 2146
1616 2151
1616 2157
1616 2166
1616 2172
1616 2184
1616 2188
1616 2189
1616 2193
1616 2198
1616 2202
1616 2209
1616 2211
1616 2215
1616 2219
1617 1634
1617 1640
1617 1651
1617 1725
1617 1736
1617 1797
1617 1809
1617 1811
1617 1827
1617 1843
1617 1847
1617 1862
1617 1945
1617 1962
1617 1990
1617 2035
1617 2048
1617 2197
1618 1744
1618 1947
1618 2115
1619 1674
1619 1700
1619 1935
1619 1947
1619 1997
1619 2172
1620 1719
1620 1766
1620 1940
1620 1951
1620 2026
1620 2028
1620 2060
1620 2070
1620 2142
1620 2215
1621 1627
1621 1637
1621 1645
1621 1658
1621 1675
1621 1686
1621 1710
1621 1713
1621 1726
1621 1738
1621 1808
1621 1846
1621 1860
1621 1905
1621 1907
1621 1922
1621 1940
1621 1947
1621 1973
1621 1977
1621 1984
1621 2037
1621 2047
1621 2061
1621 2077
1621 2082
1621 2121
1621 2125
1621 2142
1621 2157
1621 2159
1621 2173
1621 2176
1621 2188
1621 2198
1621 2199
1621 2211
1621 2218
1622 1683
1622 1729
1622 1949
1622 2188
1623 1661
1623 1663
1623 1676
1623 1689
1623 1731
1623 1735
1623 1736
1623 1738
1623 1749
1623 1766
1623 1787
1623 1797
1623 1804
1623 1807
1623 1854
1623 1857
1623 1864
1623 1868
1623 1884
1623 1895
1623 1903
1623 1904
1623 1920
1623 1928
1623 1937
1623 1948
1623 1953
1623 1957
1623 1997
1623 2040
1623 2043
1623 2051
1623 2055
1623 2061
1623 2063
1623 2071
1623 2072
1623 2089
1623 2090
1623 2097
1623 2117
1623 2137
1623 2151
1623 2157
1623 2166
1623 2169
1623 2170
1623 2189
1623 2193
1623 2198
1623 2215
1623 2218
1624 1899
1624 1947
1624 2018
1624 2061
1625 1735
1625 1916
1625 2127
1625 2162
1626 1679
1626 1702
1626 1903
1626 1947
1626 1973
1626 2017
1626 2073
1626 2082
1626 2120
1626 2130
1626 2137
1626 2188
1627 1713
1627 1723
1627 1809
1627 1832
1627 1947
1627 2052
1627 2061
1628 1832
1628 1884
1628 1960
1628 1983
1628 2137
1628 2218
1629 1660
1629 1894
1629 1992
1630 1684
1630 1744
1630 1772
1630 1831
1630 1903
1630 2066
1630 2087
1630 2129
1630 2213
1631 1918
1631 2008
1632 1792
1632 1888
1632 1947
1632 1981
1632 2127
1632 2208
1633 1866
1634 1878
1634 1981
1634 2120
1634 2156
1634 2185
1634 2201
1635 1660
1635 1892
1635 1932
1635 2115
1635 2149
1635 2164
1636 1652
1636 1674
1636 1675
1636 1758
1636 1809
1636 1862
1636 1877
1636 1950
1636 1955
1636 1976
1636 2026
1636 2028
1636 2137
1636 2140
1636 2175
1636 2215
1637 1672
1637 1713
1637 1726
1637 1773
1637 1808
1637 1838
1637 1846
1637 1905
1637 1907
1637 1922
1637 1940
1637 1947
1637 1970
1637 1983
1637 1984
1637 2043
1637 2047
1637 2061
1637 2079
1637 2082
1637 2130
1637 2157
1637 2173
1637 2188
1637 2204
1639 1832
1639 1869
1639 1888
1639 1988
1640 1990
1641 1713
1641 1726
1641 1832
1641 1919
1641 1931
1641 1965
1641 1973
1641 1984
1641 2077
1641 2198
1641 2218
1642 1715
1642 1864
1642 2125
1642 2137
1642 2174
1643 1674
1643 1864
1643 1916
1643 2051
1643 2056
1643 2170
1644 1677
1644 1764
1644 1940
1645 1672
1645 1713
1645 1733
1645 1773
1645 1808
1645 1846
1645 1847
1645 1905
1645 1922
1645 1927
1645 1940
1645 1970
1645 1977
1645 1984
1645 2061
1645 2077
1645 2079
1645 2157
1645 2199
1646 1822
1647 1661
1647 1715
1647 1807
1647 1884
1647 1916
1647 1941
1647 2004
1647 2040
1647 2063
1647 2075
1647 2089
1647 2137
1647 2169
1648 1778
1649 1810
1649 1834
1650 1775
1650 1864
1650 2021
1651 2129
1651 2205
1652 1675
1652 1803
1652 1809
1652 1862
1652 1903
1652 1917
1652 1976
1652 2026
1652 2028
1652 2031
1652 2034
1652 2137
1652 2140
1652 2175
1652 2215
1653 1803
1653 2218
1654 1947
1654 2137
1655 1913
1657 2124
1657 2181
1658 1686
1658 1713
1658 1726
1658 1769
1658 1776
1658 1808
1658 1832
1658 1905
1658 1907
1658 1922
1658 1927
1658 1940
1658 1947
1658 1970
1658 1977
1658 1983
1658 2043
1658 2047
1658 2061
1658 2077
1658 2079
1658 2157
1658 2173
1658 2199
1660 1892
1660 1932
1660 2124
1661 1663
1661 1676
1661 1679
1661 1688
1661 1689
1661 1692
1661 1703
1661 1708
1661 1710
1661 1715
1661 1731
1661 1735
1661 1736
1661 1766
1661 1779
1661 1805
1661 1807
1661 1819
1661 1848
1661 1854
1661 1864
1661 1868
1661 1872
1661 1888
1661 1895
1661 1903
1661 1919
1661 1920
1661 1937
1661 1948
1661 1967
1661 1975
1661 1983
1661 2003
1661 2004
1661 2014
1661 2031
1661 2040
1661 2055
1661 2090
1661 2097
1661 2117
1661 2120
1661 2127
1661 2137
1661 2146
1661 2162
1661 2169
1661 2170
1661 2172
1661 2177
1661 2184
1661 2188
1661 2189
1661 2190
1661 2193
1661 2194
1661 2198
1661 2211
1661 2215
1661 2218
1661 2219
1662 1839
1662 2098
1663 1679
1663 1689
1663 1692
1663 1693
1663 1697
1663 1710
1663 1715
1663 1731
1663 1735
1663 1736
1663 1738
1663 1749
1663 1766
1663 1787
1663 1797
1663 1807
1663 1840
1663 1848
1663 1864
1663 1873
1663 1882
1663 1884
1663 1895
1663 1900
1663 1903
1663 1919
1663 1920
1663 1921
1663 1928
1663 1957
1663 1983
1663 1997
1663 2014
1663 2033
1663 2037
1663 2040
1663 2043
1663 2047
1663 2055
1663 2061
1663 2082
1663 2089
1663 2090
1663 2097
1663 2120
1663 2124
1663 2137
1663 2142
1663 2146
1663 2151
1663 2157
1663 2162
1663 2166
1663 2169
1663 2177
1663 2184
1663 2188
1663 2189
1663 2193
1663 2198
1663 2208
1663 2209
1663 2218
1663 2219
1665 1832
1668 1758
1668 1775
1668 1814
1668 1872
1668 1897
1668 1909
1668 1981
1668 2001
1668 2004
1668 2021
1668 2072
1668 2172
1668 2175
1668 2201
1669 2021
1669 2210
1670 1713
1671 1928
1671 2201
1672 1787
1672 1805
1672 1808
1672 1809
1672 1832
1672 1838
1672 1846
1672 1847
1672 1905
1672 1919
1672 1927
1672 1931
1672 1947
1672 1970
1672 1977
1672 1984
1672 2047
1672 2077
1672 2079
1672 2082
1672 2120
1672 2130
1672 2137
1672 2157
1672 2173
1672 2177
1672 2188
1672 2198
1672 2199
1672 2204
1672 2211
1673 1674
1673 1690
1673 1832
1673 1857
1673 1888
1673 1904
1673 2051
1673 2142
1673 2208
1674 1690
1674 1692
1674 1693
1674 1703
1674 1708
1674 1710
1674 1715
1674 1716
1674 1731
1674 1736
1674 1766
1674 1779
1674 1787
1674 1797
1674 1804
1674 1805
1674 1807
1674 1833
1674 1848
1674 1851
1674 1854
1674 1855
1674 1857
1674 1864
1674 1872
1674 1895
1674 1899
1674 1903
1674 1904
1674 1919
1674 1937
1674 1941
1674 1948
1674 1950
1674 1956
1674 1966
1674 1983
1674 1990
1674 2014
1674 2026
1674 2033
1674 2034
1674 2037
1674 2043
1674 2047
1674 2053
1674 2055
1674 2061
1674 2071
1674 2072
1674 2082
1674 2089
1674 2097
1674 2120
1674 2124
1674 2127
1674 2136
1674 2146
1674 2151
1674 2157
1674 2162
1674 2169
1674 2170
1674 2172
1674 2175
1674 2184
1674 2188
1674 2189
1674 2193
1674 2198
1674 2215
1674 2218
1674 2219
1675 1713
1675 1726
1675 1734
1675 1758
1675 1762
1675 1809
1675 1832
1675 1862
1675 1947
1675 1958
1675 1976
1675 2026
1675 2034
1675 2077
1675 2140
1675 2150
1675 2157
1675 2175
1675 2208
1675 2218
1676 1731
1676 1735
1676 1807
1676 1937
1676 1948
1676 2004
1676 2040
1676 2117
1676 2120
1676 2137
1676 2170
1677 1868
1677 1914
1677 1928
1677 2045
1677 2060
1677 2103
1677 2151
1677 2168
1677 2199
1677 2203
1678 1729
1678 1949
1678 2207
1679 1689
1679 1692
1679 1710
1679 1713
1679 1725
1679 1726
1679 1731
1679 1735
1679 1736
1679 1738
1679 1749
1679 1766
1679 1787
1679 1797
1679 1807
1679 1832
1679 1840
1679 1855
1679 1864
1679 1868
1679 1872
1679 1882
1679 1884
1679 1888
1679 1916
1679 1919
1679 1920
1679 1931
1679 1947
1679 1948
1679 1956
1679 1957
1679 1983
1679 1990
1679 1997
1679 2026
1679 2040
1679 2043
1679 2047
1679 2051
1679 2071
1679 2072
1679 2089
1679 2120
1679 2124
1679 2125
1679 2132
1679 2137
1679 2142
1679 2146
1679 2151
1679 2157
1679 2169
1679 2184
1679 2188
1679 2189
1679 2193
1679 2208
1679 2211
1679 2218
1680 1845
1680 2216
1681 1712
1681 1897
1681 1918
1681 2046
1681 2115
1681 2154
1681 2179
1682 1822
1682 2119
1683 1812
1683 1858
1683 1949
1683 2039
1683 2062
1683 2093
1683 2207
1684 1933
1684 1961
1684 2164
1685 1876
1685 1886
1685 2065
1686 1726
1686 1947
1686 1970
1686 2082
1687 1726
1687 1797
1687 1864
1687 1970
1687 2033
1687 2037
1689 1693
1689 1703
1689 1708
1689 1715
1689 1731
1689 1735
1689 1736
1689 1738
1689 1749
1689 1766
1689 1779
1689 1787
1689 1797
1689 1804
1689 1805
1689 1811
1689 1817
1689 1819
1689 1840
1689 1854
1689 1857
1689 1864
1689 1868
1689 1872
1689 1882
1689 1884
1689 1895
1689 1903
1689 1919
1689 1920
1689 1921
1689 1928
1689 1948
1689 1966
1689 1983
1689 2014
1689 2031
1689 2033
1689 2037
1689 2040
1689 2043
1689 2051
1689 2055
1689 2061
1689 2071
1689 2072
1689 2082
1689 2097
1689 2120
1689 2124
1689 2127
1689 2137
1689 2146
1689 2151
1689 2157
1689 2166
1689 2169
1689 2177
1689 2184
1689 2188
1689 2189
1689 2193
1689 2198
1689 2209
1689 2211
1689 2215
1690 1937
1690 2065
1690 2120
1690 2137
1691 1767
1691 2147
1691 2216
1692 1693
1692 1708
1692 1710
1692 1715
1692 1731
1692 1735
1692 1738
1692 1739
1692 1749
1692 1766
1692 1779
1692 1797
1692 1804
1692 1805
1692 1819
1692 1832
1692 1848
1692 1854
1692 1857
1692 1868
1692 1872
1692 1879
1692 1884
1692 1888
1692 1895
1692 1903
1692 1916
1692 1921
1692 1928
1692 1947
1692 1948
1692 1957
1692 1966
1692 1997
1692 2031
1692 2033
1692 2043
1692 2047
1692 2055
1692 2061
1692 2071
1692 2072
1692 2089
1692 2090
1692 2097
1692 2120
1692 2124
1692 2137
1692 2142
1692 2146
1692 2151
1692 2162
1692 2166
1692 2169
1692 2170
1692 2177
1692 2184
1692 2188
1692 2189
1692 2193
1692 2198
1692 2211
1692 2212
1692 2218
1692 2219
1693 1703
1693 1715
1693 1731
1693 1736
1693 1738
1693 1749
1693 1766
1693 1787
1693 1797
1693 1805
1693 1807
1693 1840
1693 1857
1693 1864
1693 1872
1693 1884
1693 1903
1693 1904
1693 1920
1693 1921
1693 1928
1693 1948
1693 1966
1693 1983
1693 2014
1693 2031
1693 2037
1693 2043
1693 2051
1693 2055
1693 2071
1693 2072
1693 2082
1693 2090
1693 2124
1693 2125
1693 2137
1693 2142
1693 2146
1693 2157
1693 2162
1693 2166
1693 2170
1693 2172
1693 2177
1693 2184
1693 2188
1693 2189
1693 2193
1693 2198
1693 2209
1693 2211
1693 2215
1693 2219
1694 1845
1694 1852
1695 1846
1696 1734
1696 1809
1696 2218
1697 1739
1697 1948
1697 2037
1697 2051
1697 2189
1698 1877
1698 1955
1698 2179
1698 2208
1699 1867
1700 1787
1700 1882
1700 1888
1700 1947
1700 2124
1700 2137
1700 2146
1702 1808
1702 1903
1702 1906
1702 2211
1703 1710
1703 1731
1703 1735
1703 1736
1703 1738
1703 1787
1703 1797
1703 1804
1703 1807
1703 1840
1703 1848
1703 1854
1703 1864
1703 1868
1703 1872
1703 1882
1703 1883
1703 1884
1703 1895
1703 1897
1703 1903
1703 1919
1703 1920
1703 1928
1703 1947
1703 1948
1703 1956
1703 1957
1703 1983
1703 1997
1703 2040
1703 2043
1703 2055
1703 2071
1703 2072
1703 2090
1703 2097
1703 2120
1703 2127
1703 2137
1703 2142
1703 2157
1703 2166
1703 2170
1703 2172
1703 2184
1703 2188
1703 2198
1703 2209
1703 2211
1703 2215
1703 2219
1704 1706
1704 1853
1704 1868
1704 1916
1704 1947
1704 2056
1704 2065
1704 2080
1704 2086
1704 2089
1704 2120
1704 2156
1704 2192
1704 2218
1705 2095
1706 1853
1706 1916
1706 1928
1706 1981
1706 1983
1706 2006
1706 2077
1706 2080
1706 2089
1706 2120
1706 2127
1706 2137
1706 2156
1706 2194
1706 2201
1706 2209
1707 1897
1708 1710
1708 1731
1708 1735
1708 1736
1708 1738
1708 1749
1708 1766
1708 1787
1708 1797
1708 1804
1708 1807
1708 1854
1708 1857
1708 1864
1708 1882
1708 1884
1708 1895
1708 1903
1708 1919
1708 1920
1708 1928
1708 1948
1708 1957
1708 2014
1708 2037
1708 2040
1708 2051
1708 2061
1708 2071
1708 2089
1708 2090
1708 2097
1708 2120
1708 2125
1708 2127
1708 2142
1708 2146
1708 2151
1708 2157
1708 2166
1708 2169
1708 2170
1708 2188
1708 2193
1708 2198
1708 2209
1708 2211
1708 2215
1709 1734
1709 1809
1709 1965
1709 1973
1709 2034
1710 1715
1710 1731
1710 1735
1710 1738
1710 1766
1710 1787
1710 1797
1710 1804
1710 1807
1710 1819
1710 1840
1710 1864
1710 1868
1710 1872
1710 1882
1710 1884
1710 1888
1710 1916
1710 1919
1710 1920
1710 1921
1710 1928
1710 1948
1710 1956
1710 1957
1710 1966
1710 1983
1710 2033
1710 2037
1710 2040
1710 2043
1710 2047
1710 2051
1710 2061
1710 2071
1710 2072
1710 2082
1710 2089
1710 2090
1710 2097
1710 2120
1710 2125
1710 2127
1710 2137
1710 2142
1710 2146
1710 2151
1710 2157
1710 2162
1710 2166
1710 2169
1710 2170
1710 2184
1710 2188
1710 2209
1710 2211
1710 2215
1711 1735
1711 1744
1711 1892
1711 1933
1711 1938
1711 1983
1711 2066
1711 2130
1711 2137
1712 1839
1712 1897
1712 1992
1713 1725
1713 1726
1713 1733
1713 1758
1713 1773
1713 1809
1713 1832
1713 1838
1713 1847
1713 1854
1713 1857
1713 1903
1713 1905
1713 1907
1713 1916
1713 1922
1713 1927
1713 1940
1713 1947
1713 1983
1713 2037
1713 2061
1713 2075
1713 2079
1713 2082
1713 2089
1713 2099
1713 2130
1713 2143
1713 2157
1713 2159
1713 2184
1713 2188
1713 2193
1713 2194
1713 2198
1713 2199
1713 2204
1713 2211
1714 2209
1715 1731
1715 1749
1715 1787
1715 1797
1715 1804
1715 1807
1715 1832
1715 1840
1715 1854
1715 1864
1715 1868
1715 1872
1715 1882
1715 1895
1715 1903
1715 1919
1715 1920
1715 1928
1715 1937
1715 1956
1715 1983
1715 1997
1715 2003
1715 2004
1715 2014
1715 2043
1715 2051
1715 2055
1715 2061
1715 2063
1715 2071
1715 2082
1715 2089
1715 2090
1715 2097
1715 2120
1715 2125
1715 2127
1715 2146
1715 2151
1715 2157
1715 2166
1715 2169
1715 2170
1715 2184
1715 2188
1715 2189
1715 2193
1715 2198
1715 2209
1715 2211
1715 2215
1715 2218
1716 2179
1716 2215
1717 1786
1717 1832
1717 1842
1717 1887
1717 1904
1717 1906
1717 1947
1717 1955
1717 2007
1717 2053
1717 2120
1717 2179
1718 1946
1719 1721
1719 1972
1719 2107
1720 2071
1720 2137
1723 1727
1723 1756
1723 1767
1723 1832
1723 1960
1723 1965
1723 2137
1724 1809
1725 1792
1725 1884
1725 1904
1725 1917
1725 1973
1725 1990
1725 2061
1725 2077
1725 2121
1725 2127
1725 2137
1725 2208
1726 1733
1726 1773
1726 1776
1726 1779
1726 1832
1726 1854
1726 1857
1726 1864
1726 1888
1726 1905
1726 1907
1726 1916
1726 1917
1726 1922
1726 1927
1726 1947
1726 1970
1726 1977
1726 1984
1726 2004
1726 2009
1726 2047
1726 2048
1726 2079
1726 2082
1726 2127
1726 2136
1726 2137
1726 2173
1726 2199
1726 2204
1726 2211
1727 1775
1727 1903
1728 1893
1728 2025
1729 2000
1730 1763
1731 1735
1731 1736
1731 1738
1731 1779
1731 1787
1731 1797
1731 1804
1731 1805
1731 1807
1731 1819
1731 1840
1731 1848
1731 1854
1731 1864
1731 1872
1731 1883
1731 1888
1731 1903
1731 1919
1731 1921
1731 1928
1731 1948
1731 1956
1731 1966
1731 1975
1731 1983
1731 1997
1731 2004
1731 2014
1731 2031
1731 2033
1731 2037
1731 2040
1731 2043
1731 2047
1731 2061
1731 2072
1731 2089
1731 2090
1731 2120
1731 2124
1731 2137
1731 2142
1731 2146
1731 2151
1731 2157
1731 2166
1731 2169
1731 2170
1731 2172
1731 2174
1731 2184
1731 2188
1731 2193
1731 2209
1731 2211
1731 2212
1731 2215
1731 2218
1733 1773
1733 1832
1733 1846
1733 1847
1733 1922
1733 1927
1733 1940
1733 1970
1733 1977
1733 2047
1733 2077
1733 2082
1733 2130
1733 2173
1733 2211
1734 1736
1734 1799
1734 1832
1734 1862
1734 1886
1734 1950
1734 1965
1734 1989
1734 2026
1734 2028
1734 2044
1734 2048
1734 2101
1734 2140
1734 2142
1734 2179
1734 2198
1734 2211
1734 2218
1734 2221
1735 1738
1735 1766
1735 1787
1735 1797
1735 1805
1735 1807
1735 1819
1735 1840
1735 1848
1735 1854
1735 1872
1735 1883
1735 1888
1735 1895
1735 1903
1735 1916
1735 1919
1735 1920
1735 1921
1735 1928
1735 1957
1735 1964
1735 1975
1735 1983
1735 1997
1735 2014
1735 2031
1735 2037
1735 2043
1735 2047
1735 2051
1735 2061
1735 2071
1735 2082
1735 2089
1735 2090
1735 2120
1735 2124
1735 2127
1735 2140
1735 2146
1735 2151
1735 2157
1735 2162
1735 2169
1735 2170
1735 2172
1735 2177
1735 2184
1735 2189
1735 2193
1735 2198
1735 2211
1735 2212
1735 2215
1735 2218
1735 2219
1736 1749
1736 1766
1736 1787
1736 1805
1736 1807
1736 1832
1736 1840
1736 1848
1736 1853
1736 1857
1736 1868
1736 1872
1736 1882
1736 1884
1736 1888
1736 1892
1736 1916
1736 1919
1736 1921
1736 1928
1736 1948
1736 1966
1736 1981
1736 1983
1736 2033
1736 2037
1736 2051
1736 2055
1736 2056
1736 2061
1736 2071
1736 2072
1736 2080
1736 2082
1736 2089
1736 2090
1736 2120
1736 2127
1736 2137
1736 2146
1736 2151
1736 2156
1736 2157
1736 2162
1736 2170
1736 2172
1736 2177
1736 2184
1736 2188
1736 2193
1736 2198
1736 2201
1736 2209
1736 2211
1736 2212
1736 2215
1736 2218
1736 2219
1738 1787
1738 1797
1738 1804
1738 1807
1738 1832
1738 1840
1738 1848
1738 1864
1738 1868
1738 1872
1738 1884
1738 1888
1738 1903
1738 1919
1738 1920
1738 1928
1738 1956
1738 1959
1738 1981
1738 2014
1738 2033
1738 2043
1738 2051
1738 2055
1738 2065
1738 2082
1738 2089
1738 2090
1738 2097
1738 2120
1738 2124
1738 2127
1738 2142
1738 2162
1738 2169
1738 2170
1738 2184
1738 2189
1738 2209
1738 2212
1738 2219
1739 1832
1739 2089
1739 2092
1739 2137
1740 2124
1742 1850
1742 1963
1742 2093
1742 2188
1742 2216
1743 1761
1743 2011
1743 2137
1744 1772
1744 1831
1744 2049
1744 2164
1745 1815
1747 1864
1749 1766
1749 1779
1749 1787
1749 1797
1749 1805
1749 1807
1749 1811
1749 1819
1749 1840
1749 1848
1749 1854
1749 1857
1749 1864
1749 1868
1749 1872
1749 1888
1749 1895
1749 1903
1749 1919
1749 1921
1749 1928
1749 1948
1749 1953
1749 1956
1749 1966
1749 1981
1749 1983
1749 2014
1749 2031
1749 2040
1749 2043
1749 2051
1749 2061
1749 2071
1749 2097
1749 2120
1749 2124
1749 2127
1749 2142
1749 2146
1749 2157
1749 2162
1749 2177
1749 2184
1749 2189
1749 2193
1749 2209
1749 2215
1749 2219
1750 1897
1750 2124
1751 1882
1751 2051
1751 2120
1751 2134
1751 2135
1751 2209
1752 1827
1752 2201
1753 1871
1753 1918
1753 1936
1753 2008
1753 2045
1753 2154
1754 1901
1756 1862
1756 1903
1756 1930
1756 1960
1756 2027
1756 2131
1756 2176
1756 2218
1758 1762
1758 1803
1758 1809
1758 1832
1758 1862
1758 1903
1758 1917
1758 1950
1758 1976
1758 2026
1758 2031
1758 2034
1758 2137
1758 2140
1758 2175
1759 1867
1760 1833
1761 1763
1761 1822
1761 1839
1761 1864
1761 1894
1761 1961
1761 2011
1761 2016
1761 2089
1761 2104
1761 2120
1761 2137
1761 2164
1761 2182
1761 2190
1762 1803
1762 1809
1762 1903
1762 1917
1762 1958
1762 1976
1762 2028
1762 2031
1762 2071
1762 2142
1762 2175
1762 2184
1762 2215
1763 1829
1763 2011
1763 2016
1763 2021
1763 2186
1763 2187
1764 1862
1765 2001
1765 2021
1765 2216
1766 1779
1766 1797
1766 1805
1766 1840
1766 1848
1766 1854
1766 1857
1766 1864
1766 1868
1766 1872
1766 1882
1766 1888
1766 1916
1766 1919
1766 1920
1766 1928
1766 1948
1766 1966
1766 1983
1766 1997
1766 2031
1766 2037
1766 2040
1766 2051
1766 2055
1766 2061
1766 2071
1766 2089
1766 2097
1766 2120
1766 2124
1766 2137
1766 2142
1766 2146
1766 2151
1766 2166
1766 2169
1766 2172
1766 2177
1766 2184
1766 2188
1766 2193
1766 2198
1766 2209
1766 2211
1767 1821
1767 1872
1767 1897
1767 1996
1767 2021
1768 1818
1768 1905
1768 2137
1768 2178
1769 1947
1769 2201
1770 2084
1770 2145
1771 1908
1772 1871
1772 1961
1772 2094
1773 1776
1773 1832
1773 1846
1773 1904
1773 1905
1773 1922
1773 1927
1773 1940
1773 1947
1773 1977
1773 1984
1773 2077
1773 2079
1773 2082
1773 2130
1773 2157
1773 2173
1773 2188
1773 2199
1773 2211
1774 1827
1774 1853
1774 1928
1775 1819
1775 1821
1775 1833
1775 1909
1775 2019
1775 2137
1775 2179
1776 1787
1776 1808
1776 1832
1776 1838
1776 1847
1776 1900
1776 1905
1776 1907
1776 1922
1776 1927
1776 1977
1776 1984
1776 2061
1776 2077
1776 2079
1776 2130
1776 2173
1776 2188
1776 2204
1776 2211
1777 1897
1777 2145
1779 1787
1779 1797
1779 1807
1779 1832
1779 1840
1779 1854
1779 1857
1779 1864
1779 1868
1779 1872
1779 1884
1779 1888
1779 1895
1779 1903
1779 1904
1779 1905
1779 1919
1779 1928
1779 1947
1779 1948
1779 1956
1779 1983
1779 1995
1779 1997
1779 2014
1779 2051
1779 2061
1779 2072
1779 2089
1779 2097
1779 2120
1779 2137
1779 2146
1779 2169
1779 2170
1779 2184
1779 2188
1779 2193
1779 2198
1779 2209
1779 2215
1779 2218
1780 1954
1781 2045
1782 2207
1783 1998
1784 1957
1785 2037
1785 2058
1785 2089
1785 2101
1785 2172
1786 1865
1786 1955
1786 2179
1787 1797
1787 1804
1787 1805
1787 1808
1787 1809
1787 1840
1787 1848
1787 1857
1787 1864
1787 1868
1787 1872
1787 1882
1787 1888
1787 1916
1787 1919
1787 1920
1787 1921
1787 1928
1787 1947
1787 1956
1787 1966
1787 2031
1787 2033
1787 2040
1787 2043
1787 2055
1787 2071
1787 2089
1787 2090
1787 2097
1787 2137
1787 2146
1787 2151
1787 2157
1787 2162
1787 2170
1787 2172
1787 2177
1787 2184
1787 2188
1787 2198
1787 2204
1787 2208
1787 2211
1787 2215
1787 2218
1787 2219
1788 1868
1788 1947
1788 2009
1788 2137
1792 1832
1792 1945
1792 2061
1792 2125
1792 2127
1792 2137
1792 2189
1792 2208
1794 1888
1794 1947
1795 1903
1795 1947
1796 1809
1796 1843
1796 1930
1797 1804
1797 1805
1797 1819
1797 1826
1797 1840
1797 1848
1797 1855
1797 1864
1797 1868
1797 1872
1797 1882
1797 1884
1797 1888
1797 1895
1797 1903
1797 1916
1797 1919
1797 1920
1797 1921
1797 1947
1797 1948
1797 1956
1797 1957
1797 1966
1797 1983
1797 2004
1797 2014
1797 2015
1797 2031
1797 2033
1797 2037
1797 2040
1797 2043
1797 2051
1797 2055
1797 2061
1797 2071
1797 2082
1797 2090
1797 2097
1797 2120
1797 2124
1797 2127
1797 2142
1797 2146
1797 2162
1797 2169
1797 2170
1797 2172
1797 2184
1797 2188
1797 2198
1797 2209
1797 2212
1797 2218
1797 2219
1798 1955
1799 1809
1799 1931
1799 1984
1801 1812
1801 1871
1801 1891
1801 1936
1801 1979
1801 2050
1803 1809
1803 1830
1803 1862
1803 1917
1803 1950
1803 2022
1803 2044
1803 2175
1804 1805
1804 1832
1804 1840
1804 1857
1804 1864
1804 1872
1804 1878
1804 1882
1804 1884
1804 1892
1804 1903
1804 1921
1804 1928
1804 1947
1804 1948
1804 1956
1804 1957
1804 1966
1804 1977
1804 1983
1804 1997
1804 2014
1804 2031
1804 2033
1804 2040
1804 2047
1804 2051
1804 2071
1804 2082
1804 2090
1804 2097
1804 2124
1804 2137
1804 2142
1804 2146
1804 2149
1804 2151
1804 2157
1804 2162
1804 2169
1804 2177
1804 2184
1804 2189
1804 2193
1804 2198
1804 2211
1804 2212
1804 2215
1804 2218
1804 2219
1805 1840
1805 1854
1805 1857
1805 1864
1805 1868
1805 1872
1805 1882
1805 1884
1805 1888
1805 1903
1805 1919
1805 1920
1805 1928
1805 1948
1805 1956
1805 1983
1805 1997
1805 2040
1805 2043
1805 2072
1805 2097
1805 2137
1805 2142
1805 2157
1805 2169
1805 2170
1805 2172
1805 2184
1805 2193
1805 2198
1805 2218
1806 1862
1806 1909
1806 2013
1807 1819
1807 1840
1807 1848
1807 1857
1807 1882
1807 1888
1807 1895
1807 1903
1807 1916
1807 1919
1807 1921
1807 1928
1807 1937
1807 1948
1807 1956
1807 1957
1807 1966
1807 1983
1807 1997
1807 2003
1807 2014
1807 2033
1807 2040
1807 2043
1807 2047
1807 2051
1807 2055
1807 2063
1807 2072
1807 2089
1807 2090
1807 2097
1807 2120
1807 2124
1807 2142
1807 2162
1807 2166
1807 2170
1807 2172
1807 2177
1807 2184
1807 2188
1807 2189
1807 2193
1807 2198
1807 2208
1807 2209
1807 2211
1807 2212
1807 2215
1807 2218
1808 1809
1808 1832
1808 1838
1808 1847
1808 1906
1808 1922
1808 1927
1808 1940
1808 1947
1808 1965
1808 1970
1808 1977
1808 1984
1808 2017
1808 2047
1808 2061
1808 2077
1808 2130
1808 2140
1808 2157
1808 2173
1808 2188
1808 2199
1808 2204
1808 2211
1809 1814
1809 1819
1809 1830
1809 1832
1809 1862
1809 1886
1809 1895
1809 1903
1809 1905
1809 1917
1809 1922
1809 1931
1809 1940
1809 1947
1809 1950
1809 1952
1809 1959
1809 1970
1809 1973
1809 1976
1809 1984
1809 2022
1809 2026
1809 2034
1809 2048
1809 2061
1809 2069
1809 2079
1809 2130
1809 2140
1809 2174
1809 2175
1809 2177
1809 2199
1809 2204
1809 2221
1811 1840
1812 1871
1812 1891
1812 1918
1812 1936
1812 2008
1812 2154
1812 2155
1813 1814
1814 1884
1814 1931
1814 1972
1814 2021
1814 2058
1814 2071
1814 2076
1814 2127
1814 2196
1816 2024
1816 2163
1817 2137
1818 1864
1818 1900
1818 1903
1818 2082
1818 2146
1818 2178
1819 1840
1819 1857
1819 1864
1819 1868
1819 1888
1819 1916
1819 1920
1819 1928
1819 1948
1819 1956
1819 1957
1819 1983
1819 1997
1819 2014
1819 2043
1819 2055
1819 2061
1819 2071
1819 2072
1819 2089
1819 2090
1819 2097
1819 2120
1819 2137
1819 2142
1819 2146
1819 2151
1819 2166
1819 2169
1819 2170
1819 2184
1819 2189
1819 2198
1819 2202
1819 2209
1819 2215
1820 1851
1820 2106
1821 2063
1821 2151
1821 2202
1822 1879
1822 1894
1822 2130
1822 2209
1823 1881
1823 2024
1823 2216
1824 1839
1824 1894
1824 2094
1824 2154
1827 2195
1827 2201
1829 1869
1829 2021
1829 2186
1831 1978
1831 1992
1831 2002
1832 1840
1832 1904
1832 1905
1832 1907
1832 1916
1832 1919
1832 1925
1832 1931
1832 1947
1832 1952
1832 1959
1832 1965
1832 1968
1832 1973
1832 1974
1832 1976
1832 1984
1832 1990
1832 1998
1832 2022
1832 2025
1832 2034
1832 2043
1832 2044
1832 2047
1832 2048
1832 2052
1832 2053
1832 2054
1832 2057
1832 2077
1832 2079
1832 2082
1832 2089
1832 2092
1832 2097
1832 2099
1832 2120
1832 2121
1832 2125
1832 2130
1832 2140
1832 2142
1832 2159
1832 2169
1832 2189
1832 2204
1832 2208
1832 2211
1832 2218
1833 1904
1833 1941
1833 2110
1833 2123
1833 2179
1834 1965
1834 2200
1835 2021
1837 2013
1837 2183
1838 1847
1838 1907
1838 1922
1838 1927
1838 1940
1838 1947
1838 1970
1838 1977
1838 1984
1838 2047
1838 2061
1838 2077
1838 2079
1838 2082
1838 2130
1838 2173
1838 2188
1839 1845
1839 1869
1839 1885
1839 1894
1839 1897
1839 1938
1839 1947
1839 1978
1839 1988
1839 2011
1839 2129
1839 2138
1839 2153
1839 2186
1840 1848
1840 1853
1840 1854
1840 1857
1840 1868
1840 1882
1840 1888
1840 1895
1840 1903
1840 1904
1840 1920
1840 1921
1840 1948
1840 1957
1840 1983
1840 1997
1840 2031
1840 2033
1840 2037
1840 2040
1840 2047
1840 2051
1840 2061
1840 2068
1840 2071
1840 2082
1840 2089
1840 2097
1840 2120
1840 2124
1840 2127
1840 2142
1840 2146
1840 2157
1840 2166
1840 2169
1840 2177
1840 2188
1840 2189
1840 2193
1840 2198
1840 2211
1840 2218
1840 2219
1841 1938
1842 1865
1842 2007
1842 2179
1843 1868
1843 1928
1843 1935
1843 1962
1843 2059
1843 2131
1843 2137
1844 1888
1845 1897
1845 1992
1845 2011
1846 1847
1846 1905
1846 1907
1846 1922
1846 1927
1846 1970
1846 1977
1846 2047
1846 2055
1846 2061
1846 2077
1846 2079
1846 2082
1846 2157
1846 2173
1846 2199
1847 1905
1847 1927
1847 1940
1847 1947
1847 1970
1847 1984
1847 2043
1847 2061
1847 2077
1847 2082
1847 2137
1847 2173
1847 2199
1847 2204
1848 1857
1848 1864
1848 1868
1848 1872
1848 1882
1848 1883
1848 1884
1848 1888
1848 1895
1848 1903
1848 1916
1848 1919
1848 1920
1848 1928
1848 1948
1848 1956
1848 1957
1848 1983
1848 1997
1848 2040
1848 2043
1848 2051
1848 2055
1848 2061
1848 2090
1848 2097
1848 2120
1848 2137
1848 2142
1848 2146
1848 2166
1848 2169
1848 2170
1848 2172
1848 2177
1848 2184
1848 2188
1848 2189
1848 2193
1848 2198
1848 2211
1848 2215
1848 2219
1850 2107
1850 2188
1851 1897
1851 2021
1851 2053
1851 2179
1853 1868
1853 1928
1853 1981
1853 1983
1853 2056
1853 2065
1853 2080
1853 2089
1853 2120
1853 2156
1853 2188
1853 2194
1853 2201
1854 1868
1854 1882
1854 1884
1854 1895
1854 1903
1854 1916
1854 1919
1854 1921
1854 1928
1854 1947
1854 1948
1854 1956
1854 1957
1854 1966
1854 1997
1854 2037
1854 2040
1854 2043
1854 2047
1854 2071
1854 2072
1854 2089
1854 2090
1854 2097
1854 2124
1854 2127
1854 2142
1854 2157
1854 2162
1854 2166
1854 2169
1854 2170
1854 2172
1854 2177
1854 2184
1854 2188
1854 2189
1854 2193
1854 2198
1854 2209
1854 2211
1854 2212
1854 2218
1854 2219
1855 2137
1857 1864
1857 1868
1857 1872
1857 1883
1857 1884
1857 1888
1857 1895
1857 1903
1857 1904
1857 1921
1857 1928
1857 1947
1857 1948
1857 1956
1857 1957
1857 1983
1857 1989
1857 1997
1857 2014
1857 2031
1857 2037
1857 2040
1857 2051
1857 2055
1857 2061
1857 2067
1857 2071
1857 2072
1857 2082
1857 2089
1857 2090
1857 2097
1857 2117
1857 2125
1857 2127
1857 2137
1857 2142
1857 2146
1857 2151
1857 2170
1857 2172
1857 2177
1857 2184
1857 2193
1857 2198
1857 2211
1857 2212
1857 2215
1858 2089
1858 2120
1859 1931
1859 2044
1859 2140
1859 2208
1860 1947
1861 1864
1861 1883
1861 1916
1861 2166
1861 2170
1862 1906
1862 1947
1862 1976
1862 2028
1862 2054
1862 2069
1862 2086
1862 2137
1862 2140
1862 2142
1862 2143
1862 2209
1864 1868
1864 1872
1864 1882
1864 1884
1864 1897
1864 1903
1864 1916
1864 1919
1864 1928
1864 1931
1864 1941
1864 1944
1864 1947
1864 1957
1864 1970
1864 1975
1864 1983
1864 1997
1864 2002
1864 2031
1864 2033
1864 2040
1864 2043
1864 2051
1864 2071
1864 2072
1864 2089
1864 2097
1864 2105
1864 2120
1864 2124
1864 2127
1864 2142
1864 2146
1864 2149
1864 2151
1864 2157
1864 2162
1864 2166
1864 2169
1864 2172
1864 2174
1864 2177
1864 2189
1864 2198
1864 2212
1864 2214
1864 2218
1864 2219
1865 1955
1865 2000
1865 2007
1865 2013
1865 2102
1865 2126
1866 2129
1867 2023
1867 2107
1868 1872
1868 1882
1868 1884
1868 1888
1868 1916
1868 1919
1868 1928
1868 1947
1868 1948
1868 1956
1868 1957
1868 1966
1868 1983
1868 1997
1868 2014
1868 2033
1868 2040
1868 2043
1868 2051
1868 2055
1868 2056
1868 2061
1868 2065
1868 2071
1868 2072
1868 2080
1868 2082
1868 2089
1868 2090
1868 2124
1868 2127
1868 2137
1868 2142
1868 2146
1868 2151
1868 2162
1868 2166
1868 2169
1868 2170
1868 2177
1868 2188
1868 2193
1868 2198
1868 2201
1868 2212
1868 2215
1868 2218
1868 2219
1869 1988
1869 2142
1869 2186
1870 1987
1871 1891
1871 1936
1871 1979
1871 2008
1871 2154
1872 1888
1872 1895
1872 1916
1872 1920
1872 1928
1872 1948
1872 1956
1872 1957
1872 1966
1872 1983
1872 1996
1872 1997
1872 2014
1872 2033
1872 2037
1872 2040
1872 2047
1872 2055
1872 2071
1872 2082
1872 2089
1872 2090
1872 2097
1872 2120
1872 2124
1872 2137
1872 2142
1872 2157
1872 2162
1872 2166
1872 2169
1872 2170
1872 2172
1872 2177
1872 2184
1872 2188
1872 2193
1872 2198
1872 2211
1872 2215
1873 1888
1873 1947
1873 1983
1874 1932
1875 1996
1875 2021
1876 2188
1877 1955
1877 2055
1878 1884
1878 2051
1878 2080
1878 2125
1878 2137
1878 2201
1879 1917
1879 2146
1880 2093
1881 2128
1881 2216
1882 1888
1882 1916
1882 1920
1882 1921
1882 1928
1882 1956
1882 1957
1882 1966
1882 2014
1882 2017
1882 2031
1882 2033
1882 2037
1882 2040
1882 2047
1882 2055
1882 2061
1882 2082
1882 2089
1882 2097
1882 2124
1882 2127
1882 2137
1882 2142
1882 2170
1882 2177
1882 2184
1882 2188
1882 2189
1882 2193
1882 2198
1882 2209
1882 2212
1882 2215
1883 1975
1883 2043
1883 2089
1883 2120
1883 2166
1883 2170
1883 2219
1884 1888
1884 1895
1884 1916
1884 1919
1884 1921
1884 1928
1884 1947
1884 1966
1884 1983
1884 2014
1884 2031
1884 2033
1884 2037
1884 2040
1884 2043
1884 2047
1884 2051
1884 2055
1884 2065
1884 2071
1884 2072
1884 2082
1884 2090
1884 2120
1884 2127
1884 2137
1884 2142
1884 2146
1884 2157
1884 2169
1884 2170
1884 2172
1884 2177
1884 2184
1884 2193
1884 2211
1884 2212
1884 2218
1884 2219
1885 1897
1886 1990
1886 2065
1886 2179
1887 1899
1887 2102
1887 2105
1887 2183
1888 1895
1888 1903
1888 1916
1888 1920
1888 1925
1888 1966
1888 1967
1888 2014
1888 2020
1888 2031
1888 2033
1888 2037
1888 2051
1888 2072
1888 2082
1888 2089
1888 2090
1888 2120
1888 2124
1888 2127
1888 2142
1888 2146
1888 2151
1888 2157
1888 2162
1888 2170
1888 2172
1888 2177
1888 2184
1888 2188
1888 2189
1888 2193
1888 2198
1888 2208
1888 2209
1888 2210
1888 2211
1888 2212
1888 2218
1888 2219
1889 2133
1890 2024
1891 1936
1891 1943
1891 1954
1891 1979
1891 2008
1892 1897
1892 1932
1892 1938
1892 2115
1892 2164
1893 2025
1894 2164
1895 1903
1895 1907
1895 1916
1895 1919
1895 1920
1895 1921
1895 1948
1895 1956
1895 1966
1895 1968
1895 1983
1895 1997
1895 2014
1895 2031
1895 2033
1895 2040
1895 2043
1895 2047
1895 2061
1895 2071
1895 2072
1895 2082
1895 2089
1895 2097
1895 2120
1895 2124
1895 2127
1895 2137
1895 2162
1895 2166
1895 2169
1895 2172
1895 2177
1895 2184
1895 2188
1895 2189
1895 2193
1895 2209
1895 2211
1895 2212
1895 2215
1895 2218
1897 1916
1897 1918
1897 1933
1897 1938
1897 1941
1897 1978
1897 1979
1897 1981
1897 1992
1897 1996
1897 2001
1897 2011
1897 2021
1897 2023
1897 2040
1897 2045
1897 2051
1897 2094
1897 2124
1897 2164
1897 2209
1897 2213
1898 1978
1899 1941
1899 2000
1899 2123
1900 2089
1900 2137
1900 2188
1900 2217
1901 2153
1902 1947
1902 1983
1902 2061
1902 2127
1903 1916
1903 1919
1903 1920
1903 1921
1903 1925
1903 1928
1903 1931
1903 1947
1903 1948
1903 1950
1903 1956
1903 1966
1903 1976
1903 1983
1903 1997
1903 2014
1903 2017
1903 2031
1903 2033
1903 2034
1903 2037
1903 2040
1903 2043
1903 2055
1903 2061
1903 2089
1903 2090
1903 2096
1903 2097
1903 2120
1903 2124
1903 2127
1903 2137
1903 2142
1903 2166
1903 2168
1903 2169
1903 2172
1903 2175
1903 2177
1903 2188
1903 2193
1903 2208
1903 2209
1903 2211
1903 2212
1903 2215
1903 2218
1903 2219
1904 1925
1904 1947
1904 1990
1904 2031
1904 2071
1904 2089
1904 2189
1904 2208
1904 2215
1905 1907
1905 1922
1905 1927
1905 1947
1905 1977
1905 2043
1905 2047
1905 2061
1905 2077
1905 2157
1905 2188
1905 2199
1905 2204
1905 2211
1905 2218
1906 1947
1907 1922
1907 1927
1907 1947
1907 1970
1907 1977
1907 1984
1907 2047
1907 2061
1907 2079
1907 2082
1907 2130
1907 2173
1907 2199
1909 1916
1909 1990
1909 2004
1909 2089
1909 2097
1909 2120
1909 2179
1910 1963
1911 2151
1913 2104
1915 2050
1916 1919
1916 1920
1916 1921
1916 1925
1916 1928
1916 1937
1916 1947
1916 1948
1916 1956
1916 1957
1916 1966
1916 1983
1916 1997
1916 2001
1916 2003
1916 2031
1916 2033
1916 2040
1916 2043
1916 2047
1916 2051
1916 2054
1916 2055
1916 2056
1916 2061
1916 2063
1916 2071
1916 2072
1916 2075
1916 2080
1916 2082
1916 2097
1916 2117
1916 2124
1916 2137
1916 2142
1916 2151
1916 2156
1916 2157
1916 2162
1916 2164
1916 2166
1916 2172
1916 2177
1916 2188
1916 2189
1916 2193
1916 2198
1916 2204
1916 2211
1916 2212
1916 2215
1917 1921
1917 1947
1917 1983
1917 2026
1917 2028
1917 2031
1917 2034
1917 2048
1917 2071
1917 2137
1917 2142
1917 2157
1917 2175
1917 2211
1917 2215
1918 1936
1918 2094
1918 2154
1919 1920
1919 1928
1919 1956
1919 1957
1919 1973
1919 1983
1919 1997
1919 2031
1919 2037
1919 2047
1919 2051
1919 2061
1919 2072
1919 2090
1919 2120
1919 2124
1919 2127
1919 2130
1919 2142
1919 2151
1919 2157
1919 2162
1919 2172
1919 2177
1919 2184
1919 2188
1919 2189
1919 2193
1919 2198
1919 2211
1919 2212
1919 2215
1919 2218
1919 2219
1919 2220
1920 1921
1920 1928
1920 1947
1920 1956
1920 1957
1920 1966
1920 1983
1920 1997
1920 2033
1920 2037
1920 2040
1920 2043
1920 2047
1920 2051
1920 2055
1920 2061
1920 2071
1920 2072
1920 2082
1920 2090
1920 2097
1920 2120
1920 2127
1920 2137
1920 2142
1920 2146
1920 2149
1920 2151
1920 2157
1920 2169
1920 2170
1920 2172
1920 2177
1920 2188
1920 2209
1920 2211
1920 2212
1920 2218
1920 2219
1921 1947
1921 1948
1921 1956
1921 1957
1921 1983
1921 1997
1921 2014
1921 2040
1921 2051
1921 2055
1921 2069
1921 2071
1921 2072
1921 2089
1921 2097
1921 2120
1921 2142
1921 2146
1921 2151
1921 2157
1921 2166
1921 2169
1921 2170
1921 2172
1921 2184
1921 2188
1921 2193
1921 2198
1921 2209
1921 2215
1922 1940
1922 1970
1922 1977
1922 1984
1922 2077
1922 2079
1922 2082
1922 2157
1922 2173
1922 2204
1923 1984
1924 2164
1924 2209
1925 2071
1925 2130
1925 2137
1925 2211
1927 1940
1927 1947
1927 1977
1927 1984
1927 2047
1927 2061
1927 2077
1927 2079
1927 2082
1927 2130
1927 2157
1927 2173
1927 2199
1928 1948
1928 1957
1928 1958
1928 1962
1928 1966
1928 1981
1928 1983
1928 1997
1928 2031
1928 2033
1928 2037
1928 2040
1928 2043
1928 2051
1928 2055
1928 2056
1928 2061
1928 2065
1928 2071
1928 2072
1928 2090
1928 2120
1928 2121
1928 2124
1928 2127
1928 2146
1928 2151
1928 2162
1928 2166
1928 2170
1928 2172
1928 2184
1928 2188
1928 2189
1928 2193
1928 2198
1928 2201
1928 2209
1928 2211
1928 2212
1928 2218
1930 2131
1931 2051
1931 2072
1931 2092
1931 2177
1932 2115
1932 2149
1932 2198
1932 2211
1933 2164
1936 1979
1936 2008
1936 2094
1937 2003
1937 2004
1937 2063
1937 2089
1937 2117
1937 2136
1937 2208
1938 2041
1938 2049
1938 2115
1940 1970
1940 2044
1940 2047
1940 2061
1940 2077
1940 2079
1940 2092
1940 2157
1940 2173
1940 2197
1940 2199
1940 2208
1941 1978
1941 2040
1941 2124
1943 1979
1945 2208
1946 2021
1947 1966
1947 1970
1947 1977
1947 1981
1947 1984
1947 1990
1947 2004
1947 2017
1947 2027
1947 2037
1947 2044
1947 2045
1947 2047
1947 2052
1947 2053
1947 2055
1947 2060
1947 2061
1947 2065
1947 2067
1947 2071
1947 2075
1947 2082
1947 2090
1947 2092
1947 2097
1947 2104
1947 2105
1947 2120
1947 2125
1947 2127
1947 2130
1947 2137
1947 2146
1947 2157
1947 2159
1947 2168
1947 2173
1947 2174
1947 2188
1947 2194
1947 2195
1947 2199
1947 2200
1947 2204
1947 2208
1947 2209
1947 2214
1947 2218
1947 2220
1948 1957
1948 1966
1948 1975
1948 1983
1948 1997
1948 2004
1948 2014
1948 2033
1948 2037
1948 2040
1948 2043
1948 2047
1948 2051
1948 2055
1948 2058
1948 2065
1948 2071
1948 2072
1948 2082
1948 2089
1948 2097
1948 2127
1948 2140
1948 2142
1948 2146
1948 2151
1948 2166
1948 2169
1948 2170
1948 2184
1948 2189
1948 2198
1948 2209
1948 2212
1948 2215
1948 2219
1950 1976
1950 2140
1950 2215
1951 2142
1953 1957
1955 2007
1955 2179
1956 1997
1956 2014
1956 2033
1956 2051
1956 2055
1956 2061
1956 2071
1956 2072
1956 2082
1956 2089
1956 2090
1956 2127
1956 2142
1956 2146
1956 2162
1956 2166
1956 2169
1956 2170
1956 2172
1956 2177
1956 2188
1956 2189
1956 2198
1956 2208
1956 2211
1956 2212
1956 2215
1956 2218
1956 2219
1957 1966
1957 1983
1957 2033
1957 2040
1957 2047
1957 2051
1957 2055
1957 2082
1957 2089
1957 2097
1957 2120
1957 2127
1957 2130
1957 2137
1957 2162
1957 2170
1957 2172
1957 2177
1957 2189
1957 2190
1957 2193
1957 2209
1957 2211
1957 2212
1957 2218
1957 2221
1958 2125
1960 1983
1960 1997
1960 2043
1960 2071
1961 2205
1962 2059
1963 2093
1963 2216
1964 2137
1965 1973
1965 1998
1965 2017
1965 2077
1965 2137
1965 2173
1965 2211
1965 2218
1965 2220
1966 1983
1966 1997
1966 2055
1966 2071
1966 2090
1966 2097
1966 2127
1966 2142
1966 2146
1966 2151
1966 2157
1966 2170
1966 2172
1966 2184
1966 2189
1966 2193
1966 2209
1966 2211
1966 2218
1967 2120
1967 2137
1968 2055
1968 2137
1968 2209
1969 2104
1970 1977
1970 1984
1970 2037
1970 2048
1970 2082
1970 2130
1970 2137
1970 2157
1970 2173
1970 2199
1970 2204
1970 2211
1972 2176
1973 2137
1973 2198
1973 2199
1973 2211
1973 2218
1974 2201
1975 2089
1975 2137
1975 2169
1975 2170
1975 2219
1976 2026
1976 2028
1976 2031
1976 2034
1976 2137
1976 2175
1976 2215
1977 1984
1977 2043
1977 2061
1977 2077
1977 2079
1977 2082
1977 2130
1977 2137
1977 2157
1978 1992
1978 1993
1978 2011
1978 2049
1978 2124
1979 2094
1980 2088
1981 1989
1981 2012
1981 2059
1981 2072
1981 2080
1981 2089
1981 2137
1981 2156
1981 2172
1981 2185
1981 2192
1982 2163
1983 1984
1983 1997
1983 2031
1983 2033
1983 2037
1983 2043
1983 2047
1983 2051
1983 2061
1983 2065
1983 2071
1983 2072
1983 2082
1983 2090
1983 2120
1983 2127
1983 2142
1983 2146
1983 2151
1983 2157
1983 2162
1983 2166
1983 2170
1983 2173
1983 2177
1983 2179
1983 2188
1983 2189
1983 2193
1983 2194
1983 2196
1983 2198
1983 2209
1983 2211
1983 2212
1983 2215
1983 2218
1983 2219
1984 2061
1984 2077
1984 2079
1984 2130
1984 2137
1984 2173
1984 2188
1984 2204
1985 2175
1986 2163
1989 2089
1989 2127
1989 2159
1989 2218
1990 2061
1990 2065
1990 2121
1990 2151
1990 2196
1990 2201
1990 2208
1991 2120
1991 2137
1994 2163
1995 2189
1995 2208
1996 2021
1997 2031
1997 2033
1997 2043
1997 2047
1997 2051
1997 2055
1997 2072
1997 2082
1997 2089
1997 2090
1997 2097
1997 2120
1997 2137
1997 2142
1997 2149
1997 2151
1997 2156
1997 2157
1997 2162
1997 2169
1997 2170
1997 2172
1997 2188
1997 2193
1997 2209
1997 2212
1997 2215
1997 2219
1998 2110
2001 2023
2001 2037
2002 2051
2002 2120
2003 2089
2003 2117
2003 2120
2003 2137
2004 2043
2004 2071
2004 2120
2004 2125
2004 2137
2004 2166
2004 2170
2004 2189
2004 2209
2006 2201
2008 2094
2008 2154
2009 2017
2009 2044
2009 2061
2009 2089
2009 2215
2011 2120
2011 2129
2012 2138
2014 2031
2014 2033
2014 2037
2014 2043
2014 2051
2014 2055
2014 2071
2014 2072
2014 2082
2014 2089
2014 2120
2014 2124
2014 2137
2014 2142
2014 2146
2014 2151
2014 2157
2014 2162
2014 2166
2014 2169
2014 2170
2014 2172
2014 2177
2014 2184
2014 2188
2014 2193
2014 2198
2014 2208
2014 2209
2014 2211
2014 2212
2014 2215
2014 2218
2014 2219
2016 2021
2016 2137
2016 2182
2018 2179
2020 2021
2020 2120
2020 2146
2020 2170
2020 2186
2020 2189
2021 2042
2021 2078
2021 2104
2021 2108
2021 2137
2021 2153
2021 2182
2021 2186
2022 2044
2022 2184
2023 2188
2024 2163
2026 2031
2026 2034
2026 2069
2026 2137
2026 2140
2026 2142
2026 2172
2026 2209
2026 2215
2027 2092
2027 2176
2028 2031
2028 2034
2030 2043
2030 2137
2031 2040
2031 2043
2031 2051
2031 2061
2031 2071
2031 2072
2031 2090
2031 2097
2031 2137
2031 2142
2031 2146
2031 2169
2031 2170
2031 2172
2031 2184
2031 2189
2031 2193
2031 2208
2031 2209
2031 2211
2031 2215
2031 2218
2033 2040
2033 2043
2033 2051
2033 2061
2033 2071
2033 2072
2033 2089
2033 2090
2033 2137
2033 2157
2033 2169
2033 2170
2033 2172
2033 2184
2033 2188
2033 2189
2033 2193
2033 2209
2033 2211
2033 2218
2034 2137
2034 2140
2034 2142
2034 2215
2037 2040
2037 2043
2037 2051
2037 2055
2037 2058
2037 2061
2037 2071
2037 2082
2037 2089
2037 2090
2037 2097
2037 2127
2037 2137
2037 2142
2037 2146
2037 2151
2037 2157
2037 2166
2037 2169
2037 2170
2037 2172
2037 2184
2037 2189
2037 2193
2037 2198
2037 2209
2037 2211
2037 2215
2037 2218
2039 2098
2040 2043
2040 2047
2040 2051
2040 2055
2040 2063
2040 2071
2040 2082
2040 2090
2040 2097
2040 2124
2040 2127
2040 2137
2040 2146
2040 2151
2040 2157
2040 2162
2040 2166
2040 2170
2040 2188
2040 2193
2040 2194
2040 2198
2040 2201
2040 2209
2040 2215
2040 2218
2041 2049
2043 2047
2043 2048
2043 2052
2043 2055
2043 2061
2043 2071
2043 2072
2043 2082
2043 2124
2043 2125
2043 2127
2043 2137
2043 2146
2043 2151
2043 2162
2043 2169
2043 2172
2043 2177
2043 2184
2043 2188
2043 2189
2043 2193
2043 2212
2043 2215
2043 2218
2043 2219
2044 2140
2044 2146
2044 2188
2044 2198
2044 2211
2045 2209
2047 2055
2047 2061
2047 2071
2047 2077
2047 2089
2047 2090
2047 2097
2047 2120
2047 2127
2047 2137
2047 2142
2047 2146
2047 2166
2047 2170
2047 2172
2047 2173
2047 2188
2047 2189
2047 2193
2047 2204
2047 2209
2047 2211
2048 2082
2048 2085
2048 2137
2048 2208
2051 2055
2051 2058
2051 2071
2051 2089
2051 2097
2051 2120
2051 2124
2051 2127
2051 2146
2051 2151
2051 2157
2051 2166
2051 2169
2051 2170
2051 2172
2051 2184
2051 2188
2051 2189
2051 2193
2051 2198
2051 2209
2051 2211
2051 2212
2051 2215
2051 2218
2051 2219
2052 2082
2052 2097
2053 2072
2053 2179
2054 2080
2054 2082
2054 2137
2054 2194
2055 2072
2055 2082
2055 2089
2055 2090
2055 2104
2055 2120
2055 2127
2055 2140
2055 2151
2055 2157
2055 2162
2055 2166
2055 2172
2055 2177
2055 2184
2055 2188
2055 2198
2055 2211
2055 2215
2055 2218
2056 2065
2056 2089
2056 2120
2056 2137
2056 2156
2056 2192
2058 2084
2058 2120
2058 2124
2058 2137
2058 2205
2058 2209
2059 2201
2061 2072
2061 2077
2061 2079
2061 2082
2061 2089
2061 2090
2061 2097
2061 2124
2061 2127
2061 2130
2061 2146
2061 2151
2061 2157
2061 2166
2061 2169
2061 2170
2061 2172
2061 2173
2061 2177
2061 2184
2061 2188
2061 2189
2061 2194
2061 2198
2061 2199
2061 2208
2061 2209
2061 2211
2061 2212
2061 2218
2063 2072
2063 2089
2063 2120
2063 2137
2063 2169
2063 2170
2065 2072
2065 2080
2065 2120
2065 2127
2065 2137
2065 2156
2065 2185
2065 2192
2065 2194
2066 2137
2067 2198
2068 2142
2068 2208
2068 2221
2069 2071
2069 2137
2069 2215
2070 2142
2071 2072
2071 2082
2071 2089
2071 2097
2071 2120
2071 2124
2071 2137
2071 2146
2071 2157
2071 2162
2071 2169
2071 2170
2071 2172
2071 2177
2071 2184
2071 2188
2071 2208
2071 2209
2071 2212
2071 2217
2072 2082
2072 2089
2072 2090
2072 2097
2072 2120
2072 2121
2072 2125
2072 2142
2072 2157
2072 2159
2072 2162
2072 2169
2072 2172
2072 2179
2072 2184
2072 2188
2072 2189
2072 2193
2072 2198
2072 2201
2072 2208
2072 2209
2072 2211
2072 2215
2072 2218
2073 2116
2075 2077
2075 2124
2075 2137
2075 2198
2075 2211
2075 2218
2077 2079
2077 2082
2077 2173
2077 2184
2077 2194
2077 2198
2077 2218
2079 2082
2079 2130
2079 2173
2079 2199
2079 2204
2080 2089
2080 2120
2080 2137
2080 2172
2080 2192
2080 2201
2081 2137
2082 2090
2082 2097
2082 2120
2082 2127
2082 2130
2082 2137
2082 2142
2082 2157
2082 2166
2082 2173
2082 2188
2082 2189
2082 2193
2082 2198
2082 2199
2082 2209
2082 2211
2082 2215
2082 2218
2084 2104
2084 2152
2085 2120
2085 2125
2085 2137
2086 2201
2087 2201
2088 2109
2088 2222
2089 2097
2089 2117
2089 2120
2089 2124
2089 2125
2089 2127
2089 2137
2089 2146
2089 2149
2089 2156
2089 2157
2089 2166
2089 2170
2089 2172
2089 2177
2089 2184
2089 2188
2089 2189
2089 2192
2089 2193
2089 2198
2089 2201
2089 2209
2089 2211
2089 2212
2089 2215
2089 2218
2090 2120
2090 2124
2090 2137
2090 2142
2090 2151
2090 2157
2090 2162
2090 2166
2090 2169
2090 2170
2090 2172
2090 2177
2090 2189
2090 2193
2090 2198
2090 2209
2090 2211
2090 2212
2090 2215
2090 2219
2093 2139
2093 2165
2093 2187
2093 2207
2093 2216
2094 2154
2094 2216
2097 2120
2097 2127
2097 2142
2097 2146
2097 2151
2097 2157
2097 2169
2097 2170
2097 2177
2097 2188
2097 2189
2097 2193
2097 2198
2097 2209
2097 2218
2097 2219
2105 2188
2108 2187
2117 2120
2117 2125
2117 2137
2117 2172
2118 2147
2120 2124
2120 2137
2120 2142
2120 2149
2120 2151
2120 2156
2120 2162
2120 2166
2120 2169
2120 2177
2120 2184
2120 2188
2120 2189
2120 2192
2120 2193
2120 2198
2120 2212
2120 2215
2120 2218
2120 2219
2121 2137
2121 2159
2121 2190
2121 2208
2124 2127
2124 2142
2124 2146
2124 2151
2124 2157
2124 2166
2124 2172
2124 2184
2124 2188
2124 2189
2124 2193
2124 2211
2124 2215
2124 2218
2125 2137
2125 2146
2125 2188
2125 2189
2125 2208
2125 2218
2127 2142
2127 2146
2127 2151
2127 2162
2127 2166
2127 2169
2127 2170
2127 2172
2127 2177
2127 2184
2127 2188
2127 2189
2127 2193
2127 2198
2127 2209
2127 2211
2127 2212
2127 2215
2127 2218
2127 2219
2128 2216
2129 2158
2129 2213
2130 2157
2130 2173
2130 2188
2130 2194
2130 2204
2130 2218
2137 2142
2137 2146
2137 2155
2137 2156
2137 2162
2137 2166
2137 2170
2137 2172
2137 2173
2137 2174
2137 2175
2137 2188
2137 2189
2137 2190
2137 2198
2137 2202
2137 2208
2137 2209
2137 2211
2137 2212
2137 2214
2137 2215
2137 2218
2137 2219
2137 2221
2139 2216
2142 2146
2142 2151
2142 2157
2142 2162
2142 2166
2142 2169
2142 2170
2142 2172
2142 2177
2142 2184
2142 2185
2142 2188
2142 2189
2142 2202
2142 2209
2142 2211
2142 2212
2142 2218
2142 2219
2142 2221
2144 2216
2146 2162
2146 2166
2146 2169
2146 2170
2146 2172
2146 2177
2146 2178
2146 2189
2146 2198
2146 2209
2146 2212
2146 2215
2149 2157
2151 2162
2151 2166
2151 2169
2151 2172
2151 2177
2151 2184
2151 2188
2151 2189
2151 2193
2151 2211
2151 2212
2151 2218
2151 2219
2157 2166
2157 2169
2157 2173
2157 2184
2157 2188
2157 2189
2157 2198
2157 2204
2157 2209
2157 2212
2157 2215
2157 2218
2157 2219
2159 2208
2161 2201
2162 2166
2162 2169
2162 2172
2162 2177
2162 2188
2162 2193
2162 2211
2162 2215
2162 2218
2164 2188
2164 2191
2166 2172
2166 2174
2166 2188
2166 2209
2166 2212
2166 2218
2166 2219
2169 2174
2169 2184
2169 2188
2169 2189
2169 2193
2169 2198
2169 2209
2169 2211
2169 2212
2169 2215
2169 2218
2170 2172
2170 2177
2170 2184
2170 2188
2170 2189
2170 2193
2170 2198
2170 2209
2170 2211
2170 2212
2170 2215
2170 2219
2172 2189
2172 2193
2172 2198
2172 2201
2172 2212
2172 2215
2172 2218
2172 2219
2173 2199
2173 2204
2175 2215
2177 2188
2177 2189
2177 2198
2177 2211
2177 2215
2179 2188
2179 2216
2180 2222
2184 2189
2184 2193
2184 2198
2184 2209
2184 2211
2184 2215
2184 2218
2184 2219
2185 2194
2185 2195
2185 2202
2188 2189
2188 2193
2188 2204
2188 2209
2188 2212
2188 2218
2189 2193
2189 2198
2189 2209
2189 2212
2189 2215
2189 2218
2189 2219
2191 2209
2192 2201
2193 2208
2193 2211
2193 2212
2193 2218
2195 2201
2195 2220
2198 2212
2198 2215
2198 2218
2199 2204
2199 2211
2203 2209
2204 2211
2206 2208
2207 2216
2209 2211
2209 2215
2209 2218
2211 2215
2211 2219
2211 2220
2212 2215
2212 2218
2215 2218
2215 2221
2218 2219
2218 2220
