0 2786
0 7551
0 13262
0 14403
0 17782
0 19591
1 3589
1 8578
1 11790
1 21507
1 21696
2 811
2 4292
2 5124
2 7388
2 10374
2 13177
2 22884
2 23425
2 23969
2 24339
3 332
3 583
3 1286
3 5669
3 16338
4 6916
4 14513
4 15400
4 18729
4 20785
5 7669
5 10590
5 14897
5 16712
5 17465
5 17467
6 1775
6 2867
6 5927
6 7303
6 15240
6 20298
6 20665
7 147
7 304
7 2541
7 3164
7 4605
7 6891
7 9860
7 10245
7 10319
7 12217
7 14137
7 15315
7 17179
7 18755
7 19020
8 506
8 5542
8 7130
8 21393
8 23380
9 1810
9 7340
9 16920
9 23668
9 23935
9 24230
10 5370
10 8510
10 15926
10 16986
10 21134
11 2822
11 5177
11 8299
11 10593
11 13054
12 1172
12 1186
12 1545
12 6573
12 12411
12 16558
12 18012
12 22568
12 23144
13 2260
13 3359
13 15018
13 19935
13 20306
14 2543
14 4315
14 18543
14 20985
14 22193
15 6460
15 8085
15 8975
15 9051
15 10006
15 13684
15 14401
15 15027
15 19052
15 19834
15 21086
15 22019
16 1511
16 2629
16 3086
16 5952
16 7456
16 12516
16 13782
16 16893
16 21257
17 5652
17 7618
17 14733
17 18299
17 18771
18 1714
18 3250
18 4660
18 8025
18 8744
18 11644
18 13024
18 14049
18 15061
18 17686
19 3891
19 4515
19 5348
19 9047
19 11361
19 12052
19 14841
19 15601
19 16417
19 16477
19 16750
19 19914
19 20077
19 22058
19 22107
20 2686
20 12101
20 12870
20 14752
20 15758
20 16028
20 16816
20 20188
21 3583
21 5901
21 6518
21 11560
21 14422
21 16292
21 17749
21 18353
21 18883
21 19206
21 19268
21 19794
21 22678
22 5145
22 7260
22 9437
22 11974
22 11975
22 12598
23 2260
23 13962
23 18130
23 20488
24 5445
24 6630
24 10600
24 14320
24 18530
25 6034
25 15195
25 16191
25 18790
25 20465
26 11295
26 16191
27 742
27 3509
27 14167
27 14207
27 20707
27 21097
28 5973
28 10750
28 16852
28 18359
28 20190
29 1224
29 3929
29 11014
29 18933
29 19318
30 3049
30 4402
30 8716
30 10056
30 12776
30 13199
30 15322
30 20595
30 21237
30 21990
30 22199
30 22281
31 1196
31 2068
31 3183
31 10749
31 14842
32 4809
32 7934
32 11602
32 14988
32 15452
32 16280
32 22317
32 22512
33 1124
33 1199
33 3879
33 4889
33 8139
33 10643
33 12461
33 14808
33 15561
33 16600
33 22000
33 22577
33 22757
34 127
34 2342
34 9426
34 9502
34 13580
35 11768
35 11961
35 12907
35 16748
35 18886
35 19601
35 23035
35 23098
36 187
36 5281
36 8572
36 8792
36 10308
36 20970
36 23390
37 3948
37 8753
37 12819
37 15445
37 21834
38 4562
38 5177
38 8299
38 21893
39 1189
39 6848
39 14332
39 14512
39 17572
39 18736
40 1017
40 1842
40 23865
40 23900
40 24321
41 1802
41 3378
41 9379
41 11229
41 21795
42 2351
42 7180
42 10678
42 15115
42 20771
43 5191
43 5317
43 21029
43 21822
43 23413
44 3184
44 4972
44 12454
44 17382
44 20492
45 183
45 5380
45 6424
45 7599
45 10195
45 18190
45 18687
46 532
46 10032
46 12557
46 24277
46 24470
47 2202
47 4265
47 5225
47 11655
47 12512
47 14553
47 18219
47 22543
48 2706
48 2771
48 8658
48 9371
48 9836
49 4115
49 10423
49 11561
49 19649
49 22788
50 7086
50 8601
50 9403
50 9772
50 10153
50 11120
50 11948
50 13723
50 14019
50 17646
50 19100
50 21735
51 9316
51 10958
51 17764
51 18215
51 19097
52 539
52 3439
52 6316
52 8534
52 10103
52 10104
52 10572
52 13245
52 15872
52 16459
52 17814
52 21470
53 2306
53 5501
53 10256
53 17883
53 22231
54 3907
54 9740
54 10796
54 14585
54 15613
55 11491
55 14323
55 14325
55 14326
55 16667
56 696
56 3807
56 3886
56 4200
56 5070
56 7271
56 9506
56 10356
56 13936
56 14971
56 19521
56 22558
56 23550
57 1068
57 4927
57 12159
57 14349
57 21728
58 6793
58 14643
58 15354
58 16973
58 18297
59 8408
59 11326
59 14380
59 15393
59 15410
60 1258
60 1983
60 4647
60 11236
60 13767
60 16295
60 17181
60 18697
60 19671
60 20047
60 20865
60 23647
61 264
61 715
61 2881
61 9835
61 16916
61 16917
61 19729
61 20760
62 5335
62 5615
62 23252
62 24294
62 24463
63 2385
63 2397
63 7135
63 12007
63 18614
63 23778
63 23946
64 4532
64 6791
64 6906
64 8438
64 14921
64 16722
65 1295
65 3546
65 7651
65 10046
65 23878
66 289
66 961
66 17305
66 18782
66 19923
67 2449
67 5090
67 8560
67 10526
67 11484
67 14316
67 15626
67 19366
68 1386
68 8734
68 12107
68 12732
68 14280
68 15901
68 16529
68 17924
68 19733
68 20196
68 20433
68 20976
69 1079
69 3326
69 8148
69 8962
69 14461
69 14876
69 16845
70 1761
70 10602
70 13016
70 22200
70 22226
71 10558
71 11514
71 13314
71 21137
71 21402
72 1120
72 7892
72 8079
72 8363
72 9782
72 15612
72 18881
72 20180
72 20647
73 2643
73 3163
73 6401
73 11842
73 18122
73 23735
73 24338
73 24425
74 1992
74 1993
74 2358
74 2709
74 4185
74 4592
74 4593
74 4594
74 5383
74 15278
74 20856
74 21667
74 23338
75 203
75 2217
75 3156
75 3322
75 8372
75 10033
75 10537
75 10876
75 11631
75 11972
75 12142
75 12489
75 15761
75 16596
75 16627
75 16809
75 17020
75 18621
75 18638
75 19196
75 19622
75 20517
75 20779
75 21690
75 21766
75 22425
76 3614
76 3616
76 18150
76 21238
76 22481
77 4936
77 23784
77 24223
77 24285
77 24436
78 3806
78 3844
78 6641
78 8228
78 10110
78 12382
78 23733
78 23784
78 24068
78 24135
79 2994
79 5660
79 6375
79 10597
79 10840
79 12514
79 13958
79 14299
79 14919
79 18625
79 19223
79 19392
80 3512
80 3837
80 4596
80 13500
80 17893
80 19788
80 22851
81 387
81 3119
81 7840
81 9796
81 19378
82 3012
82 7324
82 9491
82 9623
82 20186
83 7104
83 7417
83 9093
83 10301
83 17074
83 20592
83 22220
83 23379
84 2015
84 3407
84 4822
84 5376
84 5377
84 7660
84 8777
84 9263
84 9965
84 11121
84 12191
84 12956
84 13272
84 14774
84 17930
84 18874
84 19610
84 20248
84 21095
85 2602
85 15868
85 18193
85 19191
85 20341
86 5476
86 10274
86 12506
86 18629
86 20635
86 20997
86 23568
87 2525
87 6201
87 6351
87 6580
87 7118
87 7858
87 10056
87 10466
87 10666
87 17573
87 20408
87 21155
88 2626
88 2695
88 10838
88 18314
88 19748
88 23174
89 6263
89 10741
89 16293
89 16315
89 16999
89 21197
90 2519
90 5177
90 16788
91 1645
91 1851
91 19570
91 21142
91 22472
92 8071
92 20456
92 22151
92 23389
93 3881
93 8782
93 12062
93 14131
93 20361
94 3397
94 11513
94 14933
94 21009
94 22913
95 11048
95 12472
95 16109
95 16178
95 17046
95 17940
96 5202
96 6954
96 9664
96 10550
96 11033
96 11678
96 14468
96 16636
96 17490
96 23193
96 23748
97 695
97 1225
97 3604
97 4617
97 5112
97 16875
97 19651
97 20250
97 22748
98 3239
98 5230
98 6930
98 12897
98 18900
99 7784
99 10391
99 17649
99 17956
99 18323
100 2147
100 6073
100 6196
100 7892
100 7977
100 9971
100 14173
100 16598
100 16942
100 21556
100 21614
100 23495
101 4793
101 7151
101 13896
101 14541
101 21725
102 2004
102 2256
102 2418
102 5587
102 14066
103 425
103 8554
103 15151
103 19318
104 2748
104 23813
104 23912
104 23947
104 24020
105 6870
105 8238
105 9515
105 24325
106 7224
106 10571
106 12488
106 12591
106 22904
107 2087
107 21180
107 21191
107 21339
107 21384
108 3543
108 5199
108 15419
108 17989
108 20650
109 442
109 3996
109 16403
109 17631
109 19355
110 443
110 561
110 611
110 1130
110 1410
110 2914
110 3252
110 4371
110 5599
110 7408
110 7643
110 10403
110 12656
110 12670
110 12813
110 14558
110 20917
110 21451
110 21786
110 22153
111 140
111 426
111 736
111 1080
111 4123
111 5644
111 5960
111 6353
111 7100
111 8956
111 9077
111 9551
111 11209
111 16183
111 16395
111 16929
111 17829
111 19066
111 20012
111 20070
111 20417
111 21058
111 21178
111 21419
111 21898
112 1765
112 6472
112 13870
112 14482
113 596
113 2066
113 2650
113 6721
113 11124
113 14416
113 16357
113 19540
114 2762
114 5089
114 8405
114 18379
114 19367
115 3143
115 6996
115 12971
115 20137
115 20882
116 3191
116 7269
116 7459
116 17141
116 18151
116 18739
116 20161
117 4836
117 13561
117 18254
117 18901
117 19552
117 22174
118 3303
118 11051
118 11363
118 13271
118 15218
118 16124
118 16345
118 17123
118 17886
118 19909
118 22323
119 4402
119 19371
119 23369
120 2550
120 3383
120 10417
120 16076
120 16300
121 5553
121 12120
121 13210
121 14940
121 15648
122 2743
122 3594
122 5999
122 13718
122 15265
122 16414
123 147
123 1012
123 11583
123 19824
124 14450
124 16517
124 19318
125 337
125 352
125 2096
125 3061
125 3246
125 17323
125 23460
126 9411
126 10979
126 12728
126 15430
126 16681
126 21403
126 22768
126 23133
127 1139
127 2284
127 2342
127 14768
127 15003
127 17779
127 19485
128 698
128 6779
128 7615
128 8656
128 9408
128 13498
128 15688
128 18506
128 20690
128 22179
129 1070
129 2996
129 4813
129 7720
129 7801
129 9313
129 11082
129 11672
129 12785
129 14702
129 21303
129 23168
130 3097
130 6777
130 8218
130 13605
130 17421
130 18714
130 22212
131 2784
131 16410
131 18066
131 23600
132 5360
132 8295
132 8530
132 10992
132 14632
132 21200
132 21201
133 1952
133 2720
133 5108
133 8221
133 22164
134 2542
134 17669
134 24183
134 24184
134 24437
135 7806
135 8511
135 11436
135 11789
135 22697
136 2062
136 5940
136 9394
136 9548
136 14751
137 1561
137 5820
137 15877
137 17411
137 20144
138 419
138 991
138 3053
138 3505
138 5135
138 5188
138 5713
138 7089
138 8711
138 10556
138 10959
138 11730
138 15812
138 15883
138 16461
138 17171
138 17756
138 17787
138 21538
138 22641
138 22662
139 1104
139 11038
139 13094
139 15929
139 17058
139 17939
139 23435
140 19066
140 20417
140 21178
141 224
141 2106
141 3938
141 5085
141 6150
141 6866
141 7393
141 7482
141 10874
141 11448
141 13363
141 17558
141 20895
141 22633
142 7237
142 10075
142 10196
143 6719
143 8204
143 10571
143 22025
143 22287
144 4402
144 8857
144 20377
144 23369
145 742
145 825
145 5478
145 20707
146 1248
146 1630
146 3508
146 9034
146 9546
146 15475
146 19400
147 200
147 213
147 396
147 1243
147 2290
147 3164
147 3261
147 3870
147 4180
147 4390
147 5082
147 5635
147 6846
147 7131
147 7511
147 7540
147 9018
147 10098
147 10245
147 10571
147 11327
147 11543
147 11583
147 13734
147 15389
147 16277
147 17298
147 17947
147 21078
147 22185
147 22618
147 22696
148 8638
148 9353
148 10434
148 15403
148 18783
149 208
149 1492
149 5103
149 5633
149 7690
149 7977
149 10053
149 10122
149 11833
149 13800
149 14749
149 20915
149 21570
149 24491
150 1276
150 2021
150 2817
150 5721
150 5722
150 7227
150 9202
150 9409
150 10617
150 12878
150 13442
150 13516
150 14109
150 14237
150 14353
150 16282
150 16384
150 17014
150 17104
150 18580
150 19401
150 19759
150 20197
150 20430
150 20748
150 22427
150 22455
150 23300
150 23422
151 2021
151 12878
151 20197
152 9291
152 11794
152 12181
152 15850
152 18084
152 19807
152 21936
152 22823
153 5943
153 10244
153 13555
153 14212
153 15532
153 22990
153 23014
153 23015
153 23016
154 1021
154 6429
154 7595
154 15773
154 19192
154 19329
155 4856
155 13724
155 13725
155 13726
155 16439
156 9437
156 15638
157 3117
157 8743
157 9703
157 14054
157 19584
158 6735
158 7542
158 11756
158 23742
158 24069
159 606
159 10200
159 12051
159 16639
159 16720
160 2124
160 3281
160 3448
160 6522
160 7623
160 9861
160 10491
160 22465
161 4633
161 7947
161 9941
161 14612
161 15334
161 18772
161 19438
161 20261
161 21907
162 1162
162 1950
162 2250
162 4514
162 5581
162 14692
162 15108
162 16671
162 20796
163 1486
163 2103
163 8301
163 10679
163 10791
163 11362
163 21842
163 21843
163 23640
164 13663
164 14177
164 19198
164 20220
164 23596
165 1577
165 2813
165 2814
165 10413
165 18277
166 5820
166 7811
166 15877
167 928
167 4393
167 5889
167 20744
168 2340
168 6476
168 7867
168 11841
168 14053
168 16554
168 20498
168 23843
169 456
169 1394
169 11743
169 12657
169 14071
169 20319
169 20612
169 22444
170 583
170 10943
171 7260
171 8775
171 22377
172 16193
172 16324
172 20824
172 21927
172 22913
173 1109
173 5691
173 6013
173 9144
173 10375
173 12315
173 24160
174 1409
174 2341
174 7743
174 8930
174 24284
175 1812
175 9009
175 10640
175 12567
175 23994
176 1812
176 9009
176 10020
176 12567
176 23994
177 712
177 11308
177 12425
177 12428
177 16216
177 24256
178 764
178 2033
178 3069
178 9050
178 23918
178 24251
179 1206
179 2292
179 3496
179 11405
179 18453
179 20653
179 23125
180 10306
180 11463
180 12556
180 16121
180 18926
181 1332
181 2723
181 7038
181 10290
181 11503
181 11505
182 5328
182 13870
182 20107
182 23200
183 3237
183 6424
183 18687
184 659
184 3157
184 15084
184 21658
184 21664
185 1293
185 3466
185 4102
185 4541
185 5598
185 7338
185 7502
185 8128
185 12983
185 14377
185 17595
185 19204
185 22281
185 23526
186 740
186 1192
186 8751
186 9306
186 9783
186 11871
186 13156
186 18368
186 20153
186 20309
187 10308
187 21093
187 22595
187 23390
188 405
188 4453
188 4455
188 12705
188 20775
189 1055
189 4375
189 6985
189 10431
189 13501
189 14384
189 14716
189 15035
189 15689
189 19509
189 19740
189 19838
189 20657
189 21960
190 2840
190 18058
190 18846
190 19973
190 20566
191 212
191 1133
191 3028
191 6636
191 22139
191 23783
192 9780
192 18333
192 23400
192 23887
192 24087
193 335
193 2115
193 11093
193 16354
193 19319
194 3445
194 4792
194 7929
194 13520
194 18815
195 4127
195 9800
195 17285
195 19198
196 1406
196 12079
196 15145
196 19381
196 21437
196 22290
197 15107
197 17552
197 20123
197 20652
197 22189
198 5551
198 10524
198 15073
198 21010
198 24232
199 266
199 1042
199 2681
199 2682
199 2747
199 2920
199 3606
199 3692
199 3923
199 4707
199 5314
199 5525
199 5682
199 6105
199 7218
199 7537
199 7638
199 7641
199 9184
199 9496
199 10109
199 12613
199 13202
199 13804
199 13805
199 14260
199 14731
199 14856
199 15309
199 16225
199 18067
199 18553
199 18877
199 20551
199 20994
199 21071
199 21099
199 21243
199 22408
199 23001
199 23171
199 23685
199 23802
199 23955
199 24150
199 24166
199 24279
199 24307
199 24309
199 24332
200 10571
200 15315
201 6147
201 16879
201 18600
201 19179
201 21991
202 6943
202 10351
202 18593
202 19553
202 23248
203 5563
203 17020
203 19646
203 20122
204 7311
204 11861
204 14363
204 15991
204 17687
205 4595
205 8418
205 8781
205 11208
205 18967
205 23329
206 5415
206 7571
206 8695
206 19445
206 20467
207 1295
207 7651
207 10046
208 985
208 5633
208 6360
208 6995
208 7977
208 9813
208 10583
208 11799
208 11833
208 12739
208 12832
208 13379
208 14026
208 14162
208 20668
208 21556
208 23581
209 2254
209 7637
209 18324
209 19561
209 20120
210 5450
210 11214
210 12620
210 12774
210 15293
211 2915
211 8313
211 8549
211 9201
211 9724
211 9978
211 10544
211 10547
211 14926
211 17200
211 23571
212 1515
213 2541
213 10245
213 15315
214 968
214 8251
214 12043
214 19070
214 20523
214 23765
215 5553
215 15126
215 15648
216 2563
216 4192
216 4806
216 4807
216 11855
216 14248
216 16642
216 23222
217 2315
217 6115
217 9058
217 11345
217 15127
218 2352
218 4419
218 6759
218 7499
218 7500
218 7699
218 9460
218 13350
218 13351
218 19803
218 20238
219 3397
219 14933
219 22913
220 2517
220 5523
220 7326
220 7367
220 15607
221 11347
221 11559
221 13205
221 14544
221 18303
221 21871
221 22343
222 3234
222 7799
222 8646
222 10667
222 11956
222 18442
222 18670
222 22844
222 23344
223 3307
223 7859
223 8930
223 10162
223 24291
224 5027
224 6984
224 9472
224 10874
224 11448
224 20749
224 23439
225 8565
225 8749
225 10398
225 22781
225 23221
226 2002
226 6293
226 14643
226 15924
227 441
227 1660
227 1838
227 5935
227 8693
227 9962
227 14916
227 15384
227 16567
228 3382
228 4789
228 8116
228 17147
228 21505
229 928
230 6438
230 7042
230 9727
230 10408
230 11712
230 15182
230 20179
231 687
231 1026
231 2726
231 6879
231 6937
231 8043
231 9145
231 10769
231 14589
231 15990
231 20738
231 21151
232 5800
232 7334
232 8001
232 13534
232 13916
232 14313
232 19673
233 2486
233 6514
233 8720
233 10861
233 13908
234 1511
234 6292
234 12375
234 13709
234 17500
234 20457
234 21257
235 8930
235 24083
236 10630
236 14866
236 14867
236 14868
236 14869
236 15843
236 15844
237 1272
237 1321
237 3916
237 11024
237 19878
238 12145
238 13701
238 13816
238 16970
238 18413
239 5655
239 7358
239 13067
239 14005
239 15272
239 15966
239 17033
239 21242
240 3562
240 5955
240 9604
240 10323
240 11300
240 14801
240 15298
240 16209
240 16847
240 18511
240 20486
240 20686
240 21038
240 23056
241 7219
241 9085
241 19135
241 23886
241 24189
241 24219
242 277
242 1324
242 3507
242 5259
242 12194
242 13633
242 15963
242 17325
242 17399
242 17817
242 18844
242 18866
242 19858
242 20329
242 22147
242 23437
242 23444
243 244
243 4456
243 4457
243 13278
243 18607
243 18822
244 4456
244 4457
244 12048
244 13278
245 8026
245 9100
245 12620
245 21593
246 683
246 2400
246 9211
246 9266
246 9620
247 3385
247 5644
247 7432
247 18079
247 20417
248 2114
248 2551
248 8055
248 8604
248 13416
248 18717
249 3308
249 8411
249 14789
249 20837
249 23449
249 23496
250 4746
250 9316
250 10958
250 19097
251 1988
251 2834
251 3935
251 8606
251 13523
251 17054
252 2009
252 2951
252 10571
252 10593
252 23431
253 1056
253 3452
253 4829
253 12243
253 21309
253 23556
254 1796
254 4459
254 12803
254 20897
254 23274
254 23529
254 24326
254 24407
255 1840
255 3030
255 15653
255 19078
255 21523
256 4329
256 7935
256 9976
256 11060
256 22660
257 11950
257 16184
257 16706
257 17679
257 17716
257 19124
257 23464
258 8098
258 11057
258 12290
258 12837
258 16603
258 23867
258 24225
259 14475
259 19988
259 21009
259 21614
259 23121
260 281
260 10681
260 12825
260 14063
260 14645
260 17344
261 7239
261 10459
261 15179
261 16758
261 20752
261 21221
261 22946
261 23827
262 6417
262 8941
262 9553
262 15402
262 16244
262 17507
262 18575
262 18724
262 20272
262 20929
262 21806
262 22163
263 4875
263 5246
263 11676
263 11875
263 15020
264 715
264 6016
265 1666
265 10612
265 16597
265 22424
265 22883
266 24279
267 7201
267 7312
267 14824
267 17140
267 17692
267 17973
267 18805
267 19062
267 22293
268 8280
268 8746
268 9849
268 11031
268 13952
269 1927
269 3272
269 5172
269 5789
269 5796
269 6166
269 7972
269 8189
269 9326
269 11189
269 13381
269 14117
269 17857
269 19051
270 2042
270 2565
270 2643
270 4343
270 4774
270 5240
270 8050
270 8098
270 9983
270 12800
270 24333
271 1240
271 6626
271 10424
271 15314
271 15333
271 15489
271 22054
271 22387
271 23533
272 1014
272 1564
272 1835
272 6498
272 14057
272 20675
273 2749
273 5889
273 7559
273 17640
273 18561
274 3013
274 8220
274 11415
274 13671
274 15674
274 22611
275 8087
275 9558
275 12860
275 13225
275 19937
276 2314
276 3831
276 5020
276 7355
276 10277
276 15680
276 20894
277 18844
277 19858
277 23437
278 719
278 780
278 1850
278 4994
278 13009
278 14931
278 15716
278 21774
278 22385
278 22713
278 22838
279 8826
279 11699
279 16394
279 17616
279 18710
280 809
280 6118
280 6119
280 7002
280 11554
281 10681
281 12825
282 597
282 8270
282 19296
282 20303
282 21342
282 21987
283 833
283 9672
283 12994
283 14530
283 18954
284 6368
284 7742
284 11774
284 15103
284 18148
284 23461
285 8656
285 9531
285 16708
285 22179
286 2981
286 6113
286 7018
286 10823
286 12925
286 18444
286 22921
286 23563
287 11985
287 12587
287 13327
287 19258
287 19669
288 5201
288 6438
288 18178
289 522
289 885
289 961
289 1049
289 1134
289 1246
289 2010
289 2044
289 3298
289 3660
289 3724
289 3894
289 4335
289 4398
289 4428
289 4572
289 5357
289 5474
289 5824
289 6005
289 6625
289 8089
289 8462
289 8698
289 8763
289 9676
289 10012
289 11653
289 11915
289 12619
289 12696
289 13406
289 13527
289 13566
289 13945
289 14156
289 14319
289 14350
289 14839
289 15962
289 16187
289 16818
289 17256
289 17305
289 18037
289 18112
289 18466
289 18576
289 18782
289 19116
289 19187
289 19928
289 20107
289 20459
289 20555
289 20863
289 21028
289 21329
289 21390
289 21597
289 22399
289 23275
289 23283
290 899
290 2678
290 3684
290 22701
291 292
291 1533
291 1864
291 11772
291 20988
292 11772
293 1131
293 2090
293 3479
293 4215
293 6436
293 8070
293 8135
293 11997
293 19860
293 20550
293 20716
294 9038
294 9866
294 15944
294 19797
294 22796
295 3946
295 8916
295 12420
295 16350
295 23255
296 2901
296 4477
296 5399
296 15996
296 16754
297 7962
297 8930
297 9211
298 2643
298 24212
298 24425
299 2643
299 6401
299 21919
299 24049
299 24337
300 864
300 24354
300 24364
300 24445
301 5503
301 7666
301 13157
301 21114
301 22103
302 339
302 4729
302 6067
302 7789
302 8290
303 6604
303 12097
303 14417
303 14462
303 19258
303 22510
304 6719
304 10245
304 10571
304 19020
305 355
305 2897
305 6835
305 7148
305 7425
305 12869
305 20315
306 311
306 312
306 328
306 330
306 8909
307 311
307 316
307 317
307 318
307 329
307 330
307 5565
307 14388
307 19920
308 310
308 312
308 315
308 320
308 733
308 4323
308 17196
308 19920
308 22229
309 313
309 4317
309 4320
309 4321
309 9637
310 327
310 733
310 8909
311 316
311 317
311 318
311 319
311 320
311 326
311 328
311 329
311 330
311 1602
311 3710
311 23707
312 327
312 733
312 8909
313 745
313 831
313 1724
313 4680
313 6094
313 6344
313 8829
313 11964
313 13073
313 17196
313 23395
313 23451
314 327
314 733
314 4323
314 8909
315 327
315 733
315 4323
315 5513
315 8909
316 328
317 328
317 329
317 330
317 1602
318 330
319 9251
319 23707
320 733
320 3710
320 9251
320 23707
321 2645
321 6378
321 23729
321 24032
321 24328
322 473
322 3875
322 4699
322 14311
322 16506
323 6840
323 8790
323 9909
323 13408
323 18958
324 7298
324 8659
324 9565
324 14911
324 16915
324 23280
325 557
325 8374
325 14046
325 14216
325 16013
325 23566
326 8909
327 1724
327 5513
327 14388
327 16145
327 17196
327 19920
327 22229
327 23451
328 330
328 3710
328 5565
328 8909
330 1602
331 889
331 1317
331 6227
331 9879
331 16325
331 20622
332 583
332 8670
332 13088
332 21473
333 1489
333 6009
333 6785
333 7120
333 7411
333 8847
333 12139
333 12140
333 13552
333 14782
333 16760
333 17791
333 20269
333 22811
334 5059
334 10893
334 12797
334 18998
335 2115
335 5211
335 6599
335 7076
335 11093
335 12383
336 2164
336 2737
336 8178
336 10498
336 11584
336 16000
336 16742
336 17022
337 1180
337 3055
337 3195
337 3246
337 8169
337 8561
337 9232
337 9575
337 11232
337 11825
337 13124
337 17369
337 17542
337 19323
337 20167
337 21088
337 21366
337 22230
337 22247
337 23832
338 7233
338 8099
338 10875
338 19430
338 19721
339 15457
339 15458
339 21498
340 7690
340 14341
340 21570
340 22254
341 3887
341 7578
341 7996
341 10674
341 10883
341 11649
341 15555
341 19427
342 854
342 4504
342 7734
342 17698
342 20868
342 23404
343 1344
343 5527
343 10359
343 19240
343 19744
344 1332
344 4140
344 8570
345 2067
345 8393
345 8953
345 13466
345 17091
346 506
346 5820
346 6698
346 15877
347 7291
347 14482
347 19515
347 19912
348 1205
348 7296
348 10493
348 14393
348 22631
349 1855
349 6297
349 8725
350 703
350 1697
350 5918
350 13532
350 14178
351 3609
351 8315
351 9169
351 10127
351 10334
351 10755
351 13309
351 13817
351 14825
351 16251
351 17496
351 18846
351 19309
351 19973
351 21475
351 21655
352 2601
352 3061
352 3246
352 4519
352 7126
352 9575
352 11232
352 12492
352 12626
352 17369
352 17542
352 19323
352 20789
352 22230
352 22247
353 6169
353 11542
353 23846
353 23913
353 24062
354 3403
354 6193
354 17287
354 20209
354 21415
355 2897
355 6835
355 7148
356 943
356 8528
356 11101
356 14973
356 21234
356 22353
356 23138
357 1197
357 3529
357 5903
357 6947
357 7437
357 8119
357 10474
357 11741
357 14194
357 14838
357 15875
357 16125
357 17293
357 17601
357 19948
357 20582
357 23405
358 882
358 7111
358 8680
358 15497
358 20334
359 1663
359 2491
359 7897
359 9044
359 12435
359 15830
359 19644
359 21398
360 1769
360 4349
360 4776
360 9059
360 9441
360 11090
360 14486
360 15318
360 15516
361 731
361 16317
361 21171
361 21234
361 22775
362 1870
362 7063
362 10969
362 11420
362 12565
362 18635
362 21440
363 1870
363 4965
363 6827
364 1939
364 5219
364 8486
364 14738
364 17824
365 615
365 2301
365 2381
365 10709
365 18686
366 589
366 2121
366 4474
366 8592
366 9581
366 10292
366 10645
366 11063
366 13394
366 16666
366 17041
366 19157
366 19324
366 20017
366 22198
366 23343
367 2293
367 10084
367 10829
367 14901
367 17681
367 21014
367 22214
368 1207
368 1706
368 2297
368 2390
368 3525
368 6714
368 6874
368 7553
368 8924
368 9010
368 10382
368 10775
368 12099
368 14723
368 15821
368 16785
368 16872
368 17294
368 18081
368 18659
368 19365
368 19432
368 21301
369 9359
369 9605
369 19037
369 21003
369 22429
369 23478
370 8543
370 13391
370 20188
371 15991
371 17687
371 22156
372 1919
372 9451
372 10184
372 10552
372 13069
372 16741
372 17750
372 19971
372 22702
372 23000
373 1247
373 1673
373 8060
373 11558
373 18116
374 4985
374 7982
374 9923
374 13697
374 18494
374 22911
375 1483
375 1534
375 2779
375 5021
375 7940
375 10411
375 10551
375 15204
375 16866
375 17494
375 21587
375 23653
376 2494
376 2904
376 14506
376 15485
376 19166
377 654
377 1683
377 5664
377 10952
377 11449
377 12071
377 18213
377 20446
378 1680
378 1821
378 2300
378 12158
378 15235
379 1084
379 1217
379 1551
379 2977
379 3311
379 5547
379 7970
379 9090
379 10284
379 13497
379 16519
379 17419
379 19602
379 21673
379 22006
380 918
380 1159
380 6485
380 7013
380 8177
380 8901
380 9100
380 9810
380 15146
381 3143
381 4476
381 5715
381 6959
381 6996
381 9831
381 12971
381 14281
381 16372
381 20882
381 22584
382 3882
382 8826
382 9364
382 10237
382 13564
383 3476
383 16819
383 19834
384 6092
384 7040
384 15337
384 17724
384 23290
385 5916
385 10614
385 11677
385 12786
385 19009
386 2457
386 4769
386 4879
386 9053
386 10898
386 17361
386 18564
386 21438
387 919
387 7840
387 9333
387 12631
387 12680
388 550
388 6669
388 14317
388 21459
388 23688
389 15033
389 19084
389 20925
389 22868
389 23028
390 4024
390 5579
390 6222
390 7674
390 7944
390 14554
390 17432
390 19789
391 4069
391 12246
391 14336
391 16647
391 22175
392 3502
392 7839
392 15230
392 20009
392 21121
393 2851
393 10733
393 11366
393 12021
393 14429
393 16450
393 17780
393 19000
393 19777
393 20577
393 21409
394 1967
394 2813
394 5428
394 5702
394 16302
395 4402
395 10935
395 15113
395 22739
396 22696
397 1113
397 5752
397 6538
397 7162
397 10478
397 12422
397 22116
398 2117
398 4515
398 5348
398 7878
398 12311
398 14038
398 17434
398 23086
399 6571
399 10901
399 13910
399 19079
399 19942
400 9699
400 21381
400 23138
401 482
401 1249
401 1294
401 16405
401 16625
401 21821
401 22914
402 861
402 886
402 1060
402 1214
402 3231
402 3284
402 3558
402 5191
402 6612
402 7189
402 7691
402 9282
402 9427
402 9725
402 10986
402 11240
402 11730
402 12102
402 12864
402 13493
402 13942
402 14240
402 15206
402 15595
402 16158
402 17239
402 17291
402 17441
402 18631
402 18721
402 19847
402 20273
402 20901
402 21029
402 22365
402 23413
403 4616
403 9171
403 9180
403 12174
403 20830
404 5430
404 5452
404 7733
404 7993
404 9166
404 9376
404 18751
404 22454
405 4453
405 4454
405 4455
405 16837
405 20358
405 20775
406 7000
406 10347
406 13181
406 14806
406 22849
407 7091
407 12667
407 15198
407 19317
407 23560
408 6360
408 6551
408 11610
408 21614
409 10761
409 16801
409 17545
409 19252
409 22415
410 5380
410 13458
410 19248
411 2641
411 3682
411 6631
411 6960
411 7560
411 7776
411 9056
411 9457
411 17150
412 704
412 3991
412 17646
413 5191
413 5395
413 6467
413 10528
413 20304
413 21029
414 5139
414 6335
414 12478
414 12480
414 15020
415 1838
415 3699
415 9707
415 13794
416 1417
416 1609
416 1623
416 4399
416 8082
416 9175
416 10538
416 10909
416 20989
416 22620
417 10921
417 13685
417 15437
417 16876
417 20261
418 2870
418 4826
418 4830
418 15649
418 16612
418 17526
418 17990
418 18045
418 19212
418 23386
419 3522
419 8726
419 17171
419 19576
420 534
420 9914
420 13293
420 14128
420 15273
420 17477
420 17807
420 17852
420 19343
420 21984
420 22715
421 2793
421 10539
421 12864
421 13623
421 14239
421 15017
421 18628
422 5257
422 5589
422 8880
422 9563
422 9588
422 24351
422 24466
423 9060
423 11104
423 24208
423 24263
423 24357
424 6883
424 12966
424 17211
424 19706
425 881
425 1106
425 1692
425 2040
425 6075
425 6431
425 7169
425 10856
425 11557
425 12257
425 13856
425 14056
425 15259
425 16287
425 18517
425 19318
425 19760
425 21185
425 21709
425 22104
425 22556
426 19066
427 3679
427 6519
427 8491
427 9736
427 12312
427 16587
427 18713
427 19388
428 3304
428 3721
428 5516
428 6552
428 21677
428 21739
429 8019
429 8615
429 13227
429 19997
429 21199
430 1943
430 3502
430 11197
430 17043
430 20009
431 5709
431 11491
431 11492
431 16667
431 16668
432 874
432 2245
432 2613
432 3400
432 3737
432 4036
432 4509
432 5613
432 6059
432 6907
432 7094
432 8203
432 10247
432 10320
432 10637
432 10676
432 11241
432 13049
432 13463
432 15455
432 15997
432 16090
432 16631
432 17328
432 18513
432 20286
432 20449
432 21131
432 21318
432 22859
432 23488
433 2954
433 2957
433 3148
433 4057
433 4058
433 4059
433 4060
433 4061
433 6689
433 8236
433 13313
433 18953
433 21789
433 22720
434 2582
434 7140
434 9385
434 21060
434 21551
435 1312
435 4958
435 12635
435 21158
435 21357
436 703
436 5918
436 13532
437 1516
437 7091
437 7492
437 9163
437 12695
437 16438
437 19013
437 19317
438 9491
438 13434
438 18889
438 19348
439 2220
439 9888
439 15496
439 15867
439 22664
440 1726
440 1976
440 2053
440 2596
440 2942
440 3104
440 3855
440 5708
440 6159
440 6871
440 7544
440 14106
440 17295
440 17831
440 18438
440 19542
440 23115
440 23116
440 23637
440 23970
440 23989
440 24283
440 24403
440 24485
441 1838
441 14916
442 3504
442 5035
442 6369
442 13371
442 13536
442 14864
442 16403
442 17631
442 19355
442 20765
442 21139
442 23745
443 22767
444 445
444 450
444 1279
444 1280
444 2276
444 18428
445 449
445 450
445 1280
445 2276
446 447
446 1278
446 2276
446 22180
447 449
447 1278
447 22180
448 449
448 1277
448 1278
449 2276
449 22180
450 1279
451 1278
451 2276
451 22180
452 1598
452 2379
452 4275
452 8679
452 12785
452 19403
452 19961
452 21454
453 1283
453 3305
453 10470
453 12214
453 13182
453 13490
453 13988
453 21467
453 21845
453 22168
454 4783
454 9471
454 13870
454 17163
454 19315
455 2370
455 3625
455 5998
455 9694
455 10037
455 18685
455 23051
455 23531
456 6826
456 8261
456 11743
456 13114
456 14071
456 14088
456 15029
456 17024
456 23569
457 1972
457 2363
457 2999
457 24200
458 1783
458 2976
458 9629
458 9692
458 14039
458 17978
458 19828
458 22962
459 3514
459 5223
459 6450
459 8927
459 14295
459 16052
460 972
460 2910
460 4790
460 5347
460 9678
460 12035
460 12056
460 18222
460 19575
461 1944
461 12289
461 23420
461 24196
462 2536
462 10445
462 13460
462 16620
462 19982
462 20461
462 21593
463 763
463 3320
463 4860
463 5193
463 6007
463 6286
463 7984
463 8396
463 8400
463 8521
463 10884
463 15909
463 15910
463 21844
463 24011
463 24157
464 2550
464 10417
464 16076
465 466
465 467
465 472
465 474
465 475
465 476
466 467
466 468
466 469
466 471
466 472
466 476
466 2333
467 469
467 470
467 471
467 474
467 475
467 22896
469 470
469 476
469 2333
469 23090
470 471
470 475
470 2812
472 475
472 476
472 22896
473 3147
473 3875
473 4512
473 7778
473 8477
473 9380
473 9444
473 9622
473 13165
473 14311
473 15523
473 16506
473 17882
473 18801
473 19216
473 20351
473 22695
473 23176
474 2333
475 22896
476 2812
477 9752
477 13710
477 14457
477 20179
477 20193
478 1615
478 13322
478 18705
478 21210
478 21832
478 22866
479 2717
479 5406
479 5889
479 9115
479 13427
479 15181
480 6840
480 8790
481 1117
481 4511
481 6356
481 7281
481 10926
481 13142
481 13727
481 19473
481 20078
481 20181
481 21383
482 3533
482 16405
482 22914
483 1985
483 7881
483 15789
483 18047
483 19353
484 4168
484 11444
484 23719
484 23952
484 24044
485 2052
485 5598
485 14229
486 6551
486 21556
487 2265
487 3810
487 12692
487 16776
487 18702
488 3877
488 6114
488 8804
488 11839
488 18180
488 21022
488 24023
488 24158
488 24225
489 2351
489 10678
489 20771
490 2400
490 5216
490 6164
490 23654
491 1031
491 4221
491 4374
491 4529
491 4560
491 4640
491 4890
491 5823
491 6157
491 6244
491 7138
491 7735
491 8259
491 9319
491 10293
491 10294
491 10576
491 11077
491 11634
491 12684
491 12964
491 13365
491 13468
491 14075
491 15714
491 22176
491 22585
491 23387
492 2169
492 3192
492 4416
492 12121
492 13258
492 14065
492 14220
492 14715
492 15738
492 17219
492 21077
492 21308
493 1974
493 4998
493 5651
493 5882
493 7132
493 12372
493 12459
493 12601
493 13018
493 17201
493 21476
494 11610
494 14293
494 15840
494 16636
495 6881
495 7504
495 11865
495 13655
495 16606
495 17130
495 19683
495 20391
496 3947
496 10868
496 13808
496 17788
496 22994
497 3274
497 8009
497 8443
497 11829
497 21021
498 1187
498 4381
498 5198
498 17360
498 23916
499 5328
499 18286
499 22116
499 23100
500 4556
500 8937
500 10410
500 10734
500 14412
500 22820
501 1298
501 3539
501 8810
501 9868
501 12582
501 12969
501 19043
501 21107
502 6154
502 8413
502 10469
502 19907
502 20461
503 15269
503 16802
503 20298
504 3289
504 11396
504 21181
505 1781
505 10504
505 16791
505 17463
505 17724
506 1252
506 1469
506 1561
506 1955
506 2755
506 2815
506 3122
506 3933
506 4212
506 4221
506 4781
506 5337
506 5498
506 5542
506 5820
506 6032
506 6480
506 6532
506 6575
506 6698
506 6999
506 7084
506 7130
506 7192
506 7313
506 7811
506 8101
506 9937
506 10280
506 10957
506 11095
506 11925
506 12431
506 12471
506 13248
506 13424
506 13634
506 13743
506 14604
506 14924
506 15101
506 15215
506 15519
506 15539
506 15711
506 15877
506 16698
506 16730
506 16946
506 17390
506 17411
506 17509
506 19101
506 19178
506 19344
506 19589
506 19616
506 20144
506 20170
506 20222
506 20774
506 21046
506 21393
506 21640
506 22203
506 22361
506 22401
506 22954
506 23039
506 23236
506 23380
507 1994
507 4814
507 12754
507 13549
507 22175
508 771
508 1799
508 4342
508 4682
508 7705
508 9315
508 9777
508 12484
508 16274
508 17249
508 18369
508 20573
508 21492
509 5795
509 11056
509 12047
509 12393
509 15201
510 1228
510 8185
510 11096
510 12019
510 18717
510 21218
510 22469
511 3326
511 4237
511 4272
511 21656
511 23465
512 6006
512 11959
512 15828
512 22045
512 23009
513 4902
513 10529
513 11029
513 12746
513 21854
514 2201
514 3828
514 4307
514 12719
514 14787
514 18861
514 20338
514 21070
514 22093
515 948
515 3742
515 7973
515 11187
515 13847
515 14108
515 16678
515 17962
515 18042
515 18895
515 22159
515 22258
515 22968
515 23358
516 1742
516 14900
516 14906
516 15946
517 8266
517 16768
517 17447
517 18632
517 20973
518 1872
518 7496
518 15291
518 15722
518 22222
518 22267
519 5334
519 5402
519 9603
519 10814
519 11929
519 13173
519 17875
520 13685
520 15437
520 19823
520 20261
520 23146
521 3438
521 4078
521 5041
521 15476
521 21489
521 21802
522 1246
522 13221
522 19923
523 1837
523 5438
523 8573
523 10344
523 13973
523 15170
523 20112
524 3859
524 7524
524 9258
524 14087
524 14557
524 15486
525 616
525 617
525 1465
525 3404
525 19468
525 22802
526 3198
526 5223
526 5632
526 6450
526 7554
527 15033
527 19084
527 23028
528 11524
528 11525
528 11526
528 11527
528 23332
529 2712
529 3651
529 3791
529 8326
529 11212
529 13051
529 14233
529 20439
530 1071
530 3588
530 3780
530 4950
530 8378
530 12838
530 17998
530 22904
531 3539
531 9868
531 11977
531 19043
532 741
532 1037
532 4124
532 6643
532 9643
532 12557
532 24206
532 24470
533 3308
533 14513
533 20837
533 21021
533 23449
533 23496
534 9914
534 11011
534 17477
534 17807
534 17852
534 19343
535 7644
535 11968
535 14975
535 15557
535 18153
536 570
536 2540
536 3627
536 11370
536 12405
536 13993
536 22745
537 1372
537 7001
537 7197
537 7906
537 8812
537 15538
537 20535
538 8034
538 11992
538 13446
538 19067
538 20814
538 23512
539 3439
539 8534
539 10104
539 14434
539 22477
540 3110
540 6298
540 9430
540 9892
540 10188
540 12379
540 12583
540 12759
540 15282
540 18136
540 19809
540 20481
541 18846
541 19973
542 10245
542 12591
542 22904
543 15950
543 16979
543 20620
543 22034
543 23589
544 13663
544 19476
544 20220
545 7182
545 10233
545 23780
545 23953
545 24460
546 7180
546 9872
546 21339
546 22719
547 7322
547 9521
547 9526
547 11572
547 20118
548 1340
548 3095
548 4298
548 5116
548 15945
548 19399
548 21675
548 22411
548 22437
549 3315
549 3836
549 4935
550 6669
550 14317
550 21459
550 23688
551 1447
551 2527
551 9196
551 10944
551 16086
552 761
552 8444
552 12331
552 13585
552 13792
552 15413
553 1223
553 3066
553 16542
553 21299
553 21300
554 10100
554 11988
554 12121
554 14220
555 3964
555 6577
555 12109
555 15275
555 17182
556 935
556 3075
556 6274
556 10397
556 18910
557 8374
558 1319
558 1400
558 1677
558 2616
558 2947
558 3229
558 4067
558 4762
558 5036
558 5232
558 9154
558 12063
558 13674
558 13964
558 19115
558 19188
558 19335
558 19502
558 20068
558 20257
558 20529
558 21397
559 10059
559 13052
559 17457
559 18750
559 21073
560 4069
560 9898
560 11423
560 17255
561 7022
561 7643
561 13099
561 13941
561 14558
561 16501
561 21786
561 22153
562 8026
562 14496
562 21614
562 21635
562 22315
563 5351
563 5352
563 8311
563 9080
563 9337
564 2655
564 4985
564 16637
564 18494
565 2655
565 4874
565 11636
565 15152
565 18494
566 18399
566 18494
567 4284
567 5659
567 10751
567 12682
567 19470
568 10817
568 14015
568 16987
568 22401
569 742
569 3083
569 4045
569 12643
570 1431
570 3676
570 4791
570 10197
570 11265
570 11370
570 14036
570 22745
571 2701
571 13933
571 19051
572 12665
572 15006
572 23765
572 23863
572 24154
572 24475
573 10245
573 18908
574 1873
574 4302
574 6328
574 7099
574 10963
575 938
575 4762
575 13964
575 19115
575 21924
576 7730
576 8318
576 12006
576 15554
576 22645
577 11357
577 12356
577 18286
577 18998
578 1203
578 1527
578 8360
578 10389
578 10495
578 12227
578 16578
579 1468
579 4831
579 6980
579 7052
579 7264
579 7487
579 23543
579 24138
579 24139
580 3232
580 8319
580 17029
580 18857
580 22095
581 1874
581 3295
581 9002
581 13965
581 16591
582 3206
582 4420
582 17481
582 17988
582 18986
583 591
583 692
583 1286
583 1617
583 4692
583 5669
583 6225
583 6590
583 7612
583 9572
583 10196
583 10508
583 13023
583 13543
583 14410
583 14491
583 15447
583 16482
583 17241
583 19793
583 20290
583 21265
583 21746
584 2533
584 3667
584 18544
584 18706
584 20571
584 20747
584 21949
585 2688
585 3306
585 3612
585 5509
585 14517
585 15820
586 666
586 10201
586 16031
586 18563
586 20575
587 3241
587 11444
587 11643
587 23750
587 23952
588 2637
588 6305
588 16662
588 20007
588 22583
589 7008
589 9336
589 18432
589 21169
590 1777
590 2681
590 2747
590 2920
590 5443
590 5525
590 9496
590 10109
590 12060
590 12613
590 13202
590 14731
590 20994
590 21212
590 22408
590 23001
590 24079
590 24210
591 2086
591 3462
591 6590
591 8621
591 10492
591 13194
591 13503
591 14507
591 15070
591 15762
591 17600
591 21861
592 2977
592 13870
592 20714
593 3876
593 4986
593 5262
593 8124
593 11455
593 22384
594 10006
594 10809
594 19552
595 4071
595 4664
595 5336
595 6872
595 9249
595 9847
595 12262
595 12352
595 13162
595 14355
595 16203
595 18843
595 21396
595 22043
595 22816
595 24468
596 2066
596 6721
596 11124
596 19540
597 1839
597 5146
597 11373
597 12148
597 13232
597 13819
597 20303
597 21987
598 5690
598 9584
598 12208
598 16675
598 18666
599 1721
599 2101
599 5086
599 6168
599 6998
599 9596
599 12150
599 17009
600 3266
600 5937
600 6690
600 9906
600 12235
600 12368
600 13788
600 13797
600 16429
600 16687
600 16962
600 20287
600 21824
600 22359
601 7385
601 11788
601 14653
601 14791
601 22590
602 2428
602 2440
602 10750
603 958
603 7399
603 7634
603 15517
603 15998
603 16728
603 20094
603 20226
604 1951
604 3188
604 13264
604 14011
604 17697
605 2607
605 9585
605 13470
605 18114
605 22188
606 3313
606 16720
606 21050
607 1650
607 2294
607 8019
607 9850
607 9964
607 13417
607 20463
608 891
608 3338
608 15623
608 19102
608 21363
608 22827
609 2665
609 3353
609 15840
609 21572
610 1090
610 9039
610 9293
610 9640
610 12076
611 5777
611 13941
611 18935
612 1325
612 1750
612 2247
612 12467
612 23892
612 24174
612 24188
612 24417
613 4322
613 9637
614 5068
614 6421
614 7133
614 18454
614 19735
615 3492
615 7633
615 8235
615 14877
615 17418
615 18055
615 19648
615 23369
616 617
616 3404
616 17126
616 19468
616 19469
617 17126
618 2209
618 5548
618 7375
618 23929
619 16829
619 19626
619 21619
619 22156
620 5275
620 10418
620 23735
621 1212
621 2982
621 4714
621 17216
621 23645
622 3294
622 5087
622 5560
622 8654
622 10999
623 11845
623 16547
623 16937
623 17920
623 19937
624 794
624 19318
625 7897
625 11775
625 12872
625 14848
626 778
626 2285
626 13502
626 13774
626 16166
626 20533
627 718
627 4543
627 8159
627 9465
627 9948
627 10639
627 10712
627 14729
627 16785
627 17838
627 20696
627 22538
628 7311
628 11346
629 3424
629 5085
629 6468
629 7503
629 8094
629 13946
629 15056
629 16732
629 17253
629 19588
629 23811
630 1484
630 2589
630 5892
630 8187
630 13068
630 13422
630 17067
630 19383
630 19569
630 20836
630 21646
630 21647
631 3948
631 15958
631 16407
631 19839
632 4547
632 4549
632 6579
632 9659
632 13571
632 14288
632 15114
632 19471
633 2049
633 14372
633 16358
633 22097
633 22914
634 2446
634 3527
634 4999
634 5310
634 9216
634 15180
634 19162
634 22546
635 1190
635 11160
635 19586
636 8108
636 13456
636 17395
636 20331
636 21530
636 23276
637 2304
637 14363
637 19776
638 14584
638 15017
638 20545
639 767
639 11818
639 18771
640 1265
640 3542
640 7440
640 16391
640 21020
641 6469
641 11108
641 11266
641 12249
641 12324
641 13517
641 16663
641 19269
641 20258
641 20471
641 21132
642 6413
642 7066
642 14415
642 17458
642 21992
643 1678
643 2963
643 5991
643 6620
643 7362
643 7718
643 9475
643 13172
643 13806
643 18762
643 21705
643 21851
643 23731
643 23798
643 24163
643 24416
644 6202
644 14885
645 5120
645 5907
645 6965
645 14438
645 16207
646 4842
646 9680
646 19353
646 21344
647 4286
647 8642
647 18268
647 23354
647 24032
648 2278
648 4500
648 4896
648 5339
648 6533
648 7211
648 8651
648 9349
648 11112
648 23334
649 1359
649 2512
649 7038
649 11502
649 11503
649 21533
650 2222
650 5593
650 5810
650 7357
650 7664
650 7764
650 8144
650 10064
650 16566
650 19638
651 1772
651 1870
651 3289
651 15818
652 1548
652 6719
652 15440
652 17270
652 23067
653 1349
653 9228
653 10843
653 13125
653 13413
653 14500
653 17699
653 18862
653 19766
653 23270
654 1681
654 5664
654 12071
654 18213
654 20446
654 22771
655 1208
655 1702
655 2029
655 2189
655 2513
655 3530
655 8038
655 9714
655 11523
655 12519
655 14307
655 14852
655 15676
655 16932
655 17664
655 17911
655 20503
655 20570
655 23485
656 1356
656 6725
656 7175
656 9250
656 10589
656 13798
656 16607
656 19295
656 19639
656 20542
657 2403
657 7879
657 10740
657 24105
657 24225
658 2403
658 3240
658 23835
658 24008
658 24186
659 8273
659 16305
659 18693
659 21664
660 934
660 2411
660 4854
660 5732
660 6666
660 10040
660 11912
660 17055
661 1229
661 2013
661 2672
661 3564
661 8911
661 10386
661 16318
661 16740
662 8171
662 10158
662 11222
662 12362
662 12978
662 12979
662 12980
662 13120
662 14681
662 14686
663 3764
663 4243
663 6473
663 14565
663 17044
664 1554
664 3399
664 5947
664 18695
665 7709
665 7887
665 8954
665 10970
665 14539
665 20670
666 1873
666 2534
666 10201
666 19529
667 1517
667 2634
667 3203
667 3303
667 11051
667 11363
667 12151
667 12355
667 13271
667 13486
667 17123
667 21665
668 13921
668 19691
668 20717
668 20732
668 22391
669 1209
669 5567
669 8973
669 11368
669 20823
670 3905
670 8395
670 12167
670 19764
670 23985
670 24104
671 2424
671 3779
671 11931
671 12176
671 12177
671 16141
671 20524
671 22517
671 23770
671 23803
671 23927
671 24065
672 5417
672 6366
672 8932
672 10573
672 10954
672 23941
673 2795
673 3701
673 5416
673 11115
673 23964
674 4103
674 13601
674 14395
674 15428
674 20632
675 3496
675 21488
675 21671
676 2042
676 2643
676 6401
676 7647
677 7219
677 19135
677 20109
677 23819
677 24019
677 24189
678 4942
678 7756
678 20596
678 22119
678 22368
679 11056
679 12047
679 15201
680 2649
680 3765
680 13597
680 21672
680 23375
681 6387
681 12534
681 17198
681 22980
681 23180
682 1413
682 1846
682 2123
682 4992
682 5063
682 5340
682 6945
682 10564
682 12508
682 15350
682 20083
682 20617
682 20770
682 21075
682 21809
682 22418
683 4363
683 10361
683 12946
683 19150
683 19419
683 19893
683 20740
683 23293
683 23652
683 24133
683 24316
683 24317
683 24457
684 9363
684 15107
684 17552
684 20123
684 20652
685 3304
685 5516
685 21739
685 22042
686 799
686 11722
686 11860
686 21566
686 23169
687 6879
687 6937
687 9145
687 10769
687 19714
687 20738
688 4334
688 7409
688 11648
688 15527
688 17366
689 3325
689 3581
689 3586
689 4020
689 4035
689 4167
689 5549
689 9598
689 12314
689 12653
689 14691
689 15311
689 15379
689 15942
689 21749
690 5511
690 6360
690 11610
690 22445
691 1564
691 8008
692 7237
692 10072
692 14446
693 15182
693 15627
694 2501
694 15036
694 16878
694 18014
694 18954
695 4617
695 19651
696 3886
696 14971
696 22558
696 23550
697 8647
697 11002
697 23196
697 23266
697 23699
698 8656
698 15688
699 11512
699 12785
699 15068
699 17851
699 19566
699 23189
700 1107
700 1559
700 5003
700 9014
700 16229
700 20494
701 6529
701 12267
701 15223
701 18994
701 20124
702 3808
702 4049
702 8407
702 10332
702 18308
702 19237
702 19595
702 23761
703 1697
703 1831
703 2805
703 3425
703 3464
703 3897
703 5075
703 5853
703 8003
703 9522
703 10000
703 10299
703 10789
703 11742
703 12698
703 13542
703 15382
703 20953
703 21839
703 23285
704 798
704 1353
704 1753
704 4046
704 7086
704 7621
704 9032
704 9308
704 10153
704 10239
704 11120
704 11192
704 12881
704 13043
704 13795
704 15082
704 15571
704 17646
704 18046
704 19100
704 19354
704 21216
704 21713
705 754
705 1908
705 2831
705 4820
705 4990
705 11261
705 13243
705 14266
705 14773
705 15898
705 17843
705 21145
705 22562
706 1947
706 1948
706 13220
706 19531
706 19532
707 2816
707 7849
707 8481
707 23630
707 24469
708 11362
708 11698
708 23779
709 3749
709 6300
709 10942
709 14804
709 22352
710 1598
710 19403
711 1409
711 3872
711 6993
711 18963
712 11839
712 12425
712 12427
712 12428
713 3478
713 4920
713 8212
713 15651
713 17671
714 10608
714 20469
714 21083
714 21378
714 23528
715 2881
715 6016
715 15376
715 16916
716 10608
716 21083
717 1023
717 10579
717 10580
717 10581
717 19092
718 6383
718 10712
718 20039
719 1850
719 14931
719 15716
719 24299
720 12732
720 14280
720 15002
720 23258
721 8496
721 10230
721 16094
721 18493
721 20378
722 3335
722 3966
722 5781
722 8180
722 8207
722 13148
722 16406
722 18757
722 18983
722 19407
722 23766
723 3175
723 6560
723 17064
723 17706
724 2409
724 2426
724 4840
724 10950
724 13231
725 2062
725 5940
725 9548
726 8238
726 11980
726 12665
726 24154
727 2773
727 6273
727 10883
727 11649
728 2720
728 4937
728 8103
728 8221
728 16220
729 10355
729 13469
729 18075
730 3849
730 11823
730 13511
730 14790
730 18809
731 828
731 1479
731 1588
731 1700
731 2836
731 3940
731 4756
731 7112
731 10029
731 10115
731 10252
731 11137
731 11254
731 11309
731 12465
731 13829
731 14081
731 14276
731 16120
731 16317
731 18020
731 19176
731 19695
731 20611
731 21171
731 21406
731 21657
731 22492
731 22874
731 23033
731 23598
732 2234
732 8468
732 9368
732 10458
732 10491
732 14247
732 15771
732 15802
733 1724
733 8909
733 19920
733 23451
733 23707
734 3449
734 6376
734 7070
734 13004
734 22248
735 2488
735 6758
735 8947
735 13207
735 15360
736 3794
736 7238
736 19066
737 2227
737 2504
737 2569
737 3243
737 3535
737 11542
737 22536
737 23786
738 1929
738 4126
738 7588
738 18732
738 20753
739 2143
739 6736
739 24142
739 24386
740 964
740 1705
740 3821
740 11871
740 16003
741 12557
742 1414
742 2515
742 3022
742 3083
742 9977
742 14207
742 18290
742 19289
742 20297
742 21097
742 21850
743 744
743 12960
743 12961
743 21261
743 23680
744 12960
744 23680
745 8909
746 9638
746 10604
746 11861
746 21113
747 1466
747 1552
747 2754
747 7832
747 8117
747 16511
748 1302
748 1409
748 5405
748 7743
748 11471
748 11599
748 15321
748 20867
748 22699
748 24284
749 1805
749 14668
749 19518
749 22653
749 22730
750 3162
750 7724
750 14130
750 17036
750 18884
750 22244
750 23365
751 8044
751 10010
751 12648
751 14815
751 20011
751 22190
751 23871
751 24010
751 24047
751 24287
751 24398
752 1256
752 3009
752 9133
752 10655
752 21477
753 3909
753 5093
753 16926
753 19413
753 21804
754 4990
754 15898
755 9788
755 13276
755 19507
755 19635
755 23590
756 1105
756 1822
756 3726
756 3927
756 4667
756 6046
756 8631
756 11576
756 15930
756 17028
756 20831
757 1618
757 4146
757 7841
757 12276
757 18718
757 22597
758 1503
758 4436
758 13641
758 15566
758 17096
759 7182
759 10233
759 23953
760 3889
760 7367
760 12712
760 17559
761 12371
761 13792
762 5059
762 10893
762 12797
762 18998
763 6286
763 24157
764 1579
764 2263
764 3069
764 8482
764 9050
764 11016
764 12784
764 13033
764 15317
764 17258
764 22453
764 23271
764 23432
764 23673
764 23932
764 24143
764 24162
764 24216
764 24251
764 24412
764 24442
765 766
765 2348
765 4175
765 7266
765 8499
765 9794
765 9795
765 13116
765 17355
765 17356
765 21783
765 22628
766 2348
766 3098
766 9794
766 9795
766 21783
767 2733
767 11818
767 18283
767 18771
767 21282
767 21663
768 791
768 10947
768 12944
768 14387
768 17710
769 5922
769 9244
769 17856
769 19114
769 21715
770 5218
770 6279
770 8506
770 14470
770 15121
770 19418
770 19834
770 19926
770 22975
771 4682
771 7705
771 10401
771 12484
771 13344
771 17188
771 19455
771 20573
771 22813
772 4856
772 13726
772 16439
772 19720
773 820
773 8334
773 10430
773 10621
773 15987
773 17050
773 17927
774 7145
774 8014
774 9681
774 19032
774 20902
775 4573
775 5596
775 20028
775 20029
775 20033
776 961
776 2336
776 18782
777 3519
777 4631
777 9944
777 12034
778 4128
778 13502
778 13774
778 22207
779 2362
779 4168
779 7545
779 16603
779 21017
779 24029
779 24177
780 16278
780 17438
781 3950
781 7862
781 17473
781 19271
781 22037
782 18880
782 19581
782 20065
782 21365
782 23396
783 4932
783 12545
783 15702
783 17972
783 18828
784 2195
784 3750
784 19134
784 22332
784 22784
785 7136
785 12527
785 14834
785 16262
785 19853
786 5990
786 14482
786 20906
787 1637
787 4570
787 5582
787 10903
787 19489
788 5249
788 9902
788 10154
788 13159
788 15737
788 20280
789 1092
789 2437
789 2646
789 14246
789 16113
789 23615
789 23700
789 23861
790 3539
790 11977
790 23129
791 10947
791 14387
791 17551
791 17710
791 20585
791 21793
792 3455
792 4565
792 4597
792 9827
792 10108
792 13886
792 15890
792 16510
792 19215
793 2249
793 5142
793 24370
793 24384
794 1028
794 1106
794 2289
794 2674
794 3176
794 3189
794 3810
794 3825
794 4080
794 4935
794 5446
794 5665
794 7291
794 7328
794 8960
794 9774
794 10207
794 10856
794 11389
794 11708
794 11911
794 12692
794 12839
794 13856
794 14450
794 15063
794 15279
794 15446
794 15504
794 15524
794 16150
794 17436
794 17726
794 18887
794 19318
794 19676
794 19903
794 20470
794 20908
794 22039
794 22064
794 22104
794 22541
794 23328
794 23463
795 2006
795 5063
795 7406
795 8112
795 9429
795 11620
795 12967
795 14079
795 14718
795 14833
795 15350
795 15752
795 16784
795 18962
795 19359
795 20617
795 23858
796 1605
796 3872
796 4346
796 4480
796 6490
796 6684
796 6993
796 8930
796 9974
796 10348
796 11599
796 13229
796 17543
796 18963
796 18971
796 21968
796 22299
796 23949
796 24129
796 24297
796 24321
796 24362
796 24457
796 24458
797 1019
797 2365
797 2405
797 4626
797 7388
797 19488
797 24276
798 3991
798 17646
799 5979
799 7549
799 9178
799 11722
800 2026
800 2072
800 5718
800 9238
800 17802
801 10539
801 22046
801 22474
802 5420
802 6551
802 21556
803 6624
803 8320
803 12664
803 23722
803 24382
804 1301
804 6530
804 12989
804 17162
804 21881
805 1873
805 15022
806 2344
806 3951
806 5029
806 8507
806 11846
806 13420
806 13421
806 13533
806 19360
806 24054
807 7158
807 11020
807 11021
807 11022
807 13572
807 14145
807 15800
807 18003
807 18426
808 11020
808 11021
808 18426
809 6118
809 6772
809 7002
809 11554
810 6530
810 9814
810 21881
811 4292
811 4525
811 7398
811 13771
811 23823
811 23969
811 24111
811 24339
812 7046
812 16271
812 17784
812 23098
813 1209
813 8973
813 12351
814 9788
814 13276
814 15009
814 20054
814 23590
815 7049
815 13870
815 20443
815 23200
815 23369
816 10593
816 12029
816 21764
816 22904
817 7324
817 8437
817 21528
818 1270
818 13646
818 16592
818 17320
818 17904
818 19910
819 3586
819 4167
820 2311
820 4967
820 11047
820 16488
820 17050
820 20819
820 21433
820 23230
821 827
821 5381
821 9505
821 22023
821 23591
822 5845
822 10757
822 11585
822 15530
822 19696
822 19826
822 21235
823 3228
823 4789
823 8026
823 13111
824 12532
824 17416
824 19699
824 20349
824 20802
825 1232
825 1886
825 2778
825 5478
825 7004
825 15158
825 15824
825 18419
825 20305
826 1622
826 1981
826 10591
826 11836
826 12392
826 15246
826 21351
827 1098
827 1215
827 1299
827 1478
827 2004
827 2256
827 2417
827 3027
827 3168
827 5381
827 5618
827 7097
827 7452
827 7488
827 10677
827 10888
827 11400
827 11473
827 11710
827 13510
827 14224
827 14481
827 16173
827 16410
827 16469
827 16658
827 17153
827 17822
827 20619
827 22023
827 22252
828 4756
828 11309
828 14081
828 16120
829 4293
829 7458
829 9626
829 10023
829 12551
829 24413
830 2896
830 5161
830 8030
830 10073
830 10507
830 13885
831 4322
831 8515
831 19530
831 20848
832 2806
832 4188
832 23987
832 24112
832 24171
833 4737
833 7731
833 8962
833 9286
833 9566
833 12406
833 12589
833 12994
833 14530
833 17581
833 18259
833 18599
833 18730
833 18914
833 22344
833 22955
834 1148
834 1989
834 5543
834 8993
834 9876
834 16286
835 1627
835 5362
835 15424
835 16743
835 17469
836 1688
836 7598
836 16628
836 17000
836 18902
837 1762
837 5501
837 6537
838 2592
838 8488
838 17451
838 17729
838 18641
838 19208
838 19910
838 21882
839 3041
839 8266
839 16768
839 18632
839 20973
840 1907
840 2409
840 3917
840 4586
840 4966
840 7610
840 9237
840 12807
840 14927
840 15817
840 16952
840 17433
841 1448
841 9606
841 14778
841 16632
841 20005
842 3566
842 4940
842 5902
842 15604
842 18282
843 9815
843 10571
843 13884
843 14592
843 22904
844 1397
844 7361
844 11167
844 12429
844 14744
844 20381
844 21435
845 13031
845 15139
845 15772
845 16537
845 21269
846 3955
846 5726
846 11717
846 14265
846 15630
846 17582
846 20827
846 20910
846 21529
847 11764
847 12474
847 15498
847 18275
847 21320
848 3901
848 4556
848 14412
849 2317
849 2543
849 4624
850 7295
850 13921
850 20732
851 1784
851 2170
851 2380
851 5056
851 21865
852 6607
852 7047
852 15381
852 16443
852 17114
852 17506
852 19924
852 22744
853 1179
853 4405
853 5392
853 7795
853 12600
853 14028
853 14599
853 17550
853 21801
853 21858
854 1727
854 3394
854 6916
854 8498
854 9981
854 11744
854 13405
854 14826
854 17698
854 20799
854 20868
854 23404
855 1515
855 1727
855 1979
856 1050
856 1138
856 10015
856 14655
856 22046
856 22474
857 6067
857 9543
857 12959
857 13157
858 1089
858 2074
858 5860
858 23094
858 23704
859 7895
859 24009
859 24158
859 24177
860 2447
860 3167
860 3255
860 6334
860 8801
860 9646
860 10229
860 10297
860 10790
860 12655
860 17700
860 17728
860 19795
860 20835
860 22029
861 1503
861 18631
861 19564
862 3214
862 5666
862 10368
862 14012
862 14261
862 18885
863 2208
863 2628
863 2963
863 3226
863 3636
863 4093
863 4211
863 6100
863 6620
863 7362
863 8493
863 8593
863 10212
863 13172
863 13806
863 16444
863 16445
863 18762
863 20931
863 21705
863 22498
863 22711
863 23068
863 23982
863 24459
864 2766
864 20822
864 24049
864 24338
865 7416
865 7879
865 24268
866 7768
866 12590
866 13861
866 23813
866 23947
867 3547
867 12666
867 13279
867 16427
867 19835
868 5553
868 15126
868 15648
868 17642
869 2742
869 6158
869 7221
869 10785
869 13855
869 14915
869 24280
869 24282
870 16449
870 16605
870 18462
870 18920
870 19768
870 23729
870 24032
870 24180
870 24328
870 24446
871 3349
871 21009
871 22040
871 22913
872 1258
872 1548
872 4402
872 23369
873 9155
873 10208
873 23009
874 2613
874 4509
874 15997
874 16631
875 8447
875 9236
875 9349
875 21550
876 2323
876 3429
876 10156
876 14021
876 18618
877 6411
877 7471
877 11242
877 15443
877 16970
878 5162
878 7758
878 11564
878 16977
878 19028
878 20549
878 20599
878 22426
879 5420
879 8795
879 20133
880 1211
880 1954
880 4517
880 7782
880 10148
880 14567
880 14688
880 17286
881 1358
881 1692
881 1699
881 1785
881 2485
881 2552
881 3314
881 3655
881 6241
881 6283
881 7169
881 8554
881 9156
881 9497
881 11687
881 11727
881 12445
881 12628
881 13540
881 14056
881 14627
881 15553
881 15760
881 15816
881 17668
881 18401
881 18517
881 19318
881 19412
881 19684
881 20201
881 20387
881 21185
881 21304
881 21709
881 22507
881 23405
882 1385
882 3211
882 3523
882 3878
882 8569
882 9141
882 9194
882 10009
882 10131
882 11493
882 12848
882 13320
882 13905
882 14624
882 14949
882 16083
882 20334
882 21412
883 1753
883 2707
883 2710
883 3239
883 3283
883 3993
883 4376
883 5095
883 5256
883 6065
883 6715
883 6952
883 7514
883 8715
883 10185
883 12090
883 12735
883 13113
883 13712
883 14033
883 18749
883 19538
883 22395
883 22605
883 22754
883 22897
883 23692
883 24483
884 11648
884 15893
884 19294
885 961
885 17305
885 19923
886 1653
886 6493
886 18631
886 20659
887 3783
887 5169
887 5255
887 12540
887 19406
888 2890
888 6497
888 10770
888 18103
888 19728
889 7707
889 9879
889 19981
889 20622
890 2867
890 7303
890 16802
890 18335
890 20665
891 3338
891 19102
891 21363
891 22827
892 2408
892 7390
892 9374
892 10668
892 23810
892 23877
893 1001
893 1090
893 2298
893 3515
893 4720
893 7962
893 10872
893 11612
893 11647
893 18396
893 19849
893 21968
893 23044
893 23677
893 23900
893 23950
893 24129
893 24156
893 24410
893 24458
894 1322
894 6066
894 7483
894 11405
894 11824
894 20653
894 21671
895 1503
895 18631
895 19564
896 5518
896 11808
896 13626
896 16211
896 16639
896 22586
897 5517
897 12920
897 15685
897 23121
898 1931
898 1932
898 4834
898 7426
898 8856
898 15487
899 4465
899 5113
899 22701
899 22757
900 1888
900 2094
900 7160
900 7167
900 19276
900 23958
901 3019
901 3151
901 4119
901 4411
901 5585
901 12207
901 18548
901 22403
901 22852
902 1893
902 10392
902 11808
902 16993
903 4134
903 4232
903 6416
903 9734
903 18238
904 2436
904 8415
904 12867
904 14734
904 16849
904 17643
904 20204
904 22939
905 1970
905 7450
905 9360
905 12272
905 22548
906 5612
906 7272
906 7648
906 11690
906 15918
907 1044
907 2769
907 3422
907 10689
907 19515
908 3956
908 5512
908 8911
908 11819
908 16304
908 16342
909 1898
909 10603
909 11063
909 23409
909 24159
910 986
910 16802
910 20298
911 2772
911 7463
911 10342
911 11553
911 17863
912 4320
912 4361
912 18520
913 4317
913 4321
913 14263
914 2455
914 6708
914 7183
914 7337
914 8155
914 13757
914 15584
914 17976
914 19513
915 7311
915 13675
915 15991
916 4738
916 8607
916 15256
916 17240
916 18243
917 1541
917 4956
917 6799
917 11348
917 15257
917 23434
918 1159
918 7013
918 8177
918 9100
918 10205
918 14722
919 7840
919 19378
920 1660
920 4845
920 9962
921 1909
921 5830
921 12802
921 21471
921 22949
922 923
922 924
922 2299
922 5144
922 21115
922 21939
923 1790
923 2299
923 21938
923 21939
924 2299
924 2353
924 5144
924 21115
924 21939
924 21940
925 4125
925 6414
925 11713
925 14671
925 15351
925 16291
925 16621
925 18882
925 21763
926 6734
926 7770
926 12103
926 14219
926 18000
926 18746
926 19520
927 1747
927 2464
927 4252
927 12609
927 17398
927 21494
928 1520
928 2717
928 4158
928 6815
928 7050
928 15655
928 16838
928 17184
928 18733
928 19460
928 20744
928 21232
928 23522
929 2557
929 4011
929 7498
929 8436
929 22349
930 3708
930 11583
930 11707
930 11941
931 1881
931 3865
931 4363
931 11538
931 12296
931 14652
931 16216
931 20330
931 23357
931 24256
931 24300
932 1682
932 9443
932 20477
932 21885
932 23426
933 2644
933 6212
933 7277
933 16859
934 2411
934 4854
934 17055
934 21720
935 1973
935 3010
935 5157
935 5241
935 5710
935 9449
935 12743
935 14428
935 16364
935 16717
935 16938
935 17752
935 20174
935 20556
935 22661
936 19318
937 2878
937 6659
937 23706
937 23868
937 24330
938 4843
938 6300
938 8260
938 11784
938 12897
938 13372
938 19256
938 20757
939 961
939 2336
939 3488
940 8833
940 12384
940 16331
940 22342
940 22653
941 4057
941 4061
942 8019
942 21681
943 3459
943 4121
943 5332
943 8528
943 11101
943 14973
943 16231
943 18061
943 18905
943 19579
943 20801
943 21234
943 21612
943 21912
944 8449
944 10384
944 10765
944 12629
944 21555
945 2851
945 5346
945 14338
945 15270
945 19047
945 19777
946 3548
946 11790
946 21507
946 21965
947 6848
947 10557
947 12570
947 15874
947 22310
948 5011
948 12494
948 17962
948 22159
948 23358
949 5120
949 7987
950 3024
950 9673
950 14499
950 22597
950 23605
951 2725
951 23217
951 24141
951 24407
952 11362
953 23217
953 24141
953 24407
954 4532
954 6447
955 1281
955 4761
955 7299
955 7952
955 14407
955 15274
955 22927
956 7322
956 11572
956 11632
957 4108
957 7422
957 10337
957 15260
957 16664
957 17263
957 19779
957 20520
958 7634
958 16728
958 20094
958 20226
959 3332
959 5971
959 6726
959 10696
959 13163
959 15046
959 16604
959 17730
959 18452
959 18509
959 19249
959 19421
959 19450
960 8969
960 9895
960 12106
960 14914
960 19327
961 963
961 1032
961 1246
961 1264
961 1427
961 2010
961 2192
961 2257
961 2531
961 2548
961 2839
961 2967
961 3660
961 3698
961 3894
961 4428
961 4572
961 5168
961 5526
961 5637
961 5677
961 5683
961 6047
961 6464
961 6531
961 6852
961 8018
961 8462
961 8698
961 8763
961 8822
961 8899
961 9405
961 9720
961 10019
961 10050
961 10777
961 11040
961 11050
961 11171
961 11263
961 11801
961 11915
961 11927
961 12084
961 12261
961 12443
961 12808
961 13223
961 13548
961 13566
961 13945
961 14105
961 14180
961 14319
961 14771
961 14839
961 15154
961 15464
961 15735
961 15962
961 16180
961 16249
961 16336
961 16347
961 16404
961 16515
961 16518
961 16860
961 17088
961 17305
961 17498
961 17658
961 18576
961 18832
961 18965
961 19391
961 19511
961 19528
961 19550
961 19585
961 19734
961 19880
961 19900
961 19923
961 19954
961 20064
961 20627
961 20750
961 21028
961 21329
961 21390
961 21979
961 22053
961 22862
961 22947
961 23104
961 23249
961 23283
961 23554
961 23771
962 2704
962 18611
962 20134
962 22173
962 22658
962 23308
963 5328
963 14513
963 18782
964 1572
964 1705
964 11391
964 13833
964 15585
965 2845
965 4170
965 5530
965 9919
965 13802
965 16029
966 5646
966 12877
966 15639
966 16928
967 4448
967 7220
967 7850
967 8215
967 8460
967 12518
967 13035
967 14143
967 15016
967 15189
967 17001
967 23403
968 11843
968 11844
968 20523
969 2610
969 7121
969 7920
969 8281
969 12101
969 12835
969 20613
970 3766
970 14030
970 19597
970 20343
970 23106
971 6530
971 12989
971 16618
971 21881
972 4790
972 12035
972 12056
972 18222
973 5068
973 6421
973 8520
973 12105
973 13326
973 19735
973 20849
974 3248
974 5431
974 6173
974 13976
974 18395
975 1842
975 24365
975 24487
976 1060
976 8886
976 21029
977 3787
977 5213
977 8557
977 11226
977 20336
978 4134
978 4232
978 17849
978 18238
979 1095
979 3969
979 16747
979 19503
979 24400
980 1140
980 6019
980 6642
980 18568
980 23410
981 8797
981 13708
981 20879
981 22079
981 22101
982 1985
982 21344
982 22798
983 6650
983 12716
983 14110
983 15845
983 20228
984 1324
984 6904
984 18844
984 22402
985 7977
986 2320
986 2899
986 5492
986 5852
986 5990
986 7067
986 7475
986 8258
986 8857
986 9501
986 11685
986 11870
986 12059
986 12697
986 15615
986 16430
986 17013
986 17131
986 17210
986 17329
986 17363
986 17673
986 17726
986 17769
986 18335
986 19726
986 20665
986 21310
986 21497
986 22127
987 4821
987 5380
988 8853
988 13111
988 21505
988 21614
989 1858
989 4283
989 12892
989 19122
989 22297
990 1487
990 9610
990 13058
990 16978
990 17865
991 3522
991 8726
992 2145
992 5130
992 8248
992 22631
993 4772
993 6860
993 10628
993 12497
993 21978
993 22141
994 6771
994 8191
994 12663
994 14540
994 23042
994 23845
994 23846
994 23879
994 24103
994 24106
995 4129
995 7171
995 18903
995 20143
995 22119
996 8012
996 9117
996 15925
996 17111
996 17799
996 19203
996 19518
996 22908
997 1673
997 3594
997 17631
997 19428
998 999
998 1585
998 3245
998 5026
998 5091
998 8214
998 12036
998 12778
998 13640
998 14763
998 14764
998 16451
998 23850
998 23942
998 24128
999 5026
999 5091
999 10095
999 24025
1000 14772
1000 14932
1000 15266
1000 17945
1000 19969
1001 24173
1001 24410
1001 24458
1002 1764
1002 3104
1002 12202
1002 23772
1003 1004
1003 1006
1003 2595
1003 6867
1003 13922
1003 23361
1003 23362
1003 23363
1003 24016
1003 24050
1003 24217
1004 1005
1004 1006
1004 5929
1004 13297
1004 16790
1005 1006
1005 5929
1005 16790
1005 23362
1005 23363
1006 5929
1006 23362
1006 24217
1007 4402
1007 8716
1007 10056
1007 12776
1007 22281
1008 11270
1008 16041
1008 16048
1008 16050
1008 16057
1008 17350
1009 1476
1009 5833
1009 9417
1009 20569
1009 23330
1010 6660
1010 13338
1010 14775
1010 14958
1010 15416
1010 15943
1010 17795
1010 20091
1010 22219
1011 11792
1011 11928
1011 12236
1011 12713
1011 15484
1011 18481
1011 20493
1011 20663
1011 21059
1012 1243
1012 15315
1013 2773
1013 11649
1013 15184
1014 1564
1014 6498
1014 11177
1015 2343
1015 4554
1015 8868
1015 12947
1015 15312
1015 16145
1015 22638
1015 23817
1015 24221
1015 24222
1016 8262
1016 9696
1016 12924
1016 13928
1016 21703
1017 1567
1017 1842
1017 3004
1017 4245
1017 5556
1017 6858
1017 7573
1017 7910
1017 11612
1017 23205
1017 23900
1017 24067
1017 24361
1017 24458
1018 2428
1018 5317
1018 9239
1018 21029
1019 5178
1019 24078
1019 24393
1020 1523
1020 2574
1020 2692
1020 3772
1020 6250
1020 7714
1020 11298
1020 17305
1020 17586
1020 18872
1020 20212
1020 22646
1021 6429
1021 15773
1021 19329
1022 10245
1022 10571
1022 22904
1023 16019
1024 3272
1024 7972
1024 9096
1024 9326
1025 1765
1025 14482
1025 19912
1026 6879
1026 10769
1027 7072
1027 11461
1027 13055
1027 14969
1027 20905
1028 8554
1028 19318
1029 8181
1029 8994
1029 13839
1029 13841
1029 14679
1029 15454
1029 15811
1029 18879
1029 21355
1029 22966
1029 23233
1029 23448
1030 4821
1030 5380
1030 9562
1030 11528
1030 14345
1031 4529
1031 4890
1031 6562
1031 11077
1031 19717
1031 23242
1033 7237
1033 10075
1033 10196
1034 4402
1034 8857
1034 18166
1034 19923
1035 2973
1035 4609
1035 9890
1035 16827
1035 23329
1036 4943
1036 5939
1036 9068
1036 10869
1036 12273
1036 18791
1036 20546
1036 21379
1036 21388
1036 22018
1037 17691
1038 1712
1038 1915
1038 3058
1038 7354
1038 9129
1038 10081
1038 11003
1038 13402
1038 15992
1038 17144
1038 17965
1038 18734
1038 18900
1038 19994
1038 22056
1038 22709
1038 23272
1038 23831
1039 3072
1039 11887
1039 11888
1039 19863
1040 2186
1040 3008
1040 9682
1040 10426
1040 14889
1040 20219
1041 4176
1041 8169
1041 20328
1041 22532
1042 4708
1042 4709
1042 7640
1043 1331
1043 5620
1043 8126
1043 10684
1043 11966
1044 2151
1044 3422
1045 3078
1045 9285
1045 12027
1045 14058
1045 19931
1046 8055
1046 10571
1047 2977
1047 13870
1047 20714
1047 23200
1047 23369
1048 4610
1048 6769
1048 10125
1048 11156
1048 14780
1049 1246
1049 20107
1050 1138
1050 8936
1050 10305
1050 10539
1050 17534
1050 17653
1050 20872
1050 22046
1050 22474
1051 2394
1051 3641
1051 4101
1051 4749
1051 8634
1051 14369
1051 15300
1051 17480
1051 22475
1051 22909
1052 8906
1052 8980
1052 13577
1052 17613
1052 23082
1053 1441
1053 8034
1053 23307
1054 1074
1054 5636
1054 10921
1054 15823
1054 17521
1054 19898
1055 1141
1055 4375
1055 5676
1055 6783
1055 6985
1055 12110
1055 15035
1055 15225
1055 15535
1055 15689
1056 3452
1056 4829
1056 12243
1056 14462
1056 19258
1056 21309
1056 23556
1057 5142
1057 24213
1057 24249
1057 24308
1058 8735
1058 10740
1058 10934
1058 14232
1058 22899
1058 23089
1058 23312
1058 23919
1058 24400
1059 1808
1059 9703
1059 14261
1059 15267
1059 17483
1060 6632
1060 7391
1061 12122
1061 12123
1061 15452
1061 15934
1061 22249
1061 22572
1061 22920
1062 1083
1062 3111
1062 5494
1062 5679
1062 5826
1062 5849
1062 5984
1062 7110
1062 8470
1062 9848
1062 13011
1062 14509
1062 15911
1062 21511
1062 22944
1063 5779
1063 5782
1063 8815
1063 12911
1063 12995
1064 3604
1064 4617
1064 10609
1064 18284
1065 3823
1065 12772
1065 14427
1065 19968
1065 23476
1065 23853
1066 2254
1066 20277
1067 6219
1067 8703
1067 8859
1067 12923
1067 13489
1068 2020
1068 12159
1069 9623
1069 10852
1069 16007
1070 7720
1071 3588
1071 4950
1071 5194
1071 5759
1071 8378
1071 9420
1071 14788
1071 17998
1071 20948
1071 23576
1072 7859
1072 8930
1072 24083
1072 24380
1073 3364
1073 3381
1073 6086
1073 15262
1073 16994
1074 1962
1074 2223
1074 3647
1074 5636
1074 6814
1074 10768
1074 10921
1074 14858
1074 15823
1074 16723
1074 17521
1074 19898
1074 22269
1075 1996
1075 4521
1075 5855
1075 5870
1075 5894
1075 8767
1075 11709
1075 14040
1075 15078
1075 15470
1075 15624
1075 17112
1075 18004
1075 18534
1075 19674
1075 22154
1075 22224
1076 3725
1076 8973
1076 11704
1076 16870
1076 22330
1077 8565
1077 8749
1077 10398
1077 22781
1077 23057
1078 5191
1078 13623
1078 14363
1078 18071
1079 4237
1079 21656
1080 7100
1080 20417
1081 17075
1081 18111
1081 21207
1081 23229
1081 23578
1082 2592
1082 13085
1082 17977
1082 20795
1083 3111
1083 5849
1083 15911
1084 1551
1084 3311
1084 6849
1084 8246
1084 9713
1084 14342
1084 14938
1085 5372
1085 12043
1085 23924
1085 23930
1086 4322
1086 8515
1086 9637
1086 20848
1087 19428
1087 20683
1087 23201
1088 1553
1088 3233
1088 5321
1088 10341
1088 11380
1088 11437
1088 21700
1089 1597
1089 4598
1089 6794
1089 11092
1089 13733
1089 23704
1090 2946
1090 5550
1090 9293
1090 12076
1090 23873
1091 6551
1091 9023
1091 15991
1091 21556
1091 22156
1092 2646
1092 19004
1092 23615
1092 23861
1093 6472
1093 6841
1093 8857
1094 6760
1094 7046
1094 15818
1094 21306
1095 1103
1095 1282
1095 1296
1095 11419
1095 12166
1095 13357
1095 18070
1095 18218
1095 20701
1096 5960
1097 3003
1097 11139
1097 13477
1097 17127
1098 1729
1098 3027
1098 10190
1098 12404
1098 14004
1098 14224
1098 16749
1098 17202
1098 17491
1098 21772
1098 22457
1099 2027
1099 6398
1099 9517
1099 12441
1099 13438
1099 13439
1099 20975
1099 23757
1100 7843
1100 8735
1100 9884
1100 23570
1100 23791
1100 24255
1101 9146
1101 10191
1101 18361
1101 22701
1101 22757
1101 23237
1102 2488
1102 15360
1103 16747
1104 13094
1104 17939
1104 23435
1105 1822
1105 8631
1105 15930
1105 20831
1106 18998
1106 19318
1107 5003
1107 10030
1107 16229
1107 20494
1108 2962
1108 22647
1108 24384
1109 2206
1109 11700
1109 23894
1109 24146
1110 5359
1110 6640
1110 9612
1110 9613
1110 12419
1110 15000
1110 15412
1110 20469
1110 21096
1110 22781
1110 23057
1111 9100
1111 11861
1111 15991
1112 3073
1112 5750
1112 6347
1112 7027
1112 7284
1112 12493
1112 13097
1112 15124
1113 3540
1113 3914
1113 4935
1113 10567
1113 11413
1114 2588
1114 6472
1114 8857
1114 11891
1114 14877
1114 23369
1115 1445
1115 10853
1115 11499
1115 15366
1115 20660
1116 1165
1116 8075
1116 11898
1116 11899
1116 12917
1116 13021
1116 13022
1116 18002
1116 20128
1116 23372
1117 2851
1117 12021
1117 20181
1118 1136
1118 7141
1118 14732
1118 16713
1118 16958
1118 22685
1119 2479
1119 4959
1119 6543
1119 7558
1119 22283
1120 15612
1120 17850
1121 10091
1121 10263
1121 16898
1121 19596
1121 20048
1122 2160
1122 4638
1122 6675
1122 17107
1122 21255
1123 1131
1123 5528
1123 19022
1123 21834
1124 4159
1124 9255
1124 9746
1124 11386
1124 11957
1124 14808
1124 15561
1124 16600
1124 22044
1125 5009
1125 5099
1125 6674
1125 14974
1125 16133
1125 22394
1126 3023
1126 7014
1126 12203
1126 16131
1126 18109
1127 1913
1127 3843
1127 7965
1127 9655
1127 13233
1127 14121
1127 14922
1127 15715
1127 17712
1127 18035
1128 1368
1128 2192
1128 3336
1128 4260
1128 5683
1128 8173
1128 9036
1128 9405
1128 9651
1128 15882
1128 16249
1128 16336
1128 18965
1128 19314
1128 19391
1128 19954
1128 20627
1128 21136
1128 23028
1128 24018
1129 8719
1129 8939
1129 12621
1129 13713
1129 14510
1129 17401
1129 21639
1130 4269
1130 14558
1130 17197
1130 21786
1131 3948
1131 4215
1131 4743
1131 6436
1131 7844
1131 11997
1131 14847
1131 15958
1131 17966
1131 18642
1131 19860
1132 8081
1132 9510
1132 15924
1132 20163
1132 20933
1133 3028
1133 23814
1134 1246
1134 17305
1134 20107
1135 2260
1135 2285
1135 20306
1135 20533
1136 7253
1136 12654
1136 14243
1136 14732
1136 16958
1136 22109
1136 22685
1137 10091
1137 10263
1137 16898
1137 19596
1137 20048
1138 2162
1138 2960
1138 4299
1138 5611
1138 9594
1138 10539
1138 16428
1138 20939
1138 22046
1138 22474
1139 2342
1139 9502
1139 10772
1139 13580
1139 13642
1139 15003
1139 20318
1140 2532
1140 14120
1141 5676
1141 10431
1141 14716
1141 15689
1142 3222
1142 5456
1142 5485
1142 5877
1142 10027
1142 10163
1142 14817
1142 20928
1142 22318
1142 22526
1143 4996
1143 8567
1143 8568
1143 9591
1143 11809
1143 17518
1144 4287
1144 9317
1144 9536
1144 11023
1144 23979
1144 24164
1144 24272
1145 2355
1145 2486
1145 10861
1145 13908
1145 15213
1145 15506
1145 19820
1146 1474
1146 3707
1146 9616
1146 11885
1146 14076
1147 7888
1147 12391
1147 14874
1147 18781
1148 1989
1148 5543
1148 8371
1148 10170
1148 21252
1149 4972
1149 8348
1149 12454
1149 15896
1150 10678
1150 12632
1150 20771
1150 22894
1151 3948
1151 8753
1151 12819
1151 21834
1152 4847
1152 9694
1152 13251
1152 21015
1153 3326
1153 4237
1153 21656
1154 3992
1154 5190
1154 6051
1154 8023
1154 15543
1154 17272
1155 3873
1155 13625
1155 18893
1155 19373
1155 22191
1155 22409
1156 6199
1156 10864
1156 24145
1156 24476
1156 24480
1157 8228
1157 12382
1157 23784
1158 13072
1158 21003
1158 22429
1159 6010
1159 10205
1159 14722
1159 16808
1159 17019
1160 2919
1160 5559
1160 10860
1160 18178
1160 19497
1161 1199
1161 1508
1161 1757
1161 7507
1161 8341
1161 9908
1161 21631
1162 1202
1162 1950
1162 15108
1163 4789
1163 14135
1163 19785
1164 2320
1164 13179
1164 17363
1165 11898
1165 13021
1165 23378
1166 5360
1166 8530
1166 10877
1166 21201
1167 6122
1167 9384
1167 10214
1167 16821
1167 24080
1168 1735
1168 5784
1168 7956
1168 7959
1168 11465
1168 11466
1168 11877
1168 13724
1168 19720
1169 2382
1169 4584
1169 5698
1169 7359
1169 7774
1169 10004
1169 20866
1170 2275
1170 2597
1170 2740
1170 3146
1170 7377
1170 9370
1170 11757
1170 14951
1170 18952
1170 19446
1170 19995
1170 20069
1170 21519
1170 21521
1170 21773
1170 23073
1171 7311
1171 9329
1172 6573
1172 8125
1172 18012
1172 22568
1173 3518
1173 8180
1173 8603
1173 21222
1173 21911
1174 7316
1174 8236
1174 8597
1174 18953
1174 23626
1175 8512
1175 14272
1175 16662
1176 8244
1176 9658
1176 14583
1176 15573
1176 17304
1177 12303
1177 15735
1177 16275
1177 17498
1177 21731
1178 4701
1178 7585
1178 9747
1178 12897
1179 1608
1179 4312
1179 4405
1179 4482
1179 6584
1179 12600
1179 13277
1179 15492
1179 16335
1179 16989
1179 21858
1180 17369
1181 6510
1181 12129
1181 14616
1181 15023
1181 19780
1181 22929
1182 7572
1182 7914
1182 8179
1182 8811
1182 16846
1183 6970
1183 7372
1183 7668
1183 9607
1183 14439
1183 20320
1184 3128
1184 4204
1184 10062
1184 14694
1184 18453
1185 3513
1185 3913
1185 5307
1185 7444
1185 8978
1185 12030
1185 14003
1185 19299
1185 20052
1185 22243
1186 2046
1186 9683
1186 16558
1186 18012
1186 22568
1186 23144
1187 1917
1187 2925
1187 23492
1187 23916
1188 3642
1188 6859
1188 8150
1189 2466
1189 2577
1189 4308
1189 6848
1189 10557
1189 14332
1189 14512
1189 16442
1189 18736
1189 20787
1190 2953
1190 3414
1190 3631
1190 9169
1190 9851
1190 10127
1190 10971
1190 11034
1190 11132
1190 12718
1190 13280
1190 13817
1190 14236
1190 14825
1190 15346
1190 15793
1190 16251
1190 17496
1190 18682
1190 18846
1190 19351
1190 19586
1190 20630
1190 20733
1190 21160
1190 23080
1190 24381
1191 7000
1191 10347
1191 13181
1191 14806
1192 9306
1192 9783
1193 1194
1193 1195
1193 1736
1193 6548
1194 1195
1194 15970
1195 6548
1195 23378
1196 3648
1196 7423
1196 10749
1196 16939
1196 18957
1197 5903
1197 10893
1197 21711
1198 4813
1198 11640
1199 1508
1199 1757
1199 3778
1199 3838
1199 5122
1199 6426
1199 7507
1199 8139
1199 8341
1199 9176
1199 9908
1199 17320
1199 18115
1199 18293
1199 18425
1199 19709
1199 21631
1199 21649
1199 23052
1200 6530
1200 9814
1200 16618
1200 17162
1201 14450
1201 16517
1201 19318
1201 22025
1202 1950
1202 14692
1202 15108
1202 20796
1203 8360
1203 10495
1203 16070
1204 12290
1204 12291
1204 23781
1205 2145
1205 4303
1205 5130
1205 5622
1205 6224
1205 6471
1205 6535
1205 8917
1205 11987
1205 12668
1205 14017
1205 20200
1205 21359
1205 21447
1206 7793
1206 11405
1206 19611
1206 20653
1207 2297
1207 2390
1207 6009
1207 12099
1207 13552
1207 14782
1207 15821
1207 16760
1207 17791
1207 18081
1207 23194
1208 19128
1208 19131
1208 22286
1208 22964
1209 2676
1209 5567
1209 7856
1209 8973
1209 12351
1209 20823
1210 3373
1210 4160
1210 8068
1210 12019
1210 17598
1210 22729
1211 1574
1211 1954
1211 4517
1211 10148
1211 10940
1211 17286
1211 22557
1212 1513
1212 2351
1212 2982
1212 3494
1212 3561
1212 4578
1212 4714
1212 5961
1212 8551
1212 12913
1212 17216
1212 17566
1212 19395
1212 19889
1213 5344
1213 16188
1213 23367
1213 23635
1213 24058
1213 24275
1214 4170
1214 5313
1214 5623
1214 10673
1214 12864
1214 13864
1214 18080
1215 3027
1215 5618
1215 11473
1215 14224
1215 16173
1216 10237
1216 13564
1216 17812
1217 2977
1217 8857
1217 9569
1217 17419
1218 1596
1218 4229
1218 4505
1218 9105
1218 16436
1218 17794
1218 17809
1219 4266
1219 6240
1219 11251
1219 17868
1219 21953
1220 5870
1220 15470
1220 15624
1220 18534
1221 4807
1221 5534
1221 14248
1221 22317
1222 3396
1222 3995
1222 5100
1222 10985
1222 11489
1222 12888
1222 16100
1223 21299
1223 21300
1224 6331
1224 6828
1224 9035
1224 12501
1224 14967
1224 15094
1224 18319
1224 19526
1224 20310
1224 21166
1224 23122
1225 3604
1225 5112
1226 3268
1226 15538
1226 15704
1226 18261
1226 20718
1227 1423
1227 11441
1227 14525
1227 19160
1227 22829
1228 10851
1228 11096
1228 13213
1228 14176
1228 17598
1228 18041
1228 18717
1228 19426
1228 21218
1229 16318
1229 23112
1230 2320
1230 13179
1230 13620
1230 17131
1231 1797
1231 3181
1231 13273
1231 22741
1232 2778
1232 18419
1233 3813
1233 4779
1233 5352
1233 19667
1233 23967
1233 24169
1234 8088
1234 8985
1234 10063
1234 11329
1234 12509
1234 20135
1234 21482
1235 4905
1235 8638
1235 10434
1236 1249
1236 16405
1236 21821
1237 3992
1237 10914
1238 6287
1238 8137
1238 23792
1238 24397
1238 24399
1239 3051
1239 3557
1239 3751
1239 4839
1239 4867
1239 4888
1239 6805
1239 12939
1239 15143
1239 15748
1239 18389
1240 15314
1240 15489
1240 23533
1241 7450
1242 8098
1242 12837
1243 2541
1243 4390
1243 9018
1243 22696
1244 4294
1244 11328
1244 15828
1244 17894
1244 18796
1245 1353
1245 1753
1245 2710
1245 3239
1245 5095
1245 6065
1245 6715
1245 6952
1245 7514
1245 8110
1245 8715
1245 11158
1245 12090
1245 13113
1245 14572
1245 15787
1245 15907
1245 18090
1245 18637
1245 18749
1245 19538
1245 19653
1245 21713
1245 23692
1246 2010
1246 3298
1246 4398
1246 4469
1246 5798
1246 5824
1246 6047
1246 6733
1246 7943
1246 8698
1246 10309
1246 12443
1246 12619
1246 13406
1246 13527
1246 15154
1246 15290
1246 16161
1246 16180
1246 16187
1246 16404
1246 16860
1246 17305
1246 18112
1246 18576
1246 18782
1246 19116
1246 19461
1246 19928
1246 21230
1246 21329
1246 21597
1246 22399
1246 23249
1246 23275
1246 23554
1247 1622
1247 1673
1247 11558
1247 12936
1247 15258
1247 18116
1248 1630
1248 19400
1249 2399
1249 3533
1249 16405
1249 21821
1250 3239
1250 12303
1250 12709
1250 13294
1250 15453
1251 9780
1251 14978
1251 18333
1251 23887
1251 24087
1252 5820
1252 16698
1252 20144
1253 1507
1253 7876
1253 11902
1253 20634
1253 23412
1254 5964
1254 8955
1254 9492
1254 13347
1254 15751
1254 16208
1254 18464
1254 23198
1255 8306
1255 9804
1255 18820
1255 20370
1256 5479
1256 7021
1256 9821
1256 10655
1256 15839
1256 21477
1257 5090
1257 8560
1257 11484
1257 14316
1257 19366
1258 1480
1258 1548
1258 1983
1258 2325
1258 4402
1258 4618
1258 5725
1258 5878
1258 6152
1258 8663
1258 9916
1258 10355
1258 10915
1258 11236
1258 11353
1258 13407
1258 13469
1258 13544
1258 13741
1258 13820
1258 14328
1258 14490
1258 15351
1258 15636
1258 16081
1258 17503
1258 17957
1258 18009
1258 18697
1258 19371
1258 19671
1258 20656
1258 21602
1258 21967
1258 22281
1258 22669
1258 22725
1258 23768
1259 5187
1259 7052
1259 24110
1260 3529
1260 13221
1260 23405
1261 3526
1261 4540
1261 8694
1261 12792
1262 3750
1262 5239
1262 19134
1263 3457
1263 19318
1263 20107
1264 17305
1264 18782
1265 3542
1265 16391
1265 20661
1266 2491
1266 5995
1266 8468
1266 9368
1266 9882
1266 10491
1266 11579
1266 12376
1266 12559
1266 14340
1266 17604
1266 23483
1267 1626
1267 2360
1267 3165
1267 4868
1267 6912
1267 7890
1267 23078
1268 4402
1268 14877
1268 20377
1269 2813
1269 5702
1269 16302
1270 19910
1271 3077
1271 6483
1271 10035
1271 16196
1271 21551
1272 3916
1272 12434
1272 19259
1272 20264
1273 3952
1273 5966
1273 10427
1273 18363
1273 21039
1274 5743
1274 6167
1274 14047
1274 17271
1275 5285
1275 5764
1275 6163
1275 6816
1275 7439
1275 10061
1275 16223
1275 22659
1276 1277
1276 2021
1276 2817
1276 13577
1277 2817
1277 13577
1277 19401
1277 19759
1279 1280
1279 2276
1280 18428
1281 1768
1281 2500
1281 3944
1281 4062
1281 4761
1281 5782
1281 6215
1281 6766
1281 8267
1281 12686
1281 16452
1281 16657
1281 17154
1281 17435
1281 17517
1281 19500
1281 20866
1281 22927
1282 11419
1282 16747
1282 23312
1283 3305
1283 10470
1283 12214
1283 13182
1283 15241
1283 19771
1283 19987
1283 21845
1283 22168
1284 3576
1284 4637
1284 10004
1284 14343
1284 18358
1284 19040
1284 20554
1285 3866
1285 4254
1285 4637
1285 10004
1285 18355
1286 5669
1286 8670
1286 11973
1286 13088
1286 16338
1286 18466
1286 19793
1286 20290
1287 7684
1287 11508
1287 23323
1287 23864
1287 24168
1288 5420
1288 15840
1288 19198
1288 21614
1289 1909
1289 21471
1290 7995
1290 10166
1290 14432
1290 14479
1290 19214
1290 20980
1290 21011
1291 6827
1291 15827
1291 17593
1291 20534
1291 21737
1292 2469
1292 23799
1292 24026
1292 24243
1293 1946
1293 3466
1293 4541
1293 22281
1294 3533
1294 16405
1294 22914
1295 2855
1295 3546
1295 4727
1295 5288
1295 10046
1295 13999
1295 17290
1295 19762
1295 23931
1295 24310
1296 19503
1297 16598
1297 18332
1297 23495
1298 4855
1298 4873
1298 5812
1298 9390
1298 14095
1298 18505
1298 19043
1298 19712
1298 20658
1298 21220
1299 1478
1299 2004
1299 2417
1299 7488
1299 9784
1299 11186
1299 11400
1299 13510
1299 14127
1299 14481
1299 14816
1299 16658
1299 17999
1299 18154
1299 18269
1299 19207
1299 22252
1300 5676
1300 10431
1300 15035
1301 3585
1301 4733
1301 7999
1301 9570
1301 9814
1301 9856
1301 12658
1301 13238
1301 13252
1301 13825
1301 14076
1301 16618
1301 17836
1301 18013
1301 18138
1301 21881
1301 22483
1302 1409
1302 2054
1303 5362
1303 15424
1303 16743
1303 17469
1304 2519
1304 5177
1304 17609
1304 21893
1305 3978
1305 17299
1305 17508
1305 17985
1306 4669
1306 7685
1306 17636
1306 17741
1306 23223
1307 2408
1307 6752
1307 9060
1307 24207
1307 24208
1307 24357
1307 24373
1308 1485
1308 1905
1308 1991
1308 2806
1308 3226
1308 4188
1308 8493
1308 8609
1308 9190
1308 14394
1308 18251
1308 21371
1308 23336
1308 24171
1309 7295
1309 13921
1309 20717
1309 20732
1309 22391
1310 10034
1310 13445
1310 18169
1310 20448
1310 23589
1311 2280
1311 8916
1311 23255
1312 5133
1312 6902
1312 14705
1312 21158
1312 21357
1312 22942
1313 4880
1313 6039
1313 10646
1313 14675
1313 18532
1313 24421
1314 5601
1314 5753
1314 10494
1314 12660
1314 12933
1314 13628
1314 17944
1314 18480
1314 21162
1314 23509
1315 3312
1315 4410
1315 6297
1315 19311
1315 19703
1316 4325
1316 16414
1316 16572
1316 18759
1316 19080
1316 21364
1317 1495
1317 12756
1317 18143
1317 19981
1317 20622
1318 3225
1318 9285
1318 12027
1318 18916
1318 19931
1319 4762
1319 13095
1319 13964
1319 17733
1319 20257
1320 3313
1320 10392
1320 20623
1321 11024
1321 12434
1321 16358
1321 20264
1322 11405
1322 20653
1323 14761
1323 15914
1323 18760
1323 20233
1323 21745
1323 22730
1324 6504
1324 22701
1325 1750
1325 2576
1325 7849
1325 24174
1325 24311
1325 24417
1326 4629
1326 19318
1326 23328
1327 1328
1327 1330
1327 10394
1327 16087
1328 1329
1328 9244
1328 9245
1328 17690
1328 17856
1328 18988
1328 18989
1328 19996
1328 21715
1328 22452
1329 9244
1329 10394
1329 17690
1329 18989
1330 16087
1330 18989
1330 22452
1331 2900
1331 4000
1331 5620
1331 6696
1331 7298
1331 8510
1331 9372
1331 9565
1331 10582
1331 10684
1331 11280
1331 14234
1331 16568
1331 16674
1331 18018
1331 18055
1331 18139
1331 18635
1331 20883
1331 21247
1331 23175
1331 24137
1332 2723
1332 4140
1332 7038
1332 8570
1332 10290
1332 20875
1333 2321
1333 3138
1333 3460
1333 13037
1333 21998
1334 1606
1334 8019
1334 21345
1335 6061
1335 19968
1335 23356
1336 2271
1336 7959
1336 8032
1336 11877
1336 13887
1337 13301
1337 13875
1337 15834
1337 15837
1337 21229
1338 1339
1338 5462
1338 5463
1338 15621
1338 15852
1338 15854
1338 15856
1338 19663
1338 22117
1339 6502
1339 6622
1339 15621
1339 15852
1339 15855
1339 22117
1340 14643
1340 21270
1340 22437
1341 6360
1341 19058
1341 20133
1342 4010
1342 4645
1342 5624
1342 9114
1342 9321
1342 14709
1342 23281
1343 7043
1343 12289
1343 12290
1343 12291
1343 24176
1344 2238
1344 10359
1344 10475
1344 19744
1345 2131
1345 7028
1345 7464
1345 11606
1345 18676
1345 19689
1346 8930
1346 24083
1346 24228
1347 3175
1347 6560
1347 17064
1348 8245
1348 8355
1348 16223
1348 22493
1348 22676
1349 9228
1349 18862
1349 23270
1350 5553
1350 15648
1351 14569
1351 15610
1351 19611
1351 20199
1352 2144
1352 2198
1352 6779
1352 9011
1352 16615
1352 18123
1352 20845
1353 1753
1353 3991
1353 5095
1354 6218
1354 14682
1354 15529
1354 18052
1354 23494
1355 1512
1355 5188
1356 7175
1356 10589
1356 19639
1356 21626
1357 5714
1357 6576
1357 11056
1357 12047
1357 12393
1358 14450
1358 19318
1359 7700
1359 19262
1359 19264
1360 2390
1360 4712
1360 10712
1360 14383
1360 17838
1360 20696
1360 21975
1361 4017
1361 5815
1361 19515
1362 3531
1362 3912
1362 4567
1362 4644
1362 5684
1362 10481
1362 13666
1362 15128
1362 19486
1363 2902
1363 7343
1363 17077
1363 17669
1363 22422
1364 1666
1364 10612
1364 16597
1365 12204
1365 12812
1365 13745
1365 15112
1365 18929
1365 22131
1365 22257
1365 22458
1366 21009
1366 22913
1367 1515
1367 1979
1367 15615
1368 3239
1368 12735
1368 12897
1369 5187
1369 23676
1369 24240
1370 2058
1370 2609
1370 23732
1370 23921
1370 24197
1371 4534
1371 7704
1371 11116
1371 12710
1371 13738
1371 14433
1371 21091
1371 22969
1371 23639
1372 7197
1372 8812
1372 15538
1372 19634
1373 7253
1373 14243
1373 14732
1373 22685
1374 2317
1374 2543
1374 4624
1374 20985
1375 1439
1375 6103
1375 6122
1375 10214
1375 23937
1376 1494
1376 1995
1376 3948
1376 5489
1376 21834
1377 3386
1377 9644
1377 12404
1378 2487
1378 4029
1378 8410
1378 9875
1378 10798
1378 14653
1378 14941
1378 19113
1379 9038
1379 19797
1380 2429
1380 5437
1380 5758
1380 8754
1380 9361
1380 11661
1380 12771
1380 18694
1380 22157
1380 23187
1381 15670
1381 15795
1381 18831
1381 19636
1381 21427
1382 8458
1382 8508
1382 9560
1382 13879
1382 17887
1383 2189
1383 2993
1383 3224
1383 3370
1383 4227
1383 5205
1383 6309
1383 6652
1383 6946
1383 7520
1383 8548
1383 9862
1383 10151
1383 11306
1383 11403
1383 11897
1383 11986
1383 12504
1383 12605
1383 13282
1383 13475
1383 13859
1383 14861
1383 16421
1383 17778
1383 20044
1383 20080
1383 21055
1383 21146
1384 2866
1384 3506
1384 4935
1384 8785
1384 15070
1384 21429
1384 22542
1385 3878
1385 11493
1385 13320
1385 14949
1385 16083
1386 14280
1386 15344
1386 19733
1387 3675
1387 4322
1387 9637
1387 18520
1387 19171
1388 6882
1388 13462
1388 20605
1388 21687
1388 22523
1388 23735
1388 23824
1388 24015
1388 24235
1388 24301
1389 13916
1389 14893
1389 18959
1389 20844
1390 5588
1390 6611
1390 8857
1390 21487
1390 22948
1391 5695
1391 23835
1391 24375
1392 2642
1392 8251
1392 24298
1392 24475
1393 6581
1393 11317
1393 15904
1393 18803
1394 14071
1394 20319
1395 10558
1395 11514
1396 5689
1396 7071
1396 7823
1396 17443
1396 23202
1397 17865
1398 1600
1398 2739
1398 4816
1398 4832
1398 6534
1398 7586
1398 11210
1398 11541
1398 19148
1398 23369
1398 24479
1399 8528
1399 13987
1399 18099
1399 21234
1400 19115
1400 21397
1401 8904
1401 12079
1401 21437
1402 11619
1402 14940
1402 17642
1402 18680
1403 2673
1403 10082
1403 10206
1403 16273
1403 19562
1404 4703
1404 20294
1404 21855
1405 12985
1405 15905
1405 16489
1405 21626
1406 19745
1406 21165
1406 21437
1407 1662
1407 3630
1407 3906
1407 4953
1407 6188
1407 6507
1407 10192
1407 11852
1407 20646
1407 20843
1408 5545
1408 7722
1408 8821
1408 16483
1408 23604
1409 2054
1409 2506
1409 4047
1409 4704
1409 5405
1409 6403
1409 6500
1409 7859
1409 8637
1409 8930
1409 10367
1409 11338
1409 11599
1409 15580
1409 16731
1409 18808
1409 20867
1409 22699
1409 22783
1409 23659
1409 23949
1409 24385
1410 7408
1410 21786
1411 11083
1411 14946
1411 15009
1411 20054
1412 2216
1412 3887
1412 6588
1412 9524
1412 14532
1412 19487
1412 20923
1413 1676
1413 5063
1413 7198
1413 14561
1414 9977
1415 1555
1415 4337
1415 15086
1415 15087
1415 20763
1416 6045
1416 15805
1416 17234
1416 21398
1417 8082
1417 9175
1417 16725
1417 19424
1417 20448
1417 20989
1418 3632
1418 16583
1418 17090
1418 20114
1418 20271
1419 2523
1419 5871
1419 21721
1420 5019
1420 7587
1420 17695
1420 19040
1421 2619
1421 3158
1421 15802
1421 23067
1422 4809
1422 13873
1422 14988
1422 15452
1422 18274
1423 11441
1424 5568
1424 6589
1424 6592
1424 6593
1424 15295
1424 16200
1424 17316
1424 18825
1424 19870
1425 10604
1425 11861
1426 12693
1426 15127
1427 2336
1427 17305
1428 14450
1428 19318
1429 3381
1429 20379
1429 22799
1430 4156
1430 13291
1430 17528
1431 2540
1431 3676
1431 4791
1431 7064
1431 11370
1431 12405
1431 23423
1432 3107
1432 4149
1432 5117
1432 15974
1432 16933
1432 22473
1433 3787
1433 5213
1433 13267
1434 3239
1434 15453
1435 2346
1435 4256
1435 8905
1435 9717
1435 10500
1436 1609
1436 2811
1436 10034
1436 18372
1437 3225
1437 12027
1438 2551
1438 9764
1438 18336
1438 20790
1438 22513
1439 6103
1439 6676
1439 7681
1440 2891
1440 8232
1440 9586
1440 11509
1440 24412
1441 9687
1441 17905
1442 1528
1442 1639
1442 3141
1442 3292
1442 6308
1442 6594
1442 7096
1442 8800
1442 11007
1442 12234
1442 13319
1442 14585
1442 14859
1442 16556
1442 16955
1442 21593
1442 21614
1442 21878
1442 23185
1442 23393
1443 2009
1443 4623
1443 6719
1444 11432
1444 23847
1444 24186
1445 1733
1445 2420
1445 3659
1445 6509
1445 6940
1445 7563
1445 7696
1445 8074
1445 8389
1445 8577
1445 9323
1445 9428
1445 10853
1445 11499
1445 12408
1445 12432
1445 12717
1445 13679
1445 13810
1445 14226
1445 15226
1445 15417
1445 15520
1445 15570
1445 19048
1445 20759
1445 22446
1445 23751
1445 23764
1446 1640
1446 4603
1446 5439
1446 5989
1446 12723
1446 15239
1446 20459
1447 2527
1447 2886
1447 12023
1447 16086
1447 17711
1447 18242
1447 19073
1447 19835
1447 20148
1447 20815
1448 16632
1449 6596
1449 7711
1449 9493
1449 9769
1449 23005
1450 6990
1450 6991
1450 8046
1450 8047
1450 10402
1450 14535
1451 9134
1451 21339
1451 23470
1452 5031
1452 5561
1452 6487
1452 6595
1452 9716
1452 11035
1452 11036
1452 11517
1452 11519
1452 14588
1452 15285
1452 20763
1452 21914
1453 5088
1453 6455
1453 18214
1453 21527
1453 22708
1454 4437
1454 7176
1455 4668
1455 20976
1455 21101
1455 22236
1456 15298
1456 18040
1456 19283
1457 1548
1457 2325
1457 14877
1457 19061
1458 4448
1458 10801
1458 11591
1458 13799
1459 4753
1459 7733
1459 8272
1459 10283
1459 10422
1459 10487
1459 11567
1459 11724
1459 12407
1459 15137
1459 15527
1459 16701
1459 17167
1459 22369
1460 4619
1460 6722
1460 10142
1460 19374
1461 3041
1461 16624
1461 16768
1462 8114
1462 9760
1462 13982
1462 15039
1462 16054
1462 18031
1462 18516
1462 20510
1463 12204
1463 12812
1464 5956
1464 7796
1464 10222
1464 10948
1464 12113
1465 3404
1465 17126
1465 19468
1465 19469
1466 1552
1466 2754
1466 7832
1466 8117
1466 10429
1466 21076
1467 6438
1467 8989
1467 15794
1467 16285
1468 24138
1469 12211
1469 22361
1469 23490
1470 7977
1470 10959
1470 21556
1471 9534
1471 11965
1471 17662
1471 21498
1472 5328
1473 9411
1473 12683
1474 3707
1474 9616
1474 16268
1475 3493
1475 11540
1475 17541
1475 17626
1475 19772
1476 4630
1476 5833
1476 16017
1476 23330
1476 23523
1477 4705
1477 10011
1477 14253
1477 16285
1478 2004
1478 2373
1478 16469
1479 2836
1479 19176
1479 21171
1480 1548
1480 2325
1480 4402
1480 14877
1481 6710
1481 6712
1481 9859
1481 12990
1482 2400
1482 9211
1482 10348
1482 24316
1483 1534
1483 7940
1483 10551
1483 15204
1483 21587
1484 2589
1484 2797
1484 19569
1485 7651
1485 23987
1485 24057
1486 11362
1486 23778
1487 7361
1487 7462
1487 14144
1487 16978
1487 17891
1487 18176
1487 19118
1487 21798
1488 4799
1488 7065
1488 7575
1488 12579
1488 17871
1488 19347
1489 6009
1489 6785
1489 7411
1489 8847
1489 17791
1489 20269
1490 4701
1490 5160
1490 7446
1490 21929
1491 16768
1492 21556
1492 21781
1493 6025
1493 12806
1493 18622
1493 19580
1493 22834
1494 3948
1494 12819
1494 21834
1495 6227
1495 7707
1495 9879
1496 3177
1496 5015
1496 10420
1496 10502
1496 13750
1496 21186
1496 22972
1497 2237
1497 5282
1497 10714
1497 10715
1497 11081
1497 11796
1497 11797
1497 17404
1497 17926
1498 7447
1498 7516
1498 7780
1498 14255
1498 19613
1498 21892
1499 4954
1499 7278
1499 8226
1499 10126
1499 11919
1499 14077
1499 14883
1500 4550
1500 7359
1500 20866
1500 21319
1501 3097
1501 6777
1501 13605
1501 17421
1501 22212
1502 7662
1502 8047
1502 13615
1502 13616
1503 1781
1503 2803
1503 3145
1503 3769
1503 4027
1503 4436
1503 5116
1503 5712
1503 6129
1503 6935
1503 7906
1503 7998
1503 9387
1503 9594
1503 10711
1503 12108
1503 13656
1503 14421
1503 15538
1503 16149
1503 16194
1503 16540
1503 16804
1503 17376
1503 18238
1503 18631
1503 18765
1503 19228
1503 19265
1503 20718
1503 21675
1503 21956
1503 22308
1503 22365
1503 22530
1503 22801
1503 23216
1504 1507
1504 7876
1504 14473
1504 15940
1504 18202
1505 1506
1505 7876
1505 15940
1505 20634
1506 1507
1506 7658
1506 7876
1506 10031
1506 11901
1506 11902
1506 14473
1506 15183
1506 15940
1506 18203
1506 20634
1506 21901
1506 22378
1506 23412
1507 2139
1507 2204
1507 7228
1507 7655
1507 7658
1507 7876
1507 9126
1507 11902
1507 15940
1507 17010
1507 18202
1507 18203
1507 20116
1507 20198
1507 20633
1507 20634
1507 21901
1507 22379
1507 22380
1508 7507
1508 18293
1509 2702
1509 4328
1509 4935
1509 7864
1509 11568
1509 12263
1510 3268
1510 15538
1510 15704
1510 21894
1511 4150
1511 4408
1511 4691
1511 6106
1511 6292
1511 8279
1511 11359
1511 12375
1511 12516
1511 12874
1511 13496
1511 14670
1511 15190
1511 15399
1511 16813
1511 17500
1511 17614
1511 19277
1511 20457
1511 21660
1512 3598
1512 5188
1512 6437
1512 7413
1512 9855
1512 11520
1512 11856
1512 16112
1512 20388
1512 20600
1512 21506
1512 22362
1514 2770
1514 5526
1514 6915
1514 8835
1514 17785
1515 1979
1515 3758
1515 7582
1515 9274
1515 24187
1516 7492
1516 19013
1517 2634
1517 3303
1517 11051
1517 11363
1517 12151
1517 12355
1517 13271
1517 16124
1517 17123
1518 6719
1518 9104
1518 10571
1518 22904
1519 5835
1519 7170
1519 13592
1519 21879
1519 22237
1520 9115
1520 13427
1521 3322
1521 3374
1521 3579
1521 11972
1521 14031
1521 14034
1521 14059
1521 21079
1522 5025
1522 11600
1522 12547
1522 16248
1522 18540
1522 23880
1522 24306
1523 3488
1523 17305
1523 18782
1524 3030
1524 22817
1525 5328
1525 14513
1525 18782
1526 22261
1526 22953
1526 24159
1527 16070
1528 8026
1528 21593
1529 3316
1529 3441
1529 3653
1529 3932
1529 5851
1529 6895
1529 8035
1529 8424
1529 8807
1529 9040
1529 9452
1529 10069
1529 11312
1529 12571
1529 14091
1529 15777
1529 16032
1529 16132
1529 16301
1529 16865
1529 17612
1529 17830
1529 17994
1529 18199
1529 21569
1529 21915
1529 22140
1529 23442
1529 23651
1530 3702
1530 3920
1530 6132
1530 12115
1530 24313
1531 6186
1531 17716
1531 22567
1531 23029
1531 23464
1531 23687
1532 5403
1532 10703
1532 15031
1532 19537
1532 19554
1533 20988
1534 5021
1534 10411
1534 10551
1534 15204
1534 15696
1534 16866
1535 7197
1535 15280
1535 19074
1535 21921
1535 23351
1536 15656
1536 23823
1536 24339
1537 4194
1537 5301
1537 12560
1537 14329
1537 20178
1538 24016
1538 24050
1539 5456
1539 9491
1539 18400
1539 20928
1540 15033
1540 19084
1540 20925
1540 23028
1541 2279
1541 14133
1542 4789
1542 13766
1542 15435
1542 21505
1543 5734
1543 7743
1543 24284
1543 24487
1544 2212
1544 4104
1544 5271
1544 11103
1544 16128
1544 17269
1544 18542
1545 8125
1545 18012
1546 4116
1546 8257
1546 8560
1546 19366
1547 6115
1547 11345
1547 15127
1548 1675
1548 2325
1548 2386
1548 2824
1548 3071
1548 3158
1548 3172
1548 3430
1548 4023
1548 4402
1548 4618
1548 4735
1548 4893
1548 5170
1548 5309
1548 5725
1548 5878
1548 6246
1548 7686
1548 7971
1548 8509
1548 9248
1548 9397
1548 10686
1548 10915
1548 11982
1548 12373
1548 12805
1548 12931
1548 13216
1548 14364
1548 14977
1548 16081
1548 16509
1548 16954
1548 16964
1548 17125
1548 17275
1548 18981
1548 19099
1548 19105
1548 19361
1548 19371
1548 20464
1548 21280
1548 22594
1548 22901
1548 23143
1549 3493
1549 6191
1549 6229
1549 11540
1549 17541
1549 17626
1549 19772
1549 20578
1550 12726
1550 13201
1550 16634
1550 20518
1550 23452
1551 2153
1551 2556
1551 2625
1551 4414
1551 6574
1551 7116
1551 8461
1551 9713
1551 13972
1551 14938
1551 17301
1551 17419
1551 18435
1551 19913
1551 21036
1551 21673
1551 22077
1551 22300
1551 22599
1552 7832
1552 16511
1553 3595
1553 5321
1553 18354
1554 5947
1554 18695
1554 20402
1555 14090
1555 15086
1555 23268
1556 5553
1556 11619
1556 15648
1556 17642
1557 3397
1557 8413
1557 14933
1558 10230
1558 15466
1558 17084
1558 20378
1559 10030
1559 20494
1560 5903
1560 8119
1560 11443
1560 14194
1560 16125
1560 17293
1560 21777
1560 21908
1561 3122
1561 5820
1561 7130
1561 8101
1561 9937
1561 10794
1561 11095
1561 14604
1561 15711
1561 16730
1561 17411
1561 17618
1561 17627
1561 20144
1561 20222
1561 21046
1562 1687
1562 12476
1562 17235
1562 18017
1562 18780
1562 23345
1563 2717
1563 9115
1563 16143
1563 21106
1564 1684
1564 1835
1564 6498
1564 8328
1564 14057
1565 4790
1565 13696
1565 17345
1566 6300
1566 15718
1566 19109
1567 1842
1567 23900
1567 24321
1568 15033
1568 20925
1568 23028
1569 2708
1569 4486
1569 5385
1569 6012
1569 11531
1569 16276
1570 2911
1570 6707
1570 7325
1570 15981
1570 17368
1570 19629
1570 21191
1570 21718
1571 8614
1571 11009
1571 22179
1571 22228
1572 1705
1572 10056
1572 16003
1573 7106
1573 12488
1573 13567
1573 16334
1573 19236
1574 4517
1574 17286
1575 2745
1575 5783
1575 13121
1575 13208
1575 15755
1576 2248
1576 7781
1576 11204
1576 12403
1576 13768
1576 16174
1576 16497
1576 21554
1576 24490
1577 5294
1577 5614
1577 5827
1577 10950
1577 18115
1577 19872
1578 13731
1578 17347
1578 18645
1578 21356
1578 23475
1579 23622
1579 23932
1579 24143
1580 1802
1580 3378
1580 15340
1581 8387
1581 12897
1581 21181
1581 22885
1582 2322
1582 8803
1582 8894
1582 11764
1582 15819
1582 16532
1582 16868
1582 18275
1582 18526
1582 21320
1583 2126
1583 2799
1583 3841
1583 5115
1583 6031
1583 17899
1583 20057
1584 4978
1584 11036
1584 21914
1585 10499
1585 13203
1585 18567
1585 19357
1585 23574
1586 2315
1586 6115
1586 15127
1587 3548
1587 3921
1587 6277
1587 13052
1587 17457
1587 18227
1587 18750
1587 21073
1587 21202
1588 3940
1588 13829
1589 3265
1589 4851
1589 7117
1589 8574
1589 13200
1590 5188
1591 2214
1591 8036
1591 8225
1591 11478
1591 16066
1591 17094
1591 22778
1592 2732
1592 3850
1592 11217
1592 12357
1592 17680
1592 20016
1593 8137
1593 24361
1594 1670
1594 3149
1594 9143
1594 11633
1594 22386
1595 2222
1595 4483
1595 5593
1595 8144
1596 4505
1596 9105
1596 17794
1597 2074
1597 5860
1598 2379
1598 6415
1598 19403
1598 21454
1599 4402
1600 4816
1600 6534
1600 24479
1601 4619
1601 6722
1601 10142
1601 14368
1603 10177
1603 13317
1603 19504
1603 19978
1603 23095
1604 6158
1604 10785
1605 3872
1605 6993
1605 7772
1605 9974
1605 24083
1606 4446
1606 4987
1606 6445
1606 7913
1606 8019
1606 8615
1606 9817
1606 13060
1606 18172
1606 19302
1606 19778
1606 20371
1606 21345
1606 21681
1606 21820
1606 22494
1607 15033
1607 19084
1607 20925
1607 22868
1607 23028
1608 4312
1608 5465
1608 12934
1608 13277
1608 13619
1608 16335
1609 2113
1609 2252
1609 2811
1609 4085
1609 4182
1609 5229
1609 6148
1609 7251
1609 8287
1609 9689
1609 10034
1609 10538
1609 11113
1609 12364
1609 13901
1609 14159
1609 14182
1609 14610
1609 14855
1609 16551
1609 16725
1609 17575
1609 18372
1609 19881
1609 20989
1609 21988
1609 22166
1609 22428
1609 22531
1609 22722
1609 22869
1609 22995
1609 23085
1610 2273
1610 10829
1610 15100
1611 6292
1611 15190
1611 19972
1611 21257
1612 3104
1612 4319
1612 4544
1612 12202
1612 17295
1612 17823
1612 21641
1612 22215
1612 22325
1613 3456
1613 7736
1613 16009
1613 17948
1613 17997
1614 7179
1614 7197
1614 15280
1615 3890
1615 18705
1615 18720
1616 12102
1616 12620
1616 16506
1616 19198
1617 14446
1618 4146
1618 5834
1618 7841
1618 21874
1618 22597
1619 6336
1619 11814
1619 12901
1619 17518
1619 17917
1620 1715
1620 2178
1620 4144
1620 10993
1620 13507
1620 15550
1621 5776
1621 20650
1622 1673
1622 8060
1622 9016
1622 10591
1622 12520
1622 13411
1622 14619
1622 15740
1622 18116
1622 19126
1622 21954
1623 5229
1623 15950
1623 16979
1623 18873
1623 20620
1623 22034
1624 2685
1624 2792
1624 5905
1624 8825
1624 14408
1625 11091
1625 14876
1625 16565
1626 2360
1626 4868
1626 6912
1626 12919
1627 5362
1627 9414
1627 15424
1627 16743
1628 7859
1628 7928
1628 24274
1629 2698
1629 4076
1629 6941
1629 8525
1629 8526
1629 9422
1630 9658
1630 15475
1630 19400
1630 20034
1631 2603
1631 3187
1631 7845
1631 10288
1631 10533
1631 20743
1632 9780
1633 8692
1633 11375
1633 12008
1633 12153
1633 12224
1633 14805
1633 15562
1633 19422
1633 22622
1634 2777
1634 13824
1634 15051
1634 16456
1634 18312
1634 20325
1635 10853
1635 18644
1636 4344
1636 8042
1636 18846
1637 5582
1638 2061
1638 3833
1638 18683
1638 22740
1638 23520
1639 8800
1639 14585
1639 21593
1639 21614
1640 15239
1640 17864
1640 20459
1641 11028
1641 23706
1641 23909
1641 24070
1642 10756
1642 12390
1642 17881
1642 20646
1643 5962
1643 13175
1643 18768
1643 19094
1643 19154
1644 2484
1644 12095
1644 19309
1644 21475
1644 23783
1645 21142
1646 4358
1646 6466
1646 13758
1646 14179
1646 15947
1646 21297
1646 22463
1647 7043
1647 23354
1647 24012
1647 24246
1648 10530
1648 15999
1648 18923
1648 19868
1648 23197
1649 1914
1649 2039
1649 2939
1649 3134
1649 3885
1649 4031
1649 5387
1649 6711
1649 8610
1649 9972
1649 13374
1649 16021
1649 18867
1649 23557
1650 1695
1650 2294
1650 8019
1650 13417
1650 17676
1650 20463
1651 1730
1651 1776
1651 3785
1651 6218
1651 6364
1651 6454
1651 7785
1651 9098
1651 13030
1651 13481
1651 14935
1651 17178
1651 18473
1651 21525
1651 23494
1652 2617
1652 6324
1652 7556
1652 10781
1652 15953
1652 18940
1652 19026
1652 22680
1653 2509
1653 3946
1653 16158
1653 20273
1653 20659
1654 2195
1654 19134
1654 22784
1654 23531
1655 6736
1655 11308
1655 23782
1655 24048
1655 24256
1656 1773
1656 3753
1656 10641
1656 11410
1656 18022
1656 19380
1656 20847
1656 23515
1656 23851
1656 23934
1657 1854
1657 8008
1657 16798
1657 17735
1657 19708
1657 19744
1657 20390
1658 12535
1658 20903
1658 21951
1658 21952
1658 24178
1659 6052
1659 8136
1659 10650
1659 24429
1660 1838
1660 4845
1660 5935
1660 7185
1660 9932
1660 11244
1660 17065
1661 3185
1661 4760
1661 8684
1661 11078
1661 11739
1661 17159
1661 17176
1661 22609
1662 2287
1662 9606
1662 15665
1663 4969
1663 6516
1663 7680
1663 7897
1664 4948
1664 11519
1664 20763
1664 22431
1665 5134
1665 23679
1665 23725
1665 24258
1665 24261
1666 10612
1666 16597
1666 22424
1666 22883
1667 16140
1667 16152
1667 16153
1667 17444
1667 17445
1668 6102
1668 12290
1668 24084
1668 24176
1669 23446
1669 24050
1670 2413
1670 5081
1670 6165
1670 8587
1670 9143
1670 16892
1670 17869
1670 19952
1671 2931
1671 3136
1671 3392
1671 4942
1671 9453
1671 11049
1671 18826
1672 6821
1672 7740
1672 11181
1672 15556
1672 20342
1673 10331
1673 11558
1673 12520
1673 13411
1673 14202
1673 14619
1673 18116
1673 19126
1673 21954
1674 15033
1674 20925
1674 22868
1674 23028
1675 2325
1675 2977
1675 23369
1676 5063
1676 7394
1676 20770
1676 21075
1677 4762
1677 13495
1677 19115
1677 19502
1678 2963
1678 6620
1678 23731
1678 23881
1679 18536
1679 20903
1679 21728
1679 23199
1680 1821
1680 2300
1680 2972
1680 15235
1680 23378
1681 2818
1681 2819
1681 7139
1681 14237
1681 22771
1682 3294
1682 5560
1682 10150
1682 10999
1682 11816
1682 20960
1682 21691
1683 2820
1683 11004
1683 12071
1684 6498
1684 11474
1684 19744
1684 21439
1685 5772
1685 6060
1685 17120
1685 18859
1685 20536
1686 5169
1686 6561
1686 12540
1686 19406
1687 5762
1687 12476
1687 13103
1687 17235
1687 18017
1688 4138
1688 5245
1688 7598
1688 12336
1689 4838
1689 18128
1689 18263
1689 18748
1689 20586
1690 2440
1690 2863
1690 16210
1690 16820
1690 17033
1691 7845
1691 12574
1691 20478
1691 23261
1692 4080
1692 7380
1693 2305
1693 17767
1694 3731
1694 8714
1694 8896
1694 10759
1694 19442
1695 4080
1695 5411
1695 8574
1696 2804
1696 3888
1696 13015
1696 19678
1696 19679
1696 21045
1696 21683
1697 5842
1697 5853
1697 5918
1697 8352
1697 8703
1697 9128
1697 12374
1697 12603
1697 12923
1697 13532
1697 13542
1697 14178
1697 16082
1697 18121
1697 18460
1697 19713
1697 20182
1697 20194
1697 22393
1697 23703
1698 13176
1698 18421
1698 18938
1698 21307
1698 23212
1699 16660
1699 18732
1699 20107
1699 21658
1700 2836
1700 18020
1700 19695
1700 21657
1701 5166
1701 11134
1701 11324
1701 11325
1701 23856
1702 11935
1702 14141
1702 20503
1703 2488
1703 5401
1703 15360
1704 2840
1704 18846
1705 3821
1705 13833
1705 15585
1705 16003
1706 6714
1706 6874
1706 12099
1707 1789
1707 2267
1707 6508
1707 7561
1707 15106
1708 4619
1708 20115
1708 22346
1709 6067
1709 9076
1709 12959
1709 22138
1710 6521
1710 12863
1710 14191
1710 17567
1710 21358
1711 6793
1711 14643
1711 15354
1711 18297
1712 3058
1712 17214
1712 22056
1712 22709
1713 4613
1713 7657
1713 8118
1713 12773
1713 15341
1713 15510
1713 17628
1713 20476
1714 3250
1714 13024
1714 17686
1715 4144
1715 13507
1715 18967
1716 7972
1716 20528
1717 8019
1717 8615
1717 13227
1717 21199
1718 2637
1718 5054
1718 8512
1718 14272
1718 19071
1718 23273
1719 12326
1719 16221
1719 17097
1719 17180
1719 22863
1720 3403
1720 6193
1720 17287
1720 21415
1721 5086
1721 17009
1722 7074
1722 9127
1722 10261
1722 13171
1722 13759
1722 14620
1722 14710
1722 14711
1722 14713
1722 23684
1723 3492
1723 6263
1723 10741
1723 18055
1724 8909
1724 17196
1725 2460
1725 3287
1725 8145
1725 19298
1725 22051
1726 5708
1726 24403
1727 3691
1727 3758
1727 8498
1727 8857
1727 9509
1727 9981
1727 11073
1727 11870
1727 13944
1727 16961
1727 17329
1727 17698
1727 17769
1727 19726
1727 23404
1728 3349
1728 21009
1728 22040
1729 3027
1729 3584
1729 4696
1729 10190
1729 15057
1729 16910
1729 21122
1729 21772
1729 22457
1730 3785
1730 6302
1730 9098
1730 13030
1730 13481
1730 14935
1730 18473
1731 4492
1731 5414
1731 9513
1731 9812
1731 13303
1731 15096
1731 19536
1731 22807
1731 23006
1732 7130
1732 15539
1732 20164
1733 9323
1733 10853
1733 12717
1734 5563
1734 10175
1734 11631
1734 14676
1735 2271
1735 7959
1735 11465
1735 11877
1736 6548
1736 15970
1736 23378
1737 6580
1737 18976
1738 3542
1738 4542
1738 7440
1738 16391
1739 10208
1739 10279
1739 12412
1739 23009
1740 3548
1740 3921
1740 8383
1741 1742
1741 9362
1741 12854
1741 14900
1741 14906
1741 19688
1741 22128
1741 23008
1742 9362
1742 14900
1742 22128
1742 23007
1743 3626
1743 3925
1743 4095
1743 7395
1743 8294
1743 15048
1744 8032
1744 8033
1744 19242
1744 21277
1745 6307
1745 8032
1745 13887
1745 16895
1746 1747
1746 4252
1746 12988
1747 2464
1747 12609
1747 12988
1748 6346
1748 6350
1748 8584
1748 8585
1748 9535
1749 10306
1749 11463
1749 12556
1749 18565
1749 18926
1750 24417
1751 3773
1751 20669
1751 22086
1752 5809
1752 10049
1752 20489
1752 21564
1752 23542
1753 2710
1753 3991
1753 3993
1753 5095
1753 7514
1753 7621
1753 7773
1753 9308
1753 9772
1753 10185
1753 10239
1753 11158
1753 11193
1753 13043
1753 13723
1753 14019
1753 15082
1753 15571
1753 15787
1753 17646
1753 18046
1753 19538
1753 21713
1753 21735
1753 22395
1753 22605
1753 22754
1754 7450
1754 9360
1754 12699
1754 17257
1755 3426
1755 4619
1755 6722
1755 10328
1756 6411
1756 7471
1757 3838
1757 6426
1757 7507
1757 9908
1757 22000
1758 4117
1758 10021
1758 10211
1758 24073
1758 24302
1759 24016
1759 24452
1760 6395
1760 10922
1760 16909
1760 23146
1761 10602
1761 13016
1761 22200
1762 2167
1762 2306
1762 2572
1762 3761
1762 4395
1762 5501
1762 6537
1762 8366
1762 9257
1762 10710
1762 20046
1762 21254
1762 23370
1762 23754
1763 3887
1763 8502
1763 15184
1763 17414
1763 22092
1764 3104
1764 4319
1764 4544
1764 12202
1764 21641
1765 3401
1765 6239
1765 17163
1765 18166
1765 19986
1765 23492
1766 17914
1766 23756
1766 24169
1767 7339
1767 8566
1767 10004
1767 10619
1767 12757
1767 13755
1767 23487
1768 2055
1768 4547
1768 7952
1768 10473
1768 11884
1768 12686
1768 13260
1768 14288
1768 14726
1768 17154
1768 19119
1768 19120
1768 19471
1768 20554
1768 20866
1768 21143
1768 22637
1769 4776
1769 9441
1770 3215
1770 4194
1770 5228
1770 6125
1770 10133
1770 12560
1770 22182
1771 2161
1771 5501
1771 18692
1771 23038
1772 2427
1772 2606
1772 2630
1772 3196
1772 3428
1772 6247
1772 8142
1772 11088
1772 12565
1772 13927
1772 14297
1772 14458
1772 16293
1772 16700
1772 17066
1772 17174
1772 19875
1772 20300
1772 20935
1772 22303
1772 23453
1772 24077
1773 10641
1773 20847
1774 5862
1774 8835
1774 17305
1775 9761
1775 16802
1775 20665
1776 3785
1776 6364
1776 9098
1776 13481
1776 14935
1777 2920
1777 10525
1777 17533
1777 21212
1778 5527
1778 19744
1779 3406
1779 3500
1779 4520
1779 5616
1779 6583
1779 11166
1779 12573
1779 14504
1779 17596
1779 18406
1779 19039
1779 20754
1780 1834
1780 13205
1780 18257
1780 22970
1781 5197
1781 7391
1781 16149
1781 17376
1781 18631
1782 4758
1782 5657
1782 7632
1782 12700
1782 22941
1783 2213
1783 5164
1783 6117
1783 8102
1783 9218
1783 9593
1783 9675
1783 9742
1783 11820
1783 15330
1783 19284
1783 19828
1783 20311
1783 21005
1783 21330
1783 22780
1783 22951
1783 23473
1784 2170
1784 5056
1784 21865
1785 14450
1785 19318
1785 22025
1786 7769
1786 19951
1786 21486
1786 22545
1786 23056
1787 6624
1787 8320
1787 12664
1787 23722
1787 24382
1788 1951
1788 14011
1789 3416
1789 19063
1790 21115
1790 21938
1791 2693
1791 4184
1791 8337
1791 10396
1791 19687
1792 3646
1792 5010
1792 5687
1792 9881
1792 12943
1792 17183
1792 18025
1792 18886
1793 5358
1793 7932
1793 9789
1793 18480
1793 18501
1794 5522
1794 8319
1794 13410
1794 18857
1795 12361
1795 13495
1795 13964
1795 22440
1796 4459
1796 6778
1796 24407
1797 2889
1797 3181
1797 3365
1797 3941
1797 4884
1797 6339
1797 8484
1797 8643
1797 16792
1797 17039
1797 17874
1797 19405
1797 19897
1797 20466
1797 22057
1798 3952
1798 10427
1798 18363
1799 4342
1799 18369
1800 3368
1800 17284
1800 19279
1800 20756
1800 21023
1801 5596
1801 7654
1801 8724
1801 12146
1801 16053
1801 18656
1802 7659
1802 9379
1802 10260
1802 12332
1802 13765
1802 15340
1802 15540
1802 15781
1802 16919
1802 19621
1802 22307
1803 10558
1803 11514
1803 13314
1804 4057
1804 21208
1804 22720
1805 15310
1805 21389
1805 23282
1806 6917
1806 14472
1806 19121
1806 20480
1806 20709
1807 2336
1807 17305
1807 22856
1808 6861
1808 14012
1808 14261
1809 9038
1809 9866
1809 19797
1809 22796
1810 3112
1810 6054
1810 7340
1810 8325
1810 11054
1810 18655
1810 23151
1810 23935
1810 24230
1810 24432
1811 2790
1811 12287
1811 19389
1811 20214
1811 23886
1812 1920
1812 4164
1812 6716
1812 7090
1812 10020
1812 15580
1813 9157
1813 20045
1813 21423
1814 3192
1814 7870
1814 11988
1814 13258
1814 14065
1814 14220
1814 15329
1814 21077
1815 4216
1815 4850
1815 5062
1815 16934
1815 21117
1816 2766
1816 9043
1816 11953
1816 23940
1816 24422
1817 8387
1817 12897
1818 8196
1818 10935
1818 13660
1819 6922
1819 18189
1819 19350
1819 20404
1819 22551
1820 12079
1820 15145
1820 19381
1820 20063
1820 21437
1821 22707
1822 3726
1822 3927
1822 4667
1822 6046
1822 8631
1822 15930
1822 17028
1822 17747
1822 22887
1823 6137
1823 6523
1823 10737
1824 2758
1824 5105
1824 7262
1824 10169
1824 17108
1824 19953
1825 4364
1825 23346
1825 24355
1825 24447
1825 24450
1826 4608
1826 6230
1826 7975
1826 8539
1826 16283
1826 20435
1826 23317
1827 4208
1827 15975
1827 17946
1827 19757
1827 20996
1827 21089
1828 9261
1828 15988
1828 18379
1828 22943
1829 2475
1829 4195
1829 6176
1829 7525
1829 10631
1829 16531
1830 3008
1830 9682
1830 10426
1830 12560
1830 15677
1830 15700
1831 2805
1831 3897
1831 11742
1832 7511
1832 11583
1833 4802
1833 6755
1833 10083
1833 10647
1833 14247
1834 11800
1834 18257
1834 19642
1834 22488
1835 6498
1835 8328
1835 20675
1836 4112
1836 4293
1836 8134
1836 21377
1837 8573
1837 20112
1838 2116
1838 5933
1838 7185
1838 8918
1838 11311
1838 12226
1838 14916
1838 15764
1838 17065
1838 17207
1838 17417
1838 19839
1838 20106
1838 23544
1839 8270
1839 12148
1839 20303
1840 2226
1840 8141
1840 12370
1840 23568
1841 1891
1841 1892
1841 6048
1841 20122
1842 2506
1842 5556
1842 5734
1842 22014
1842 23900
1842 24067
1843 11357
1843 18286
1843 18375
1843 18998
1843 23100
1844 2212
1844 13199
1844 18524
1844 19661
1845 7117
1845 10245
1845 10571
1845 12029
1845 12348
1846 2123
1846 5063
1846 5340
1846 18962
1847 5363
1847 6978
1847 9183
1847 22846
1847 23917
1847 23939
1848 12575
1848 16546
1848 19014
1848 20340
1849 3487
1849 15957
1849 16360
1849 20729
1849 20964
1850 15716
1850 21774
1850 24299
1851 19570
1851 21142
1851 22472
1852 2566
1852 2584
1852 9458
1852 9917
1852 16921
1853 11485
1853 16996
1853 17236
1853 18048
1853 20301
1854 16798
1854 17735
1855 3312
1855 12490
1855 13956
1855 16512
1855 21629
1855 22164
1856 6407
1856 8017
1856 15350
1856 20704
1857 8186
1857 9102
1857 10349
1857 11290
1857 11429
1857 12552
1858 4109
1858 12737
1858 19122
1858 22297
1859 1870
1859 4452
1859 4701
1859 9061
1859 10132
1859 12897
1859 21929
1860 3119
1860 5774
1860 12733
1860 13299
1860 20840
1861 5442
1861 11416
1861 12537
1861 16390
1861 17422
1861 18416
1862 4050
1862 5974
1862 7623
1862 12549
1862 13793
1862 13909
1862 22465
1863 9500
1863 19158
1863 19631
1863 21241
1863 23020
1864 11772
1865 2948
1865 4290
1865 4291
1865 9536
1865 13204
1865 18691
1865 23621
1866 13434
1866 18033
1866 19348
1867 6265
1867 8959
1867 8995
1867 14204
1868 4075
1868 6070
1868 9241
1868 9279
1868 14613
1868 17226
1868 19029
1868 20992
1868 22024
1868 22178
1869 2814
1869 3411
1869 6617
1869 8500
1869 12442
1869 13388
1869 16008
1869 22679
1869 23828
1870 3196
1870 3245
1870 3289
1870 3645
1870 3704
1870 4038
1870 4070
1870 4725
1870 5149
1870 5296
1870 5433
1870 5847
1870 5873
1870 6097
1870 6151
1870 6247
1870 6754
1870 6784
1870 7063
1870 7345
1870 7710
1870 7868
1870 7942
1870 8292
1870 8387
1870 9223
1870 9611
1870 9926
1870 9945
1870 9996
1870 10116
1870 10412
1870 10497
1870 10708
1870 10969
1870 11088
1870 11817
1870 12046
1870 12897
1870 12938
1870 13295
1870 13607
1870 14155
1870 14334
1870 14458
1870 14959
1870 15449
1870 15608
1870 15668
1870 16005
1870 16303
1870 16337
1870 17174
1870 17247
1870 17885
1870 18231
1870 18567
1870 18960
1870 19003
1870 19357
1870 19875
1870 20383
1870 20559
1870 20671
1870 20682
1870 21025
1870 21119
1870 21181
1870 21226
1870 21392
1870 21440
1870 21546
1870 22303
1870 22698
1870 22885
1870 23084
1870 23574
1870 24077
1871 7508
1871 9557
1871 13689
1871 14659
1871 19328
1872 7191
1872 7496
1872 8342
1872 9252
1872 15291
1872 22222
1872 23650
1873 2608
1873 3668
1873 6328
1873 6795
1873 7099
1873 7802
1873 8015
1873 10159
1873 10963
1873 11221
1873 11624
1873 11688
1873 11867
1873 15022
1873 17051
1873 20812
1873 21633
1873 23053
1874 3295
1874 4485
1874 9002
1874 11267
1874 12470
1874 13150
1874 17402
1875 13004
1875 16400
1876 2932
1876 7845
1876 14118
1876 15981
1877 10015
1877 10711
1877 21596
1877 22474
1878 2683
1878 7641
1878 9496
1878 12615
1879 5469
1879 6441
1879 18465
1879 20608
1879 23402
1880 4564
1880 11906
1880 19201
1880 20002
1880 21108
1881 3865
1881 16216
1881 18639
1881 20330
1881 23462
1881 23717
1881 24256
1881 24300
1881 24318
1882 23871
1882 24287
1882 24398
1883 2868
1883 17075
1883 18111
1883 21207
1883 23229
1884 6404
1884 6405
1884 19190
1884 20227
1884 23678
1885 9518
1885 19667
1885 20445
1885 20978
1885 23967
1885 24215
1886 15158
1886 18419
1886 20305
1887 7668
1887 8170
1887 12976
1887 15201
1888 2094
1888 7160
1888 7166
1888 12841
1888 23362
1888 23958
1888 24293
1888 24396
1889 6037
1889 10678
1889 10823
1889 12892
1890 6268
1890 7340
1890 9771
1890 15847
1890 23925
1891 1892
1891 6048
1891 20122
1892 10399
1892 15961
1893 2750
1893 2837
1893 3313
1893 5143
1893 5518
1893 6933
1893 11808
1893 13587
1893 16211
1893 16639
1894 4269
1894 21786
1895 4135
1895 9982
1895 10729
1895 14743
1895 14909
1896 3614
1896 3615
1896 3617
1896 6345
1896 6706
1897 10485
1897 10503
1897 22592
1897 22904
1898 22261
1898 22953
1898 23648
1898 23790
1899 3409
1899 5254
1899 9281
1899 9969
1899 10428
1899 14029
1899 17471
1899 17535
1899 20676
1899 20878
1900 3694
1900 7461
1900 9762
1900 13295
1901 4236
1901 7690
1901 12102
1901 21061
1902 7054
1902 13158
1902 15564
1902 18082
1902 18913
1902 22335
1903 3638
1903 5820
1903 6999
1904 2100
1904 16722
1904 18267
1905 4188
1905 9307
1905 23987
1906 3610
1906 10593
1906 12981
1907 14658
1907 16703
1907 23173
1908 11261
1908 14773
1908 21145
1909 3091
1909 4263
1909 8037
1909 10742
1909 12802
1909 15192
1909 18140
1909 18318
1909 24250
1910 16097
1910 20134
1910 23308
1911 2551
1911 10245
1911 12038
1912 2766
1912 9043
1912 24060
1913 7965
1913 9655
1913 18035
1914 2039
1914 9972
1914 13374
1914 16021
1915 3058
1915 5061
1915 8090
1915 11216
1915 12367
1915 14870
1915 16246
1915 17214
1915 20307
1915 21859
1915 22709
1916 18771
1916 21282
1917 5198
1917 17360
1918 2993
1918 3370
1918 5205
1918 17911
1918 20503
1919 9798
1919 22485
1920 4164
1920 23064
1920 24335
1920 24454
1921 7668
1921 12047
1921 12976
1921 15201
1922 4842
1922 19353
1922 19672
1922 21344
1923 3623
1923 14308
1923 15933
1923 18126
1923 23322
1924 1951
1924 3188
1924 6972
1924 13264
1924 17697
1924 20398
1925 8803
1925 8894
1925 9775
1925 9928
1925 12474
1925 15498
1925 18275
1925 18526
1926 3186
1926 6458
1926 7187
1926 9489
1926 14831
1927 5796
1927 6834
1927 9096
1927 17857
1928 10108
1928 15349
1929 4126
1929 7588
1929 10567
1930 2060
1930 5926
1930 9325
1930 14018
1931 7349
1931 7426
1931 15487
1931 17351
1931 18778
1931 19993
1931 23166
1932 4834
1932 8856
1932 15487
1932 18420
1933 2049
1933 4728
1933 14372
1933 16358
1933 22097
1933 22914
1934 5421
1934 8563
1934 23881
1934 24040
1935 8647
1935 23213
1935 23266
1936 1937
1936 12270
1936 12637
1936 13559
1936 15989
1936 18799
1936 19480
1936 21354
1936 23247
1936 23418
1937 15741
1937 23247
1937 23418
1938 2018
1938 3848
1938 13396
1938 19110
1939 8486
1939 8575
1939 14738
1939 15488
1939 16181
1939 17824
1939 18005
1939 20751
1939 21765
1939 21986
1939 22217
1939 23077
1940 10541
1940 12212
1940 17278
1940 17514
1940 22976
1941 8673
1941 10102
1941 14104
1941 18804
1942 6258
1942 17538
1942 18133
1942 21370
1942 24066
1943 3502
1943 5014
1943 7839
1943 11197
1943 16697
1943 17043
1943 17987
1943 19459
1943 20009
1943 21121
1943 22580
1944 5039
1944 11063
1944 17931
1944 21063
1944 23781
1945 2344
1945 14283
1945 15505
1946 5598
1946 7502
1946 8128
1946 12983
1946 13949
1946 14328
1946 17970
1946 22281
1946 23284
1946 23526
1947 7088
1948 19531
1949 2517
1949 5523
1949 15607
1950 14692
1950 20796
1951 3188
1951 6727
1951 6972
1951 9708
1951 13264
1951 14011
1951 16230
1951 16491
1951 16826
1951 17697
1951 18518
1951 19440
1951 21404
1952 5121
1952 8103
1952 8221
1953 12871
1953 14437
1953 15473
1953 17018
1953 23022
1953 23304
1953 23429
1954 3405
1954 7782
1954 10148
1954 14567
1954 14688
1954 15679
1954 17286
1954 22557
1955 5820
1955 6613
1955 7313
1955 21970
1956 2671
1956 3318
1956 3778
1956 9136
1956 12299
1956 12455
1956 13310
1956 21112
1957 3898
1957 8458
1957 13879
1957 15490
1957 17887
1958 3814
1958 7224
1958 22904
1959 18631
1959 22365
1960 5553
1960 18680
1961 8547
1961 10281
1961 12225
1961 21948
1961 23162
1962 2223
1962 10921
1962 13317
1962 22942
1963 6333
1963 6378
1963 23116
1963 23870
1963 24161
1964 6001
1964 6650
1964 14110
1964 15513
1965 2338
1965 17449
1965 18975
1965 19091
1965 20364
1966 3397
1966 19907
1967 5702
1967 16302
1968 4253
1968 7761
1968 9975
1968 15240
1969 11769
1969 17818
1969 21714
1969 21722
1969 23843
1970 4380
1970 7450
1970 8041
1970 9485
1970 11475
1970 11681
1970 12272
1970 14361
1970 17047
1970 17157
1970 18024
1970 18027
1970 19333
1970 22548
1970 23428
1971 7143
1971 8062
1971 10180
1971 15305
1971 19015
1972 2363
1972 2999
1972 9953
1973 5025
1973 16248
1973 20174
1973 22661
1974 5882
1974 7132
1975 7446
1975 7875
1976 6159
1976 6871
1976 23839
1976 23989
1977 4619
1977 6722
1977 10142
1977 13440
1978 2518
1978 3959
1978 5578
1978 11157
1978 13479
1978 13509
1978 14318
1978 16224
1978 21401
1978 23126
1979 7582
1979 20377
1980 2530
1980 18372
1980 19869
1980 22428
1981 3697
1981 7051
1981 11836
1981 12392
1981 21351
1982 2766
1982 11953
1982 23940
1983 13767
1983 18697
1983 23647
1984 6067
1984 9543
1984 13122
1984 22138
1985 14462
1985 16894
1985 18047
1986 3552
1986 4043
1986 10890
1987 5393
1987 5893
1987 10897
1987 19041
1987 22055
1988 2834
1988 17054
1989 4333
1989 16286
1990 11549
1990 12678
1990 20628
1990 22945
1990 22962
1991 3516
1991 11025
1991 18251
1991 19169
1991 23139
1992 4592
1992 4594
1992 5383
1992 11626
1992 14571
1992 15278
1992 23338
1993 4592
1993 4593
1993 20856
1993 23338
1994 4814
1994 12754
1995 15445
1995 19022
1995 21834
1996 3934
1996 5855
1996 5870
1996 11709
1996 14040
1996 15470
1996 15624
1996 15903
1996 17112
1996 18004
1996 19146
1996 19674
1997 10761
1997 16412
1997 18388
1997 19252
1997 22415
1998 5945
1998 6301
1998 7139
1998 7227
1998 12146
1999 7667
1999 8615
1999 20411
1999 21407
1999 21681
2000 3045
2000 3046
2000 3047
2000 4919
2000 6919
2000 7863
2000 9993
2000 14587
2000 15797
2000 16255
2000 17008
2000 18256
2000 20060
2000 21123
2000 23621
2000 23922
2001 2832
2001 6458
2001 7187
2001 9489
2001 14831
2002 3541
2002 14643
2003 7646
2003 7873
2003 18001
2003 23072
2003 23214
2004 3776
2004 9784
2004 11186
2004 14186
2004 14816
2004 16469
2004 17999
2004 18269
2004 18302
2004 18407
2004 19207
2004 20619
2005 2520
2005 4734
2005 8458
2005 13879
2006 5063
2006 15350
2006 18962
2007 2926
2007 5150
2007 9004
2007 10465
2007 14122
2007 15684
2007 16858
2007 18491
2007 18499
2007 18617
2007 19301
2007 19429
2007 19790
2007 20639
2007 21013
2007 21446
2007 23500
2008 10685
2008 22914
2008 23161
2009 4969
2009 5297
2009 5995
2009 6357
2009 6516
2009 7680
2009 9268
2009 10458
2009 11445
2009 14360
2009 15771
2009 15802
2009 17006
2009 17035
2009 17116
2009 17168
2009 17657
2009 18266
2009 19088
2009 20151
2009 22451
2009 22977
2009 23483
2010 13221
2011 10021
2011 24409
2011 24473
2012 10539
2012 12864
2012 15017
2013 10489
2013 16318
2013 20302
2013 22069
2014 5865
2014 7202
2014 8388
2014 9878
2014 11659
2014 12745
2014 16831
2015 5376
2015 13272
2015 14451
2016 2965
2016 2978
2016 4528
2016 5814
2016 7750
2016 8250
2016 9186
2016 9787
2016 11945
2016 12468
2016 15576
2016 16824
2016 17569
2016 21484
2016 23306
2016 23326
2017 5932
2017 6840
2017 7429
2017 8504
2017 8790
2017 18958
2018 3014
2018 3848
2018 13270
2019 2226
2019 8141
2019 23568
2020 4927
2020 21728
2021 2817
2021 3478
2021 6642
2021 9202
2021 12878
2021 13442
2021 13749
2021 16263
2021 16264
2021 16282
2021 17014
2021 17104
2021 19646
2021 22455
2021 23096
2022 6524
2022 8042
2022 11589
2022 17023
2022 17765
2022 18846
2022 20733
2023 2751
2023 3034
2023 4739
2023 9084
2023 10051
2023 13880
2024 2865
2024 7397
2024 12438
2024 12439
2024 14138
2024 22763
2024 22880
2025 5464
2025 9776
2025 14127
2026 3637
2026 7048
2026 19997
2027 5344
2027 6399
2027 7310
2027 9517
2027 13053
2027 13438
2027 15815
2027 23694
2027 23888
2028 4886
2028 7149
2028 24067
2028 24361
2029 11935
2029 14141
2029 17911
2030 3364
2030 3381
2030 6086
2031 8026
2031 8800
2031 21614
2032 6373
2032 8505
2032 15567
2032 16575
2033 3069
2033 9050
2033 23714
2033 24251
2034 12722
2034 15868
2034 19151
2035 2529
2035 5760
2035 12424
2035 15724
2035 18337
2035 22879
2036 4293
2036 9626
2036 24134
2037 3720
2037 11255
2037 11535
2037 12255
2037 13403
2037 19583
2037 20833
2038 7515
2038 8223
2038 8531
2038 20591
2038 22777
2039 5387
2039 18867
2040 19318
2040 22025
2041 5034
2041 5811
2041 9741
2041 20082
2041 20794
2042 2623
2042 2647
2042 4007
2042 4377
2042 6359
2042 6547
2042 7676
2042 8052
2042 8834
2042 9938
2042 10324
2042 11908
2042 12453
2042 14942
2042 18956
2042 23829
2042 23978
2042 24212
2043 7389
2043 13827
2043 14737
2043 14784
2043 16995
2044 17305
2045 7042
2045 12185
2045 22732
2046 6573
2046 16558
2046 22568
2046 23144
2047 3285
2047 5425
2047 6070
2047 8522
2047 10747
2047 14206
2047 14531
2048 2148
2048 4395
2048 17639
2048 21254
2049 3074
2049 12816
2049 14660
2049 16358
2049 22097
2049 22914
2050 7433
2050 8580
2050 10266
2050 10338
2050 11344
2050 12353
2050 13525
2050 15420
2051 16819
2051 19834
2052 4541
2052 8106
2052 8919
2052 12308
2052 12521
2052 14377
2053 5067
2053 5708
2053 18438
2053 24283
2053 24403
2053 24485
2054 4032
2054 6491
2054 8930
2054 10407
2054 11471
2054 15321
2054 23721
2054 24284
2055 4550
2055 20866
2056 2465
2056 3980
2056 4765
2056 6695
2056 7283
2056 8862
2056 8987
2056 12634
2056 13106
2056 18476
2057 3550
2057 20207
2058 5799
2058 7016
2058 8802
2058 11550
2058 12245
2058 17725
2058 18990
2058 23885
2058 24197
2058 24204
2059 10853
2059 20660
2060 9325
2060 14259
2060 15350
2061 3230
2061 7788
2061 11802
2061 21592
2062 4348
2062 5769
2062 5940
2062 6944
2062 9394
2062 9548
2062 11142
2062 14254
2062 17995
2062 18689
2062 19224
2062 22340
2062 23394
2063 2969
2063 7721
2063 12017
2063 12018
2064 4224
2064 7986
2064 8335
2064 12767
2064 17531
2065 12683
2065 20459
2066 2650
2066 6721
2066 14416
2066 19540
2067 8953
2067 19274
2067 20284
2067 21375
2068 3183
2068 7423
2068 14842
2069 2847
2069 5447
2069 12269
2069 12512
2069 22587
2070 5892
2070 8187
2070 19569
2070 20836
2071 5063
2071 6407
2071 18962
2072 7048
2072 19997
2073 6043
2073 11582
2073 14898
2073 14899
2073 16684
2073 16685
2073 16688
2073 16696
2073 23134
2074 2383
2074 3926
2074 4598
2074 5860
2074 7156
2074 10720
2074 11092
2074 14989
2074 15967
2074 20146
2074 20766
2074 21048
2074 21589
2074 23670
2074 23697
2074 23704
2074 23895
2075 4656
2075 5045
2075 10687
2075 17866
2075 22692
2075 22854
2076 10674
2076 15184
2077 5953
2077 10167
2077 11459
2077 16368
2077 18586
2077 20363
2078 3678
2078 4131
2078 4916
2078 8330
2078 8789
2078 9973
2078 17522
2078 20213
2078 23388
2079 7898
2079 8778
2079 10812
2079 11895
2079 17816
2080 4285
2080 8100
2080 16486
2080 17243
2080 22239
2081 5209
2081 19477
2081 21224
2081 22209
2081 23511
2082 10983
2082 13747
2082 19629
2082 21191
2083 4459
2083 23529
2083 24326
2084 3211
2084 6691
2084 7111
2084 8569
2084 20334
2085 2331
2085 12532
2085 17416
2086 8621
2086 15762
2087 7370
2087 14807
2087 17427
2087 17450
2087 21339
2087 21384
2088 7936
2088 8595
2088 13257
2088 17714
2088 19337
2089 4448
2089 11591
2089 12238
2089 13799
2090 3479
2090 4215
2090 8135
2091 2092
2091 2095
2091 7167
2091 7168
2091 24262
2092 2094
2092 7160
2092 7164
2092 7167
2092 24262
2092 24293
2093 4033
2093 4750
2093 4882
2093 9739
2093 10242
2093 13184
2093 13206
2093 14098
2093 14235
2093 14390
2093 15694
2093 20890
2093 24003
2093 24395
2094 7164
2094 7167
2094 19276
2094 24262
2095 5813
2095 7165
2095 7168
2096 3061
2096 8169
2096 10388
2096 20167
2097 5328
2097 6388
2097 18286
2097 22116
2098 11439
2098 23970
2099 4015
2099 10303
2099 16853
2100 5747
2100 8380
2100 13415
2100 16722
2100 17358
2100 17515
2101 6998
2101 9596
2101 14261
2101 17009
2102 7579
2102 9233
2102 9345
2102 10096
2102 11479
2102 11933
2102 11989
2102 15303
2102 16503
2103 11362
2103 23778
2104 2286
2104 2935
2104 11752
2104 14420
2104 19685
2104 21111
2105 3825
2105 9054
2105 11821
2105 15446
2105 20922
2105 21751
2106 22633
2107 2209
2107 3538
2107 22419
2108 2719
2108 6864
2108 7974
2108 9756
2108 17423
2108 18668
2108 23786
2109 4446
2109 10521
2109 10736
2109 19302
2109 21681
2110 4243
2110 14565
2110 17044
2111 2845
2111 4026
2111 12957
2112 2896
2112 8030
2112 15587
2113 14855
2113 20499
2113 22665
2114 2949
2114 8604
2114 8817
2114 11703
2115 5211
2115 12383
2115 16354
2116 4845
2116 5933
2116 8918
2117 7878
2117 9674
2117 10121
2117 12311
2117 14038
2117 15601
2118 5380
2118 9339
2118 13458
2118 19248
2118 22132
2119 8387
2119 12897
2119 21181
2120 10976
2120 12307
2120 12999
2120 17332
2120 20154
2120 20758
2121 8592
2121 10645
2122 3279
2122 10250
2122 14496
2122 17472
2122 21635
2123 5340
2124 3281
2124 6522
2124 9474
2124 9861
2124 22465
2125 4069
2125 14336
2126 2799
2126 3639
2126 15928
2126 18241
2127 4610
2127 6769
2127 9134
2127 13814
2127 16896
2128 13476
2128 19158
2128 22412
2129 2130
2129 18596
2129 19885
2129 20614
2129 22194
2129 22438
2130 18596
2130 19883
2130 19885
2130 20614
2130 22194
2131 13335
2132 3241
2132 12252
2132 23066
2132 23750
2133 5328
2133 18286
2133 18998
2134 3044
2134 6348
2134 7428
2134 15605
2134 23217
2135 6166
2135 6418
2135 13381
2135 22991
2136 2423
2136 3288
2136 3510
2136 8776
2136 15666
2136 15731
2136 17922
2136 22358
2137 2256
2137 3168
2137 5381
2137 15172
2137 16173
2137 16410
2137 23591
2138 2204
2138 7876
2138 20634
2139 7658
2139 7876
2139 20634
2140 7808
2140 10285
2140 12912
2140 15659
2140 20413
2140 23383
2141 5869
2141 6544
2141 7837
2141 9035
2141 21693
2141 22612
2142 8037
2142 15192
2142 18140
2142 22419
2142 24074
2142 24250
2142 24441
2143 17932
2143 24343
2144 6779
2144 8677
2144 9011
2144 18123
2145 5130
2145 5480
2145 5622
2145 6471
2145 7222
2145 7296
2145 8248
2145 8917
2145 12488
2145 13395
2145 13598
2145 14017
2145 14393
2145 15211
2145 16281
2145 20008
2145 20200
2145 20362
2145 21447
2145 22489
2145 22631
2145 23558
2146 2517
2146 3376
2146 5523
2146 8543
2147 4625
2147 8712
2147 19576
2147 21556
2148 2306
2148 4395
2148 4797
2148 6854
2148 9347
2148 10710
2148 14884
2148 18692
2148 21231
2148 23754
2149 6942
2149 11335
2149 11427
2149 12024
2149 12833
2149 17059
2149 17656
2149 18367
2149 20782
2149 22566
2150 5059
2151 3422
2151 4795
2151 7146
2152 9285
2152 12027
2152 19931
2152 20098
2153 9569
2153 21913
2154 2756
2154 3711
2154 5258
2154 12251
2154 16320
2154 22111
2154 23209
2154 23305
2154 23632
2154 24408
2155 4686
2155 12742
2155 16328
2155 16394
2155 17616
2156 8394
2156 10418
2156 23235
2156 23409
2156 23912
2156 24154
2157 10418
2157 23409
2157 23912
2158 8359
2158 13211
2158 13547
2158 15774
2158 18074
2158 18842
2158 19153
2158 21637
2159 8085
2159 15053
2159 19418
2159 19834
2160 4638
2160 6675
2160 8923
2161 2306
2161 5501
2161 18455
2161 20046
2161 23038
2162 5226
2162 13171
2162 14986
2162 17544
2163 7291
2163 22028
2164 2680
2164 12896
2164 14267
2165 5554
2165 5969
2165 9369
2165 11841
2165 11850
2166 5404
2166 9781
2166 11125
2166 11366
2167 5501
2167 6537
2168 15240
2168 15615
2168 20665
2169 12121
2169 15738
2170 5056
2171 2759
2171 3745
2171 17937
2171 22597
2172 5191
2172 8886
2172 21273
2173 10419
2173 15864
2173 24158
2174 8775
2174 11887
2174 23378
2175 7081
2175 13384
2175 15931
2175 19830
2175 22864
2175 22876
2176 3272
2176 5796
2176 6834
2176 13381
2177 7237
2177 13023
2177 17992
2178 4144
2178 13431
2178 18967
2179 14867
2179 14869
2179 14871
2179 15368
2180 10630
2180 14871
2180 19449
2181 2308
2181 3031
2181 6494
2181 11451
2181 12787
2181 21500
2182 12748
2182 14792
2182 15815
2182 16188
2182 17265
2182 20745
2182 23117
2182 23256
2182 23367
2182 24275
2183 5772
2183 10273
2183 18859
2184 3948
2184 7844
2184 19022
2184 22329
2185 2221
2185 3752
2185 5086
2185 19543
2185 20242
2186 6101
2186 7430
2186 9481
2186 10426
2186 12136
2186 18044
2187 6300
2187 13284
2187 15718
2187 19109
2187 22352
2188 2618
2188 5809
2188 7435
2188 7548
2188 8297
2188 12701
2188 12736
2188 21322
2189 2993
2189 3370
2189 13296
2189 17124
2190 7829
2190 9645
2190 9774
2190 10207
2190 12839
2190 13390
2190 15063
2190 15675
2190 16150
2190 17089
2190 18887
2190 19394
2190 20470
2190 20553
2190 21828
2190 22162
2191 3239
2191 12303
2191 12735
2191 12897
2192 3336
2193 12570
2193 16234
2193 16738
2193 17683
2194 2604
2194 3343
2194 6833
2194 9970
2194 13898
2194 14409
2194 15444
2194 16613
2194 19519
2195 19134
2195 22332
2195 22784
2196 4130
2196 4575
2196 9310
2196 9388
2196 18498
2197 6073
2197 8853
2197 13111
2197 18177
2198 8656
2198 16615
2198 18123
2198 20845
2199 5012
2199 12502
2199 13302
2199 18415
2199 20266
2200 2549
2200 7530
2200 12803
2200 15759
2200 23274
2201 4307
2201 14787
2201 18861
2201 20338
2202 5225
2202 22543
2203 2317
2203 18543
2204 7876
2204 11902
2204 20634
2204 23412
2205 3282
2205 6653
2205 10671
2205 11758
2206 11700
2206 23893
2206 23894
2207 4289
2207 9221
2207 18445
2207 23854
2207 24345
2208 10435
2208 16444
2209 3538
2209 4211
2209 11063
2209 12624
2209 15219
2209 16376
2209 19701
2209 19810
2209 20931
2209 22419
2209 22498
2209 23127
2209 23747
2210 5553
2210 11619
2210 15648
2210 17642
2211 4331
2211 5794
2211 17989
2212 3967
2212 4104
2212 5271
2212 7481
2212 8710
2212 9722
2212 10056
2212 11660
2212 15633
2212 17269
2212 17573
2212 18542
2212 19661
2212 21689
2212 21870
2212 23186
2213 5828
2213 8102
2213 8148
2213 9217
2213 11091
2213 11399
2213 13127
2213 13694
2213 14039
2213 15865
2213 16845
2213 19828
2213 21157
2213 21928
2213 22758
2213 22951
2213 22962
2214 3943
2214 8036
2214 10217
2214 22778
2215 3616
2215 3617
2216 17340
2216 22092
2217 16809
2217 21682
2218 8262
2218 12924
2218 21703
2219 11134
2219 23854
2219 23856
2219 23954
2219 24424
2220 4166
2220 9888
2221 5086
2221 20242
2222 4161
2222 4483
2222 5593
2222 5810
2222 7664
2222 19352
2222 19638
2222 20454
2222 21266
2223 4958
2223 10921
2223 13317
2223 20414
2223 21357
2223 22268
2223 22942
2224 3313
2224 5143
2224 6749
2224 13883
2224 16993
2224 21995
2225 3388
2225 3416
2225 4353
2225 4524
2225 9954
2225 14029
2225 18317
2225 19718
2226 2299
2226 8141
2227 2569
2227 3240
2227 23789
2228 5777
2228 13099
2228 13941
2229 7555
2229 8151
2229 13872
2229 16165
2229 21684
2230 22889
2230 23362
2230 24016
2231 3582
2231 3902
2231 12396
2231 14380
2231 15393
2232 12488
2232 13567
2232 19218
2232 19236
2233 12744
2233 13454
2233 17919
2233 18174
2233 20761
2234 7787
2234 20541
2235 3007
2235 7000
2235 7627
2235 14657
2236 4680
2236 17428
2236 19171
2237 4973
2237 6605
2237 8208
2237 10715
2237 15597
2237 17404
2237 17926
2237 20217
2237 20218
2237 20708
2238 19240
2238 19744
2238 23331
2239 4641
2239 8159
2239 8687
2239 17294
2239 19260
2240 5328
2240 10893
2240 22287
2240 23552
2241 15033
2241 20925
2242 11699
2242 16328
2242 17616
2243 7154
2243 16110
2243 16839
2243 22225
2243 22802
2244 5048
2244 8538
2244 17334
2244 19239
2244 20210
2244 21069
2244 21368
2245 4509
2245 10320
2246 7203
2246 8519
2246 9375
2246 10830
2246 15657
2246 17504
2246 18627
2246 22461
2246 22790
2247 24417
2248 11204
2248 16174
2248 21554
2249 7506
2249 8301
2249 8409
2250 5581
2250 6362
2250 14692
2251 5916
2251 6515
2251 7535
2251 18006
2251 19811
2252 5229
2252 9175
2252 18372
2253 4243
2253 5842
2253 6473
2254 3218
2254 5231
2254 5488
2254 5675
2254 5804
2254 10463
2254 10739
2254 13719
2254 13748
2254 13967
2254 14602
2254 16530
2254 17633
2254 18073
2254 18324
2254 18675
2254 19561
2254 20120
2254 20277
2254 20648
2254 21172
2254 21974
2254 23132
2254 23219
2254 23297
2255 5774
2255 13387
2255 13519
2256 9055
2256 16173
2257 3336
2257 22053
2257 23028
2258 7445
2258 11618
2258 13055
2258 17719
2258 21441
2259 5387
2259 14548
2259 16098
2259 19755
2260 2285
2260 2884
2260 4022
2260 6390
2260 10967
2260 11384
2260 13287
2260 14436
2260 15018
2260 15993
2260 16166
2260 16496
2260 17684
2260 17991
2260 19935
2260 20306
2260 20488
2260 20533
2260 22910
2261 2344
2261 3951
2261 4199
2261 9374
2261 11846
2261 14283
2261 15505
2261 18539
2262 6636
2262 23783
2262 24151
2263 10501
2263 12338
2263 13033
2263 23271
2263 23432
2263 23932
2263 24091
2263 24162
2264 3636
2264 4493
2264 8804
2264 10243
2264 22647
2264 24158
2265 3810
2265 12692
2265 20006
2265 20680
2266 6484
2266 7758
2266 21611
2266 22716
2267 7561
2267 10378
2267 15106
2268 6986
2268 7963
2268 14796
2268 18776
2268 21203
2268 23514
2269 4539
2269 11555
2269 16653
2269 23207
2270 8423
2270 8428
2270 8429
2270 8430
2270 12163
2271 7959
2271 11465
2271 11877
2272 9950
2272 24213
2272 24347
2273 2691
2273 9719
2273 10829
2273 17546
2273 17681
2274 3362
2274 7625
2274 15825
2274 20692
2274 21537
2275 2441
2275 7377
2275 11757
2275 11838
2275 12828
2275 21519
2276 22180
2277 4308
2277 6848
2277 14512
2278 2882
2278 4896
2278 9094
2278 21576
2279 3050
2279 3437
2279 3508
2279 4956
2279 5305
2279 7534
2279 12371
2279 14945
2279 15257
2279 15876
2279 19792
2279 21625
2279 22704
2279 23434
2280 2509
2280 3946
2280 5968
2280 6131
2280 8916
2280 12420
2280 12873
2280 13288
2280 17707
2280 20253
2280 23255
2281 6878
2281 12316
2281 14887
2281 18810
2282 11580
2282 13161
2282 15670
2282 21427
2283 5537
2283 6571
2283 13910
2283 19079
2283 19305
2284 2342
2284 3116
2284 9426
2284 9502
2284 13580
2284 16162
2284 21542
2285 13502
2285 13774
2285 16166
2285 20533
2286 10882
2286 11752
2286 14420
2286 21111
2286 23443
2287 4964
2287 15751
2287 22504
2288 2767
2288 2785
2288 9149
2288 14520
2288 16656
2288 18159
2288 23365
2288 23883
2289 10245
2289 10571
2289 22841
2290 6719
2290 10571
2290 15315
2291 5004
2291 5387
2291 14400
2291 14548
2291 16021
2291 16098
2291 16908
2292 2571
2292 3716
2292 7793
2292 11405
2292 15610
2292 17606
2292 18648
2292 20653
2292 22677
2293 10829
2293 14901
2293 19736
2294 8615
2294 20463
2295 5774
2295 14641
2295 20840
2295 23541
2296 6318
2296 6884
2296 24189
2297 9010
2297 12099
2298 10407
2298 10872
2298 24173
2298 24458
2299 2353
2299 8141
2299 11402
2299 21115
2299 21938
2299 21939
2299 21940
2300 22707
2301 2526
2301 8235
2301 10709
2301 18686
2301 23136
2302 10639
2302 10712
2302 13155
2303 5177
2303 8299
2304 6294
2304 8545
2304 8889
2304 9036
2304 9601
2304 9651
2304 12620
2304 13675
2304 14363
2304 14820
2304 15882
2304 17478
2304 17797
2304 21972
2305 16462
2305 21700
2306 4395
2306 4635
2306 5631
2306 6050
2306 6355
2306 6776
2306 9277
2306 10256
2306 10638
2306 11052
2306 15429
2306 17637
2306 20046
2306 21228
2306 22068
2306 23050
2306 23370
2306 24295
2307 3052
2307 3450
2307 5253
2307 5876
2307 6320
2307 6425
2307 6768
2307 8357
2307 8548
2307 10296
2307 12154
2307 12504
2307 13475
2307 14736
2307 14861
2307 15734
2307 15749
2307 17778
2307 18253
2307 19131
2307 20044
2307 21092
2307 21146
2308 11451
2308 12787
2308 21500
2309 2784
2309 8691
2309 14783
2309 17935
2310 2684
2310 3983
2310 13546
2310 16494
2310 19024
2310 21030
2311 3182
2311 17839
2311 20885
2311 21433
2312 2987
2312 4556
2312 8020
2312 14412
2312 18604
2313 6679
2313 7687
2313 11996
2313 14282
2313 17141
2313 18307
2314 15156
2314 16363
2315 2960
2315 4197
2315 5114
2315 5208
2315 6003
2315 7726
2315 8936
2315 11105
2315 13131
2315 15127
2315 15337
2315 17252
2315 17264
2316 3809
2316 21556
2316 21614
2317 2337
2317 2462
2317 4281
2317 4315
2317 4624
2317 7810
2317 10160
2317 10322
2317 10472
2317 11450
2317 16673
2317 18168
2317 18814
2318 8487
2318 12356
2318 18286
2318 18998
2319 9323
2319 18644
2319 20660
2319 20746
2320 9501
2320 13013
2320 13179
2320 17131
2321 3138
2321 3460
2321 13037
2321 20912
2322 12474
2322 18275
2323 3026
2323 14021
2323 23862
2324 11311
2324 16247
2324 17207
2324 17407
2324 18677
2325 2824
2325 2928
2325 3071
2325 4023
2325 4402
2325 4618
2325 7971
2325 8509
2325 10210
2325 11767
2325 11982
2325 12529
2325 12805
2325 13216
2325 14151
2325 14877
2325 15351
2325 15559
2325 17275
2325 18981
2325 19099
2325 19105
2325 21602
2325 23143
2325 23369
2325 23768
2326 5221
2326 12302
2326 15728
2326 17346
2326 19195
2326 20121
2326 21490
2327 23765
2327 24257
2328 2962
2328 5142
2328 12247
2328 24213
2329 5142
2329 12247
2329 24167
2330 4402
2330 15351
2331 12532
2331 20349
2332 3474
2332 6242
2332 7404
2332 10745
2332 19436
2332 20502
2334 5328
2334 6388
2334 18286
2334 18998
2335 22365
2336 2548
2336 3488
2336 3772
2336 5168
2336 5824
2336 6202
2336 6250
2336 6625
2336 7150
2336 8377
2336 8675
2336 8698
2336 8822
2336 8849
2336 8933
2336 10688
2336 10777
2336 11050
2336 11171
2336 11910
2336 12293
2336 13527
2336 13651
2336 13654
2336 14885
2336 15464
2336 16515
2336 17088
2336 17305
2336 17645
2336 17950
2336 18546
2336 18872
2336 19116
2336 19734
2336 19900
2336 20555
2336 21945
2336 22065
2336 22646
2336 22862
2336 23283
2337 2543
2337 5757
2338 5775
2338 15171
2338 17449
2338 18975
2338 19091
2339 8198
2339 9691
2339 11214
2339 13361
2340 6476
2341 3258
2341 3607
2341 4261
2341 4704
2341 5874
2341 6419
2341 10360
2341 11338
2341 13149
2341 14756
2341 16386
2341 23820
2341 24254
2341 24401
2342 6475
2342 9426
2342 9464
2342 10772
2342 13642
2342 15003
2342 19485
2342 20318
2342 21542
2343 8868
2343 9423
2343 15312
2343 16323
2343 19705
2343 20171
2343 24221
2343 24222
2344 3321
2344 3951
2344 4199
2344 5751
2344 8507
2344 9374
2344 12401
2344 15505
2344 18539
2344 18797
2344 20874
2344 22210
2345 5328
2345 14513
2345 18782
2346 4256
2346 8905
2346 9717
2346 11149
2346 14735
2346 15254
2346 23623
2347 6417
2347 16279
2347 18246
2348 7266
2348 8499
2349 3986
2349 6950
2349 7478
2349 19393
2349 20249
2349 21269
2350 14511
2350 20718
2350 20850
2351 3212
2351 3524
2351 4571
2351 4796
2351 4812
2351 4848
2351 4877
2351 6836
2351 6971
2351 7317
2351 7695
2351 8190
2351 8205
2351 8855
2351 9820
2351 10018
2351 10068
2351 12715
2351 13061
2351 15744
2351 16432
2351 16968
2351 18535
2351 19096
2351 19680
2351 19765
2351 20706
2351 20771
2351 21721
2351 21810
2351 22894
2352 4419
2352 6759
2352 7275
2352 14136
2352 16398
2352 21617
2353 21115
2353 21938
2353 21939
2353 21940
2354 8528
2354 16584
2354 18061
2355 8668
2355 17228
2355 17917
2355 19820
2356 4701
2356 16591
2356 16969
2356 22756
2357 7000
2357 17871
2358 4592
2358 4678
2358 6262
2358 11507
2358 14231
2358 15278
2358 20856
2358 21667
2358 22875
2358 23338
2359 3702
2359 10679
2360 6912
2360 16963
2360 23078
2361 8753
2361 15445
2362 7545
2362 7895
2362 23120
2363 2999
2363 24246
2364 5345
2364 9215
2364 23715
2364 24117
2364 24281
2365 5178
2365 24074
2365 24078
2366 5627
2366 8181
2367 9543
2367 12959
2368 4147
2368 4863
2368 9401
2368 9936
2368 13913
2368 14264
2368 20800
2369 9536
2369 23922
2370 7815
2370 18918
2370 23051
2371 2876
2371 10880
2371 11780
2371 15660
2371 22153
2372 7895
2372 8490
2372 24013
2372 24177
2372 24271
2373 9826
2373 16173
2374 11514
2374 12450
2374 13314
2374 15074
2375 4975
2375 7827
2375 11955
2375 15238
2375 20934
2376 9038
2376 9866
2376 19797
2376 22796
2377 4168
2377 4908
2377 11444
2377 16250
2377 23719
2377 23952
2377 24044
2378 10059
2378 18750
2379 4275
2379 6415
2379 8679
2380 5056
2380 10315
2381 2610
2381 3430
2381 4893
2381 8235
2381 12101
2381 14364
2381 15288
2381 16509
2381 20603
2381 23369
2382 4550
2382 7359
2382 19119
2382 19120
2383 20146
2383 20766
2383 23697
2383 23895
2384 8996
2384 8997
2384 15862
2384 23047
2384 23048
2385 3919
2385 12007
2385 14382
2385 23778
2385 23946
2386 6719
2386 15440
2386 17270
2386 23067
2387 6868
2387 9666
2387 9667
2387 9668
2387 13882
2387 14724
2387 15565
2387 16601
2387 20495
2388 6663
2388 8215
2388 9628
2388 14143
2388 17001
2389 5344
2389 23321
2389 23804
2390 3525
2390 4712
2390 6276
2390 10712
2390 10775
2390 13155
2390 14383
2390 15727
2391 5344
2391 23804
2392 4817
2392 5344
2392 24144
2393 6236
2393 10499
2393 22726
2393 22727
2393 23971
2394 4101
2394 4749
2394 15300
2395 5096
2395 6211
2395 13861
2395 23813
2395 23833
2395 24078
2396 7450
2396 9360
2396 10611
2396 17047
2397 12007
2397 18614
2398 9310
2398 11456
2398 17292
2398 19181
2399 6303
2400 3491
2400 4133
2400 5216
2400 5422
2400 6164
2400 6618
2400 9211
2400 10137
2400 10348
2400 10361
2400 16670
2400 17543
2400 18451
2400 18971
2400 19893
2400 20739
2400 20740
2400 23293
2400 24266
2400 24297
2400 24316
2400 24317
2400 24324
2400 24461
2401 13444
2401 24099
2401 24152
2401 24161
2402 6187
2402 23862
2402 23953
2403 7374
2403 8314
2403 12162
2403 21818
2403 22682
2403 23875
2403 23914
2403 23984
2404 6139
2404 10326
2404 11205
2404 23952
2404 24471
2405 11641
2405 24225
2405 24411
2406 6199
2406 7265
2406 7746
2406 10451
2406 24476
2406 24480
2407 3989
2407 4133
2407 13355
2407 18330
2407 24198
2408 7390
2408 10668
2408 12258
2408 20147
2408 24014
2409 2426
2409 3056
2409 3917
2409 4586
2409 6295
2409 6486
2409 7565
2409 7610
2409 10724
2409 12057
2409 12807
2409 13746
2409 14658
2409 14927
2409 15817
2409 16703
2409 16935
2409 16952
2409 21458
2409 21775
2409 22747
2409 23173
2410 7447
2410 13900
2410 19613
2411 6666
2411 10040
2411 17055
2411 21289
2412 7732
2412 9203
2412 11231
2412 17052
2412 18858
2413 6165
2413 9143
2413 11633
2413 16892
2413 17869
2413 19952
2413 22386
2413 23501
2414 4701
2414 5160
2414 7446
2414 21929
2414 22716
2415 6174
2415 10607
2415 13807
2415 16056
2415 18671
2416 8857
2417 9776
2417 10677
2417 14127
2417 14481
2417 14816
2417 16469
2418 4449
2418 14066
2419 10245
2420 9323
2420 15417
2420 20660
2421 7485
2421 10891
2421 11967
2421 12256
2421 12387
2421 14123
2421 14234
2421 15736
2421 18018
2422 4995
2422 5174
2422 6780
2422 20219
2423 3510
2423 17922
2424 12176
2424 23956
2424 23972
2424 23986
2425 5177
2425 17609
2426 10950
2426 13231
2426 18028
2426 23173
2427 4274
2427 4725
2427 6402
2427 7345
2427 8142
2427 8387
2427 9342
2427 10708
2427 14297
2427 17909
2427 18667
2427 20055
2427 21025
2427 22436
2427 23453
2428 5580
2428 5685
2428 5973
2428 7009
2428 8200
2428 9099
2428 11773
2428 13042
2428 14198
2428 16852
2428 17384
2428 17547
2428 18359
2428 20190
2428 20293
2428 21061
2428 21474
2428 22675
2428 23524
2429 5437
2429 7567
2429 8754
2429 11661
2429 22157
2430 2845
2430 5530
2430 12957
2430 21074
2431 5015
2431 7011
2431 10420
2432 5315
2432 7800
2432 10596
2432 10945
2432 13854
2432 14478
2432 15080
2432 15831
2432 16011
2432 16270
2432 16401
2432 17557
2433 19506
2433 22596
2433 23258
2434 9238
2434 18252
2434 19349
2434 22640
2435 6178
2435 7241
2435 10462
2435 10520
2435 14994
2435 15810
2435 19021
2435 23690
2436 14734
2436 17643
2436 20204
2437 2646
2437 4800
2437 7752
2437 8459
2437 19004
2437 19592
2437 23615
2438 10864
2438 24476
2438 24480
2438 24488
2439 4233
2439 13391
2439 13780
2439 13881
2439 13977
2439 16814
2439 19664
2439 19786
2440 2657
2440 2863
2440 13067
2440 14005
2440 14157
2440 16343
2440 16820
2440 17033
2440 21242
2441 11757
2441 11838
2441 12828
2441 21519
2442 3215
2442 4194
2442 6644
2442 7719
2442 10133
2442 14035
2442 15320
2442 15788
2442 20178
2443 5652
2443 18771
2444 7883
2444 11207
2444 11482
2444 12323
2444 18183
2444 22503
2445 20469
2445 21083
2445 21378
2446 3329
2446 3527
2446 3596
2446 3768
2446 4420
2446 5077
2446 5310
2446 9216
2446 14502
2446 15652
2446 16326
2446 18624
2446 18786
2447 3255
2447 8365
2447 9646
2447 10297
2447 10790
2447 17700
2447 17728
2447 21875
2448 11188
2448 13762
2448 15525
2448 15526
2448 23486
2449 8560
2449 10526
2449 14316
2450 11188
2450 13762
2450 15525
2451 2551
2451 8055
2452 7298
2452 9565
2452 18092
2452 18139
2453 8826
2453 14628
2453 21466
2453 23499
2454 4244
2454 12750
2454 16487
2454 17532
2454 18500
2454 21072
2455 5545
2455 13757
2455 18168
2456 3597
2456 6321
2456 13603
2456 17267
2456 19761
2457 16650
2457 17361
2458 2607
2458 10886
2458 13756
2458 14230
2458 14585
2458 17722
2459 4253
2459 12482
2459 16586
2459 18433
2460 3287
2460 3852
2460 3937
2460 7124
2460 7517
2460 8145
2460 9712
2460 11483
2460 14961
2460 22051
2461 4404
2461 8528
2461 21034
2461 22311
2461 23138
2462 7810
2462 17347
2463 3198
2463 4487
2463 13354
2463 14484
2464 4252
2464 12609
2465 4925
2465 8717
2465 8987
2465 18476
2466 6848
2467 3041
2467 8266
2467 18632
2467 20973
2468 5553
2468 13210
2469 4911
2469 8083
2469 9486
2469 24026
2470 5551
2470 15073
2470 21010
2470 24232
2471 5452
2471 7993
2471 11387
2471 14559
2471 22454
2472 3235
2472 3551
2472 4400
2472 4841
2472 10622
2472 10623
2472 15243
2472 16177
2473 13110
2473 16956
2473 17393
2473 21560
2473 21562
2473 21563
2474 2913
2474 5505
2474 6566
2474 8853
2475 4195
2475 7831
2476 11074
2476 15285
2476 20763
2477 3610
2477 8621
2477 11389
2478 2764
2478 3953
2478 13954
2478 17405
2478 20999
2479 4397
2479 7558
2479 11951
2479 19517
2479 22283
2480 5289
2480 12119
2480 18387
2480 20165
2480 22559
2481 3529
2481 5903
2481 6947
2481 23405
2482 2682
2482 4707
2482 7640
2482 23876
2482 24166
2483 7652
2483 8006
2483 13661
2483 19655
2483 21275
2484 19973
2485 8554
2485 15151
2485 22025
2486 5274
2486 8720
2486 9591
2486 13908
2486 17228
2487 8410
2487 10798
2487 14653
2487 16914
2487 19113
2488 4178
2488 6758
2488 8947
2488 12751
2488 13487
2488 15360
2488 15949
2488 15994
2488 17954
2488 23518
2489 2493
2489 10518
2489 19990
2489 23973
2490 10515
2490 24099
2491 6357
2491 6719
2491 17270
2491 17657
2491 18816
2491 20151
2491 22465
2491 23483
2492 10513
2492 13340
2492 23667
2492 24099
2493 10516
2493 19990
2493 23973
2493 24099
2494 2904
2494 3595
2494 14506
2495 12099
2495 20696
2496 3087
2496 3088
2496 3675
2496 4322
2496 7226
2496 9637
2496 15790
2496 19171
2497 3351
2497 19506
2497 23258
2498 5018
2498 13675
2498 20093
2499 3268
2499 15538
2499 21894
2500 7885
2500 10067
2500 11690
2500 11884
2500 17517
2500 21558
2500 22670
2500 22672
2501 9161
2501 15036
2501 18014
2501 22984
2502 2648
2502 11980
2502 13239
2502 21532
2502 23636
2502 23809
2502 24154
2503 4762
2503 11350
2503 12206
2503 18146
2504 3240
2504 11542
2504 23789
2504 23897
2505 8705
2505 9554
2505 9801
2505 11365
2505 12464
2506 7910
2507 7268
2507 9685
2507 10390
2507 10767
2507 20375
2508 4069
2508 16647
2509 3946
2509 7489
2509 8916
2509 13288
2509 23255
2510 13669
2510 23433
2511 8153
2511 8804
2511 24158
2512 11503
2512 21533
2512 21645
2513 5205
2513 5520
2513 11164
2513 16588
2513 17911
2513 20503
2514 9035
2514 11014
2514 18933
2514 20525
2515 3083
2515 9977
2515 12643
2516 3228
2516 4789
2516 8026
2516 21505
2517 3376
2517 5523
2517 5727
2517 7326
2517 7367
2517 8543
2517 9853
2517 10362
2517 12417
2517 12973
2517 13093
2517 13112
2517 13224
2517 13395
2517 13672
2517 13840
2517 14324
2517 15392
2517 15983
2517 17155
2517 21472
2517 21567
2518 13509
2518 21401
2519 5038
2519 5177
2519 8299
2519 13054
2519 17609
2519 18118
2519 20666
2519 23260
2520 3120
2520 8458
2520 8508
2520 9560
2520 12141
2520 13879
2521 5396
2521 8390
2521 13698
2521 14495
2521 14644
2521 22540
2522 3821
2522 8282
2522 8531
2522 19014
2523 5739
2523 7127
2523 9170
2523 21508
2523 21721
2523 23555
2524 5277
2524 15178
2524 15200
2524 16735
2524 24071
2525 6201
2525 6351
2525 10666
2525 18976
2526 18686
2527 2886
2527 9196
2527 12801
2528 7894
2528 16773
2528 19554
2529 5760
2529 12424
2529 15739
2529 22879
2530 18372
2530 19869
2530 22428
2531 6930
2532 5985
2532 7797
2532 14120
2532 16951
2532 18568
2533 3868
2533 12025
2533 18544
2533 20747
2533 21949
2534 16031
2534 19529
2534 20575
2535 10448
2535 18631
2535 21311
2536 13460
2536 14071
2536 21614
2537 6208
2537 11880
2537 18722
2537 20513
2537 22905
2538 7190
2538 7311
2538 19452
2539 9590
2539 12139
2539 15623
2539 17058
2540 4791
2540 10197
2540 11265
2540 11370
2540 12405
2540 14036
2540 21101
2540 22745
2540 23423
2541 3327
2541 5635
2541 9018
2541 10098
2541 10245
2541 13399
2541 15315
2541 15533
2541 17298
2541 18651
2541 20410
2541 20538
2541 21078
2541 22618
2541 22696
2541 23296
2541 23587
2542 24000
2543 4624
2543 5846
2543 12498
2543 13606
2543 14150
2543 14347
2543 19940
2543 22041
2544 11331
2544 18220
2544 18742
2544 20261
2545 4934
2545 6594
2545 8800
2545 9507
2545 13319
2545 13331
2545 13526
2545 16556
2545 20607
2545 21593
2545 21614
2545 22445
2545 23456
2546 4970
2546 8054
2546 11787
2546 14865
2546 15203
2547 15533
2547 22696
2547 23296
2547 23587
2548 3488
2548 17305
2549 23274
2549 24326
2550 3383
2550 3804
2550 4045
2550 4066
2550 6063
2550 9600
2550 10618
2550 10754
2550 11066
2550 11178
2550 11732
2550 12210
2550 12500
2550 15261
2550 16076
2550 16300
2550 17403
2550 17821
2550 19045
2550 21543
2550 21632
2550 22591
2551 7058
2551 8055
2551 8537
2551 8604
2551 8661
2551 10571
2551 14836
2551 15157
2551 15297
2551 19227
2551 19845
2551 20096
2551 21991
2552 3457
2552 14156
2552 17992
2552 19318
2552 20107
2553 5057
2553 5058
2553 23862
2553 23953
2554 12079
2554 15145
2554 19381
2554 21437
2554 22290
2555 5907
2555 6965
2555 8483
2555 16207
2556 2977
2556 9569
2556 21673
2556 21913
2557 6028
2557 20943
2557 21983
2558 4433
2558 4807
2558 14713
2558 15631
2559 2561
2559 3699
2559 17080
2559 17081
2560 5088
2560 5129
2560 6455
2560 12927
2560 13659
2560 17424
2560 18214
2560 21527
2560 22708
2561 5981
2561 17080
2561 17081
2561 18328
2561 19086
2561 21456
2561 21699
2562 2564
2562 4806
2562 4807
2562 21378
2563 2564
2563 3706
2563 4192
2563 4798
2563 4804
2563 4805
2563 4807
2563 4808
2563 5534
2563 5980
2563 8288
2563 8845
2563 11855
2563 14248
2563 21378
2564 4798
2564 4804
2564 4807
2564 4808
2564 5980
2564 14248
2564 22242
2565 11908
2566 2584
2566 7342
2566 9458
2566 9917
2566 12228
2566 17101
2566 17953
2567 7803
2567 9416
2567 12108
2567 17640
2567 21455
2568 3289
2568 7557
2568 8890
2568 12387
2568 14123
2568 14234
2568 15736
2568 21849
2569 2719
2569 3240
2569 3243
2569 12388
2569 23788
2569 24063
2570 7980
2570 8264
2570 8406
2570 12616
2570 16382
2570 16593
2570 19463
2570 20235
2570 21137
2571 19611
2571 20653
2572 4395
2572 5501
2572 6537
2573 3832
2573 5571
2573 5572
2573 12524
2573 18478
2574 5526
2574 17305
2575 2770
2575 6915
2575 17785
2576 23892
2576 24174
2576 24417
2577 4308
2577 10557
2577 14512
2578 5511
2578 6551
2578 10139
2578 13197
2578 21556
2578 21614
2579 4647
2579 7320
2579 13292
2579 15980
2579 19027
2579 21503
2580 8882
2580 14359
2580 16959
2580 17641
2580 21163
2581 2847
2581 12269
2581 12512
2582 7203
2582 8011
2582 10830
2582 18627
2582 22461
2583 15327
2583 18608
2583 23582
2584 9458
2584 12228
2584 17587
2585 6634
2585 8556
2585 9819
2586 3445
2586 6256
2586 12003
2586 13459
2586 16246
2586 17214
2587 10766
2587 12337
2587 13020
2587 19754
2587 23472
2588 8136
2588 8255
2588 13168
2588 20807
2588 23492
2589 17067
2589 19383
2589 19569
2589 21646
2589 21648
2590 2812
2590 5535
2590 5536
2590 5564
2590 5566
2590 7978
2590 10215
2590 12070
2590 12849
2590 13851
2590 14251
2590 14270
2590 19410
2590 20370
2590 21819
2590 23047
2591 3541
2591 14643
2592 9858
2592 14385
2592 16618
2593 3435
2593 7151
2593 7172
2593 10644
2593 12864
2593 13057
2593 13493
2593 23413
2594 3997
2594 8758
2594 10336
2594 13414
2594 14265
2594 14997
2594 16830
2594 17813
2595 4481
2595 24050
2596 6378
2596 23811
2596 24451
2597 17898
2597 18678
2598 4244
2598 6444
2598 7624
2598 9288
2598 16487
2599 4906
2599 8664
2599 11671
2599 11751
2599 18217
2599 19346
2599 21518
2599 23234
2600 8790
2600 9360
2600 10426
2601 3061
2601 11199
2601 17369
2602 3735
2602 9671
2602 12722
2602 14080
2602 18193
2602 20965
2602 21084
2602 21094
2603 7845
2603 10288
2603 10533
2603 20743
2604 9970
2604 10217
2604 13898
2604 15444
2605 10965
2605 16193
2605 16423
2606 9762
2606 22193
2607 3738
2607 4700
2607 9585
2607 14230
2607 16219
2607 17300
2607 18551
2607 20631
2607 20858
2607 22188
2608 3668
2608 4302
2608 11624
2608 20812
2609 8802
2609 10866
2609 10867
2609 10924
2609 24204
2610 7121
2610 8281
2610 20603
2610 22960
2611 6268
2611 11147
2611 15482
2612 7383
2612 14114
2612 14790
2613 3737
2613 4509
2613 5613
2613 6153
2613 7094
2613 7436
2613 8203
2613 10320
2613 10637
2613 13049
2613 15455
2613 17328
2613 21131
2613 23644
2614 6876
2614 8438
2614 13722
2614 22183
2615 8879
2615 10817
2615 20000
2615 20117
2617 6324
2617 19026
2617 22196
2617 22680
2618 5809
2618 7548
2618 8297
2619 2989
2619 15802
2619 19607
2620 4310
2620 4409
2620 6384
2620 7673
2620 9630
2620 9921
2620 23023
2621 7077
2621 9241
2621 9351
2622 3239
2622 12709
2622 13294
2622 15453
2623 2647
2623 23978
2623 24238
2624 6855
2624 7366
2624 9162
2624 10827
2624 12945
2624 20434
2624 21241
2624 22002
2625 9569
2625 21673
2626 2695
2626 18314
2627 8358
2627 11684
2627 17749
2628 8593
2628 19604
2628 23982
2629 5952
2629 6292
2629 15399
2629 21257
2630 8387
2630 9342
2630 11396
2630 16135
2631 10404
2631 23878
2631 23896
2631 24264
2632 6169
2632 10404
2632 17610
2632 24147
2633 22893
2633 24024
2634 12355
2635 3275
2635 3754
2635 5320
2635 6422
2635 7577
2635 16312
2635 17094
2636 3669
2636 15068
2636 17851
2636 19566
2637 3673
2637 6310
2637 7528
2637 8512
2637 14272
2637 19657
2638 7759
2638 16608
2638 20189
2638 20771
2639 8644
2639 13139
2639 13868
2639 16361
2639 18945
2639 22049
2640 3989
2640 5422
2640 5818
2640 6761
2640 16670
2641 6631
2641 7560
2642 2944
2642 6318
2642 6333
2642 11292
2642 11294
2642 11296
2642 13462
2642 16119
2642 16369
2642 17076
2642 20605
2642 22523
2642 23735
2642 23765
2642 24161
2642 24211
2642 24298
2643 2647
2643 3163
2643 3357
2643 4007
2643 4377
2643 4852
2643 5235
2643 5299
2643 6401
2643 6808
2643 6900
2643 7647
2643 8834
2643 9579
2643 9983
2643 12453
2643 12800
2643 13627
2643 13943
2643 18956
2643 20942
2643 20944
2643 21919
2643 22845
2643 23829
2643 24304
2643 24305
2643 24333
2643 24337
2643 24338
2643 24425
2644 4293
2644 6212
2644 12551
2644 15050
2644 16073
2644 16859
2645 8642
2645 18187
2645 18268
2645 18920
2645 23870
2645 24032
2645 24446
2646 7752
2646 14246
2646 16113
2647 3163
2647 4774
2647 6359
2647 7676
2647 11908
2647 14942
2647 18794
2647 23960
2648 4721
2648 8600
2648 9235
2648 10123
2648 10984
2648 11664
2648 24064
2648 24093
2648 24154
2649 7626
2649 13597
2649 13632
2649 23375
2650 11124
2650 19540
2651 3016
2651 19793
2651 20727
2651 20951
2652 3498
2652 9387
2652 13332
2652 13656
2653 5741
2653 11425
2653 14600
2653 15041
2653 16254
2654 9754
2654 11472
2654 13080
2654 14992
2654 17007
2655 4874
2655 4985
2655 8130
2655 9079
2655 10161
2655 11224
2655 11636
2655 14460
2655 15152
2655 16637
2655 18494
2656 4653
2656 5417
2656 5419
2656 23676
2656 24124
2657 6481
2657 15272
2657 16210
2657 16820
2657 17033
2658 3690
2658 3857
2658 9213
2658 10383
2658 11260
2659 2770
2659 3836
2659 4935
2659 15351
2660 4293
2660 7212
2660 11297
2660 24016
2661 13385
2661 18110
2661 19348
2662 8265
2662 15615
2662 23440
2663 4402
2663 18166
2664 2700
2664 5001
2664 12117
2664 18474
2664 19127
2664 19850
2665 3907
2665 7794
2665 18077
2665 19731
2665 21116
2665 22992
2666 2810
2666 4974
2666 5384
2666 7529
2666 8004
2666 8420
2666 10663
2666 11592
2666 15167
2666 17963
2666 18285
2666 19921
2666 20703
2666 21280
2666 22634
2667 12303
2667 14486
2667 18900
2667 22053
2668 10245
2668 10571
2668 18908
2669 3483
2669 9386
2669 10087
2669 18508
2669 22350
2670 8040
2670 10246
2670 14196
2670 15111
2670 19272
2670 20421
2670 22772
2671 5035
2671 6520
2671 11127
2671 17105
2671 21139
2672 3564
2672 16318
2672 16740
2672 17959
2672 20302
2672 23112
2673 3269
2673 15583
2673 21896
2674 7291
2674 12879
2674 20697
2675 9782
2675 9899
2675 16329
2675 16619
2675 17801
2675 18881
2675 21848
2675 23450
2677 8054
2677 11670
2677 14677
2677 15308
2677 17333
2677 18431
2677 18852
2677 20281
2678 4465
2678 22701
2678 22757
2679 7880
2679 11191
2679 12850
2679 18653
2679 19138
2680 8178
2680 10498
2680 11584
2680 13263
2680 13304
2680 13947
2680 16000
2681 2682
2681 2747
2681 2920
2681 5443
2681 9057
2681 9496
2681 10525
2681 12060
2681 12165
2681 12613
2681 14731
2681 23001
2681 23559
2681 24045
2681 24079
2681 24210
2682 7240
2682 7537
2682 7597
2682 12060
2682 12165
2682 24045
2682 24166
2682 24210
2683 7641
2683 16225
2683 22408
2683 23559
2683 23870
2683 24079
2684 2800
2684 13546
2684 19024
2684 21030
2684 22479
2685 2792
2685 5436
2685 5905
2685 8825
2685 18969
2686 12101
2686 12870
2686 14752
2687 6524
2687 12591
2687 22592
2687 23431
2688 3612
2688 11694
2688 15820
2689 23881
2689 24040
2690 13001
2690 13181
2690 13378
2690 21316
2690 23898
2691 8866
2691 15100
2691 19736
2692 3488
2692 5526
2692 17305
2693 7051
2693 19687
2693 20087
2694 8417
2694 12145
2694 17349
2694 18413
2695 2784
2695 4484
2695 5638
2695 10838
2695 11379
2695 11486
2695 13488
2695 13789
2695 14886
2695 15364
2695 15786
2695 17935
2695 18034
2695 18403
2695 19748
2695 20527
2695 22872
2695 23174
2695 23600
2696 14238
2696 23234
2697 7045
2697 10238
2697 10608
2697 15933
2697 22769
2698 4076
2698 9422
2698 20695
2699 3379
2699 8329
2699 9950
2699 16022
2700 3490
2700 5001
2700 18474
2700 19587
2701 3756
2701 5065
2701 7972
2701 9096
2701 9290
2701 11683
2701 16561
2701 20053
2701 20528
2702 4328
2702 4935
2702 19997
2703 3749
2703 10942
2703 19382
2704 18611
2704 23308
2705 9329
2705 15991
2705 19601
2705 20638
2706 6966
2706 7294
2706 9371
2706 9806
2706 9836
2706 11872
2706 20793
2707 18188
2708 6014
2708 11531
2708 21551
2709 11626
2709 15278
2709 21667
2710 5095
2710 17646
2711 6510
2711 15023
2712 3651
2712 3791
2712 8326
2712 13051
2712 14233
2712 20439
2713 3833
2713 8338
2713 10065
2713 15542
2713 18683
2713 22740
2714 6360
2714 7977
2714 21556
2715 7117
2715 10245
2715 10571
2715 22064
2715 22841
2716 4185
2716 22424
2717 2749
2717 4158
2717 5406
2717 5889
2717 6035
2717 6831
2717 7581
2717 11041
2717 16143
2717 19261
2717 21106
2717 22091
2717 23294
2718 3491
2718 14948
2718 24288
2719 7974
2719 17423
2719 18668
2719 23723
2719 23786
2719 24063
2720 4937
2720 5108
2720 5121
2720 8221
2720 21880
2721 5435
2721 10881
2721 15586
2721 20123
2722 7888
2722 11921
2722 13166
2722 21760
2723 7038
2723 7700
2723 10290
2723 11502
2723 11505
2723 20875
2724 3458
2724 12562
2724 14424
2724 15347
2724 18954
2724 22984
2725 12402
2725 18279
2726 3469
2726 14999
2726 21332
2727 2729
2727 2730
2727 7835
2727 10598
2727 10938
2727 11230
2727 11665
2727 24130
2728 2729
2728 2730
2728 7835
2728 10598
2729 7835
2729 10598
2729 10938
2730 10598
2731 6376
2731 7070
2731 10406
2731 22907
2732 9073
2732 12357
2732 17680
2732 20016
2733 11818
2733 18299
2734 4234
2734 14405
2734 15646
2734 23337
2735 17005
2735 19447
2735 20429
2735 21964
2735 22755
2736 3490
2736 12117
2736 18474
2736 21909
2736 22466
2737 12896
2737 14267
2737 16742
2737 17022
2737 23123
2737 23510
2738 4537
2738 6926
2738 13474
2738 18345
2738 21563
2739 4832
2740 4648
2740 7377
2740 9869
2740 14092
2740 19446
2740 19635
2741 5856
2741 11699
2741 18710
2742 4981
2742 6158
2742 10785
2743 15265
2744 4018
2744 10807
2744 12699
2744 17257
2745 5783
2745 7170
2745 11622
2745 13208
2745 13953
2745 15755
2745 17142
2745 20090
2745 22861
2746 3657
2746 6549
2746 6997
2746 10446
2746 10917
2746 12112
2746 12254
2746 20149
2746 20961
2746 22400
2747 7640
2747 24166
2748 6358
2748 12566
2748 16018
2748 18313
2748 23617
2748 23975
2749 5889
2749 17640
2750 11219
2751 3034
2751 4739
2751 6606
2751 8619
2751 9084
2751 10189
2751 13880
2751 13997
2751 15921
2752 2929
2752 3829
2752 4672
2752 5356
2752 17273
2752 21326
2753 6266
2753 8451
2753 9805
2753 13261
2753 13996
2753 14828
2754 16425
2755 5542
2755 7130
2755 15730
2755 20144
2756 3711
2756 11854
2756 12251
2756 23632
2756 24408
2757 7324
2757 11978
2757 21528
2758 19953
2758 24436
2759 3745
2759 7091
2759 20651
2760 4234
2760 17563
2760 23337
2761 3787
2761 5213
2761 11182
2761 13267
2761 13842
2762 3068
2762 5089
2762 6207
2762 8405
2762 11404
2762 16185
2762 16851
2763 4577
2763 8782
2763 10523
2763 12966
2764 4503
2764 5138
2764 6223
2764 8476
2764 10670
2764 13212
2764 14956
2764 15941
2764 17405
2765 7669
2765 9264
2765 10608
2765 23528
2766 2895
2766 2916
2766 5607
2766 6204
2766 13174
2766 18615
2766 18977
2766 21213
2766 23940
2766 24060
2766 24422
2766 24448
2767 5096
2767 23883
2767 23933
2768 8201
2768 9210
2768 9723
2768 10810
2768 10995
2768 11892
2768 12782
2768 24438
2769 4795
2769 7146
2769 17974
2770 3836
2770 5206
2770 5515
2770 5577
2770 5862
2770 8835
2770 10078
2770 11695
2770 12143
2770 12322
2770 13167
2770 13436
2770 14575
2770 14667
2770 16507
2770 17305
2770 17785
2770 22354
2770 22490
2770 22926
2771 6966
2771 7294
2771 8658
2771 9836
2771 11872
2771 15976
2772 2933
2772 7463
2772 10342
2772 11553
2772 12281
2772 17863
2772 20909
2773 7578
2773 8798
2773 10601
2773 11649
2773 15555
2773 19427
2773 21792
2774 3151
2774 18094
2774 23123
2775 7888
2775 8156
2775 12391
2775 13166
2775 14874
2776 3397
2776 8413
2776 21009
2777 13824
2777 16456
2777 20430
2778 3021
2778 5478
2778 7003
2778 9806
2778 15824
2778 22601
2779 17494
2779 21587
2780 9988
2780 20028
2780 20031
2781 6138
2781 7646
2781 7873
2781 8824
2781 12930
2781 17460
2781 18001
2781 21534
2781 22320
2781 23072
2781 23447
2782 4935
2782 8019
2782 8611
2782 18732
2783 4142
2783 16563
2783 22488
2783 22937
2783 23054
2784 3205
2784 3867
2784 4079
2784 4484
2784 5110
2784 5557
2784 6570
2784 6750
2784 6811
2784 7147
2784 7276
2784 7992
2784 8691
2784 9017
2784 10105
2784 10693
2784 11256
2784 13515
2784 13643
2784 14783
2784 15364
2784 16949
2784 17133
2784 17311
2784 17635
2784 17935
2784 17941
2784 20527
2784 21853
2785 5096
2785 23912
2786 4296
2786 7551
2786 14403
2786 17782
2786 22643
2787 9278
2787 13029
2787 15129
2787 17800
2787 19189
2787 21124
2787 21520
2787 23298
2788 7984
2788 8788
2788 24152
2788 24428
2789 3907
2789 9779
2789 14585
2789 14725
2789 19731
2790 24189
2790 24239
2791 16615
2791 20845
2791 21580
2792 4538
2792 4600
2792 5905
2792 8269
2792 8825
2792 12264
2792 18969
2792 19185
2792 20969
2792 20977
2792 23588
2793 8427
2793 20545
2793 22998
2794 7922
2794 14697
2794 15977
2795 3701
2795 4580
2795 24099
2796 2908
2796 7397
2796 10730
2796 13985
2796 14138
2797 6699
2797 9834
2797 13068
2797 15136
2797 20345
2797 20769
2797 23178
2798 4472
2798 5858
2798 12726
2799 3639
2799 3841
2799 5115
2799 6031
2799 20057
2800 7439
2800 14063
2800 20468
2801 4541
2801 22281
2801 23284
2802 6950
2802 9066
2802 14419
2802 19393
2802 20249
2802 21269
2803 9963
2803 21270
2804 7602
2804 10013
2804 18479
2804 19950
2804 20530
2804 21045
2804 22038
2805 3897
2805 5918
2805 9522
2805 11742
2805 15382
2805 15754
2805 20557
2805 22603
2806 4188
2806 8609
2806 9190
2806 9307
2806 10311
2806 14394
2806 23336
2806 23987
2807 9662
2807 12884
2807 14278
2807 18925
2807 19866
2808 8800
2808 14585
2809 4028
2809 7731
2809 9286
2809 17186
2809 18730
2809 22955
2810 5384
2810 9300
2810 11061
2810 15167
2811 8082
2811 18372
2811 22722
2811 23085
2812 15641
2812 15645
2813 2814
2813 5614
2813 5965
2813 10724
2813 13711
2813 13746
2813 13914
2813 18028
2813 18277
2813 20229
2814 5614
2814 10413
2815 5820
2815 20144
2816 3686
2816 3687
2816 7569
2816 7721
2816 7848
2816 7849
2816 23630
2816 23936
2816 24118
2816 24120
2816 24191
2816 24192
2816 24358
2817 9202
2817 12878
2817 13442
2817 18580
2817 19401
2817 19759
2817 20197
2817 22427
2818 15281
2818 18580
2818 20393
2819 8306
2819 18580
2820 12066
2820 13770
2820 17288
2820 17289
2820 23159
2820 23165
2821 17595
2821 19204
2821 23282
2822 6686
2822 8299
2822 9415
2822 12065
2822 13090
2822 15263
2822 16534
2822 16788
2822 21215
2822 21382
2823 3833
2823 4662
2823 12740
2823 17248
2823 19722
2824 2977
2825 3948
2825 19022
2825 20607
2825 21753
2826 6939
2826 8544
2826 14093
2826 14545
2826 20360
2827 11849
2827 15975
2827 19757
2827 20996
2828 5668
2828 10970
2828 11027
2828 13630
2828 15163
2829 7177
2829 7809
2829 8096
2829 8433
2829 12516
2829 17019
2829 18512
2830 17225
2830 19506
2831 4984
2831 4990
2831 14266
2831 14773
2832 5429
2832 6458
2832 14528
2832 20662
2833 7373
2833 9101
2833 13913
2833 17439
2834 3935
2834 8606
2834 17054
2835 6379
2835 7311
2835 7591
2835 11346
2835 18793
2835 19452
2835 19690
2835 19941
2836 10115
2836 11254
2836 11309
2836 16317
2836 19176
2836 21406
2836 22492
2836 22775
2836 23033
2836 23598
2837 3313
2837 22867
2838 4168
2838 23952
2839 14895
2840 4666
2840 6042
2840 7258
2840 12449
2840 13370
2840 14402
2840 15362
2840 17335
2840 21807
2840 21935
2840 22804
2840 23225
2840 23369
2841 9395
2841 18193
2841 21205
2842 7908
2842 13965
2842 22152
2843 11508
2843 22265
2843 23864
2844 6624
2844 12664
2845 4026
2845 9919
2845 10330
2845 12957
2845 13185
2845 14210
2845 14375
2845 15028
2845 16010
2845 16428
2845 17678
2845 18101
2845 19955
2845 20572
2845 21074
2845 22102
2846 3344
2846 4262
2846 16433
2846 17459
2846 23306
2847 12512
2847 22587
2848 12324
2848 12365
2848 22336
2849 8736
2849 8774
2849 10753
2849 17597
2849 24239
2850 7660
2850 9192
2850 9965
2850 11686
2850 20248
2851 5404
2851 8465
2851 10733
2851 11366
2851 12021
2851 19777
2851 20818
2851 21409
2852 10571
2852 12348
2852 22904
2853 6269
2853 23709
2853 23907
2854 3964
2854 4768
2854 5919
2854 6254
2854 13920
2854 15275
2854 16415
2854 22582
2855 3096
2855 3546
2855 10046
2855 23878
2855 23931
2855 24310
2856 4257
2856 7149
2856 23950
2857 5055
2857 6142
2857 9112
2857 22263
2857 22903
2858 2879
2858 5349
2858 6073
2858 6110
2858 10164
2858 10694
2858 13111
2858 13190
2858 13752
2858 14795
2858 15435
2858 16659
2858 16888
2858 17955
2858 21425
2858 23070
2859 9243
2859 10114
2859 17212
2859 20086
2859 21767
2859 21768
2860 6562
2860 11019
2860 13087
2860 14527
2860 16580
2860 18334
2860 20565
2861 3367
2861 16715
2861 18503
2861 19558
2861 20604
2862 10893
2862 15125
2862 20376
2862 21394
2862 22287
2863 11161
2864 8458
2864 9560
2864 9583
2864 15490
2864 19516
2865 9110
2865 13955
2865 22765
2866 6472
2866 9924
2866 12879
2867 9761
2867 18335
2868 6197
2868 23335
2868 23578
2869 19791
2869 20232
2869 21695
2869 21895
2869 23341
2870 4826
2870 8111
2870 10287
2870 14249
2870 15649
2870 16612
2870 19805
2870 20842
2870 22881
2871 2971
2871 3389
2871 9138
2871 10272
2871 10524
2871 11623
2871 13959
2871 14555
2871 15681
2871 17910
2872 11563
2872 12252
2872 23637
2872 24126
2873 3381
2873 3463
2873 9533
2874 3322
2874 17212
2874 21244
2874 21766
2875 9617
2875 10593
2875 10928
2875 11894
2875 16552
2875 22918
2875 23459
2876 9652
2876 11069
2876 15251
2876 18370
2877 8872
2877 9330
2877 13392
2877 17364
2877 18662
2878 7386
2878 9181
2878 9686
2878 15005
2878 20981
2878 23706
2878 23868
2878 23996
2878 24170
2879 5505
2879 8853
2879 21614
2880 10764
2880 12735
2880 18886
2881 9835
2881 15376
2881 19729
2881 20760
2881 22125
2882 4500
2882 5339
2882 7410
2882 8651
2882 9094
2882 13600
2882 14171
2882 17425
2882 21469
2882 23334
2883 3690
2883 5890
2883 6934
2883 18740
2884 3981
2884 20306
2885 7179
2885 8884
2885 11303
2885 12377
2885 13730
2885 13998
2885 14745
2885 16626
2885 18270
2885 22710
2885 23663
2886 10944
2886 16086
2886 18242
2886 20722
2887 8224
2887 8519
2887 11262
2887 15657
2887 22790
2888 4117
2888 24073
2889 6339
2889 16792
2890 18103
2890 19728
2890 21126
2891 9586
2891 11016
2891 18578
2891 23630
2892 2894
2892 3817
2892 4722
2892 4723
2892 6788
2892 8152
2892 12179
2892 13857
2892 16891
2892 19832
2892 21246
2892 23318
2892 24350
2893 6378
2893 16321
2893 19984
2893 24446
2894 3817
2894 16891
2894 21246
2894 24350
2895 9043
2895 23940
2895 24422
2896 5161
2896 6180
2896 7592
2896 10025
2896 12890
2896 13885
2896 15587
2896 17993
2896 19129
2896 20138
2896 20299
2897 6835
2897 12869
2897 20315
2898 9672
2898 20531
2898 22344
2899 2925
2899 4402
2899 7475
2899 17815
2900 7298
2900 13184
2900 13206
2900 14235
2900 18968
2900 22819
2901 11628
2901 16754
2902 9703
2902 14054
2902 17077
2902 24000
2903 5223
2903 6450
2903 12031
2903 13126
2903 16377
2903 22314
2903 22560
2904 3085
2904 3595
2904 4002
2904 4039
2904 4230
2904 7775
2904 14201
2904 14506
2904 15011
2904 15485
2904 17208
2904 19166
2904 19964
2904 20369
2904 22940
2905 2908
2905 4591
2905 7805
2905 7950
2905 15377
2905 20130
2905 20131
2906 12362
2906 14681
2907 11425
2907 15619
2908 7950
2908 15377
2909 11357
2909 12356
2909 18998
2910 4790
2910 9678
2910 12056
2910 18222
2911 9789
2911 21191
2912 8312
2912 9723
2912 24131
2913 5505
2913 18177
2913 21007
2914 4371
2914 13941
2915 14524
2915 15010
2915 17790
2915 17896
2916 9043
2917 9536
2917 24164
2917 24427
2918 5723
2918 13132
2918 14477
2918 17525
2918 17896
2919 6438
2919 8794
2919 10860
2919 17246
2919 18178
2919 19497
2920 10525
2920 13202
2920 14707
2920 14731
2920 21099
2920 24079
2921 4701
2921 5160
2921 21929
2922 5820
2922 6732
2922 14822
2922 15459
2922 17591
2923 2987
2923 4556
2923 8020
2923 14412
2923 21239
2923 22078
2923 22690
2924 5384
2924 9300
2925 4381
2925 17360
2925 23392
2926 10018
2926 10465
2926 20771
2927 3793
2927 5200
2927 9587
2927 9706
2927 11457
2927 13250
2927 19030
2927 21980
2928 4402
2928 14877
2928 19361
2928 23369
2929 5356
2929 18467
2930 11928
2930 12236
2930 18481
2930 20493
2931 9453
2931 22365
2932 6707
2932 7128
2932 9568
2932 14118
2932 15981
2932 19555
2932 22240
2932 22576
2933 7463
2933 17863
2934 5608
2934 13163
2934 15567
2935 11752
2935 14420
2936 4779
2936 5351
2936 9335
2937 5351
2937 5352
2937 9080
2937 9723
2937 13192
2937 15701
2937 18941
2937 23107
2937 23806
2937 24169
2938 7043
2938 11839
2938 12557
2938 24200
2938 24246
2939 4031
2939 8610
2939 16021
2939 23557
2940 5380
2940 18190
2940 18687
2941 5010
2941 12523
2941 14168
2941 17858
2941 18886
2941 21942
2942 2980
2942 4225
2942 5957
2942 6871
2942 11438
2942 22161
2942 23669
2942 24163
2942 24199
2942 24225
2943 5275
2943 24161
2943 24475
2944 5275
2944 23671
2944 24161
2944 24475
2945 3952
2945 5966
2945 10427
2945 13785
2945 15431
2945 18363
2945 21039
2946 9039
2946 9640
2947 13964
2947 21397
2948 4290
2948 24164
2948 24427
2949 6130
2949 8817
2949 9576
2949 11703
2949 12935
2949 20145
2950 3409
2950 8322
2950 9799
2951 3742
2951 5011
2951 9268
2951 11894
2951 22451
2951 22918
2952 5807
2952 14331
2952 15514
2952 16091
2952 20636
2953 18846
2953 19973
2953 21655
2954 3148
2954 4048
2954 13313
2954 14882
2954 19250
2955 10558
2955 11514
2955 13314
2955 21137
2955 21402
2956 5400
2956 16177
2957 4048
2958 10469
2958 19611
2959 3322
2959 12853
2959 21766
2960 10305
2960 13147
2960 14239
2960 18390
2960 20872
2960 22156
2961 18583
2961 19232
2961 20092
2961 21603
2961 22033
2962 23822
2962 24190
2962 24249
2963 6620
2963 7115
2963 21705
2963 23731
2964 14641
2964 20840
2964 22442
2965 6234
2965 16824
2965 23326
2965 23826
2966 9866
2966 15944
2966 19797
2967 6418
2967 14895
2967 20568
2968 3143
2968 6996
2968 12971
2968 20882
2969 12016
2969 12018
2969 16240
2969 22794
2969 23904
2969 24185
2969 24194
2969 24327
2970 23312
2970 23718
2970 24186
2970 24246
2970 24256
2971 5831
2971 8633
2971 9138
2971 9346
2971 10272
2971 11623
2971 14555
2971 15244
2971 17717
2972 12158
2972 22707
2973 4609
2973 14936
2973 16812
2973 18906
2973 19593
2974 6034
2974 20590
2975 5691
2975 9082
2975 10375
2975 24037
2975 24439
2976 17978
2977 3311
2977 3840
2977 4023
2977 4414
2977 6610
2977 6638
2977 7116
2977 8194
2977 8509
2977 8764
2977 8870
2977 13497
2977 13860
2977 13972
2977 14140
2977 14877
2977 15753
2977 18435
2977 19913
2977 20521
2977 21280
2977 21747
2977 22006
2977 22077
2978 5154
2978 7750
2978 8759
2978 10927
2979 9909
2979 10616
2979 11537
2979 13092
2979 13408
2979 18763
2979 18958
2979 21376
2980 4347
2980 22443
2980 24213
2981 3800
2981 6113
2981 7018
2981 10823
2981 12925
2981 16071
2981 16493
2981 18444
2981 19628
2981 20506
2981 21150
2982 23645
2983 8592
2983 10645
2983 11063
2983 17041
2984 4747
2984 4770
2984 7401
2984 9419
2984 18991
2984 21992
2985 5576
2985 5583
2985 7766
2985 11394
2985 11944
2985 22264
2986 6929
2986 7532
2986 11792
2986 12236
2986 12713
2986 13894
2986 22738
2987 4556
2987 14412
2987 18604
2988 3263
2988 8339
2988 18409
2988 18410
2988 18411
2989 23067
2990 3962
2990 13716
2990 17615
2990 22368
2991 5920
2991 13314
2991 18745
2992 12530
2992 16573
2992 19966
2992 21917
2993 3530
2993 4939
2993 5205
2993 11935
2993 12605
2993 13296
2993 13859
2993 14141
2993 17911
2993 20503
2993 21512
2993 23592
2994 5660
2994 10597
2994 12514
2994 14299
2994 19392
2995 4014
2995 15707
2995 16781
2995 16942
2995 21556
2996 9313
2996 11672
2997 12010
2997 12011
2997 24201
2997 24202
2997 24464
2998 22453
2998 23932
2998 24162
2998 24216
2999 9953
2999 17644
3000 3280
3000 6720
3000 8367
3000 12089
3000 18848
3001 15856
3001 15862
3002 3534
3002 4636
3002 5720
3002 7161
3002 7367
3002 8467
3002 9224
3002 11934
3002 12691
3002 13974
3002 20853
3003 16076
3003 20431
3003 21443
3004 23900
3005 3882
3005 17812
3005 18366
3006 3092
3006 7709
3006 8954
3006 10970
3006 14539
3007 3722
3007 4540
3007 7000
3007 9000
3007 13181
3007 16661
3007 16704
3007 17871
3007 23537
3008 10426
3008 15677
3008 15700
3009 10655
3010 3075
3010 6274
3010 10397
3010 18910
3011 5214
3011 5215
3011 6675
3011 17400
3011 21296
3011 23399
3012 13094
3012 18250
3012 19255
3013 8220
3013 22611
3014 3848
3014 8387
3014 13270
3014 21247
3014 23084
3015 7619
3015 7761
3015 11804
3015 17786
3015 22334
3016 11942
3016 19793
3016 20727
3017 3749
3017 6557
3017 8878
3018 6530
3018 9814
3018 12989
3019 3151
3019 18548
3020 3498
3020 4015
3020 13656
3021 7003
3021 7294
3021 22601
3022 4045
3023 3566
3023 5902
3023 6988
3023 8641
3023 8942
3023 13189
3023 13447
3023 15604
3023 17106
3024 7560
3024 8304
3024 9457
3024 9957
3024 20990
3024 21899
3024 22597
3025 4315
3025 13270
3025 19110
3026 3429
3026 4148
3026 10912
3026 18618
3026 19025
3026 19441
3027 5618
3027 10190
3027 16469
3027 16749
3027 17336
3027 18124
3027 22457
3028 23926
3029 4587
3029 6449
3029 7335
3029 10561
3029 11807
3029 14594
3029 17385
3029 23376
3030 3922
3030 4971
3030 6608
3030 6756
3030 10560
3030 12954
3030 13457
3030 21188
3030 21245
3030 21683
3030 22260
3030 22817
3031 11451
3031 12787
3031 21500
3032 7237
3032 10075
3032 10196
3032 13023
3033 11154
3033 11984
3033 16269
3033 18083
3033 19782
3033 20954
3034 9084
3034 13880
3035 11362
3035 11698
3035 23907
3036 5511
3036 6360
3036 11610
3036 15124
3036 22445
3037 4942
3037 12620
3037 23490
3037 23538
3038 10418
3038 23966
3039 5107
3039 9824
3039 10269
3039 13992
3039 16641
3039 20050
3040 4819
3040 12535
3040 20903
3040 21952
3040 24178
3041 4151
3041 6433
3041 7812
3041 8266
3041 9206
3041 15236
3041 16431
3041 16768
3041 20973
3042 3043
3042 4287
3042 4290
3042 9994
3043 4287
3043 4291
3043 5126
3043 7300
3043 9317
3043 10024
3043 13835
3043 14269
3043 16449
3043 19457
3043 22870
3043 23150
3043 23979
3043 24180
3044 5183
3044 7428
3044 7530
3044 18279
3045 3047
3045 6917
3045 20820
3046 3047
3046 18256
3046 20060
3047 6819
3047 7863
3047 9994
3047 17008
3047 18256
3047 20060
3048 4139
3048 7434
3048 8514
3048 12502
3049 3296
3049 4402
3049 10586
3049 22281
3050 3437
3050 7534
3050 21625
3051 4839
3051 8368
3051 12939
3051 15748
3052 5253
3052 15775
3052 16190
3053 5188
3053 8886
3054 9322
3054 12941
3054 13685
3054 17015
3054 21666
3055 20167
3056 6295
3056 6486
3056 16952
3056 18028
3056 20500
3057 3733
3057 8517
3057 9745
3057 10418
3057 23966
3058 8090
3058 17214
3058 17965
3058 20307
3058 21024
3058 21859
3059 4163
3059 13597
3059 13632
3060 3157
3060 19069
3061 3246
3061 4213
3061 5453
3061 5506
3061 8169
3061 8561
3061 9232
3061 11199
3061 11232
3061 13124
3061 14469
3061 19323
3061 21366
3061 22230
3061 22247
3061 22532
3061 23832
3062 5652
3062 22123
3063 3228
3063 13111
3063 17147
3064 6953
3064 7657
3064 11609
3064 19467
3065 9840
3065 12904
3065 16544
3065 18851
3065 19072
3066 16542
3066 21299
3066 21300
3067 9374
3067 12043
3067 24252
3068 7460
3068 16185
3069 23918
3069 24216
3070 6361
3070 7693
3070 11832
3070 14485
3070 14777
3070 15478
3070 15479
3070 15894
3071 4402
3071 23369
3072 8772
3072 8775
3072 11887
3072 16217
3073 4527
3073 4972
3073 21614
3074 22914
3075 5157
3075 5241
3075 7874
3075 8495
3075 9632
3075 10397
3075 12743
3075 19549
3075 20556
3076 8078
3076 8878
3076 19382
3077 20335
3078 14058
3079 4856
3079 13725
3079 13726
3079 16439
3080 7496
3080 22267
3080 23650
3081 6301
3081 10634
3081 13832
3081 17011
3082 8738
3082 12335
3082 14111
3082 16114
3082 20172
3083 13477
3083 14431
3083 18290
3083 19289
3083 20297
3083 21850
3084 12662
3084 23921
3084 23974
3084 24204
3085 14201
3085 17208
3086 4691
3086 21257
3087 17428
3087 18520
3087 19171
3088 9131
3088 17428
3088 18520
3088 19171
3089 6482
3089 9707
3089 11603
3089 13794
3090 8263
3090 9438
3090 17092
3090 18289
3090 19659
3091 4263
3091 5830
3091 11545
3091 18984
3091 22949
3092 9952
3092 12079
3092 14366
3092 15145
3092 22271
3093 3202
3093 8653
3093 10763
3093 17375
3093 20101
3093 21148
3094 4861
3094 7622
3094 8770
3094 10919
3094 11562
3094 13253
3094 13638
3094 19332
3094 19737
3094 20755
3094 21016
3094 22724
3094 23088
3094 23683
3095 4298
3095 21556
3095 22411
3096 3546
3097 3197
3097 4427
3097 11202
3097 18120
3098 17355
3098 21783
3099 5692
3099 9618
3099 9619
3099 24225
3099 24391
3100 4287
3100 9536
3100 24164
3101 3744
3101 11789
3101 12871
3101 13066
3101 14437
3101 23304
3102 7550
3102 11815
3102 14630
3102 20778
3103 15063
3103 16339
3103 16911
3103 17244
3103 17523
3103 21338
3104 4319
3104 4544
3104 12202
3104 19542
3104 21641
3104 22215
3104 22325
3104 23970
3105 3345
3105 7311
3105 19452
3106 3234
3106 10667
3106 18766
3106 23105
3107 4149
3107 5117
3107 6319
3107 11987
3107 13610
3107 19041
3108 4450
3108 7663
3108 12999
3108 16316
3109 4902
3109 21854
3109 23508
3110 6298
3110 12583
3110 12759
3110 15282
3111 5826
3111 5849
3111 8470
3111 14509
3111 15911
3112 11053
3112 11054
3112 23668
3113 5256
3113 5916
3113 19009
3114 24012
3114 24225
3114 24312
3115 10997
3115 11141
3115 11718
3115 16990
3115 22626
3116 4485
3116 16162
3116 17402
3117 6083
3117 9174
3117 9656
3117 17077
3117 22422
3118 4619
3118 7823
3118 11918
3118 18378
3119 3681
3119 3924
3119 5546
3119 5774
3119 6382
3119 9333
3119 9685
3119 11098
3119 12680
3119 12733
3119 13678
3119 14362
3119 14641
3119 16610
3119 17175
3119 18021
3119 20840
3119 22145
3119 22442
3120 8458
3120 8508
3120 13879
3120 17887
3121 7057
3121 10866
3121 12650
3121 23921
3121 23974
3122 5820
3122 22361
3123 9431
3123 12762
3123 13146
3123 16900
3124 4244
3125 5486
3125 14609
3125 15418
3125 22036
3125 22786
3126 3388
3126 3416
3126 4524
3127 3719
3127 9211
3127 9473
3127 10642
3127 11397
3127 14850
3127 23753
3128 4204
3128 10062
3128 10996
3129 5690
3129 6008
3129 12616
3129 18310
3129 19554
3129 22935
3130 4532
3130 5747
3130 6791
3130 6906
3130 7915
3130 11310
3130 14921
3130 16722
3130 17336
3130 17358
3130 18267
3131 12897
3132 6469
3132 14742
3132 18235
3132 21132
3133 7311
3133 14363
3134 9972
3134 18867
3135 3895
3135 4670
3135 5765
3135 10325
3135 16982
3135 22160
3136 4942
3136 9453
3137 6907
3137 13345
3138 13037
3139 5290
3139 7888
3139 11921
3140 4448
3140 20816
3141 3353
3141 21614
3142 4439
3142 5628
3142 12002
3142 12004
3142 15338
3143 3662
3143 4476
3143 5715
3143 6996
3143 7098
3143 9831
3143 10595
3143 11411
3143 13938
3143 14291
3143 16372
3143 20137
3143 20882
3143 21399
3143 22584
3144 5788
3144 10935
3145 3481
3145 6493
3145 16804
3146 14092
3147 14311
3147 22695
3148 4048
3148 4058
3148 4060
3148 4061
3148 13313
3148 14882
3148 21789
3149 5081
3149 8587
3149 10962
3149 22386
3149 23501
3150 9645
3150 13390
3150 15063
3150 19394
3151 4119
3151 4411
3151 5585
3151 9042
3151 9312
3151 12207
3151 15214
3151 17554
3151 18548
3151 22403
3151 22683
3151 22852
3152 5807
3152 15514
3153 11776
3153 20348
3153 21003
3153 22429
3153 23478
3154 6073
3154 14585
3155 8098
3155 12837
3155 24186
3156 14900
3156 14906
3156 17020
3156 22128
3157 4780
3157 5123
3157 6665
3157 8756
3157 9168
3157 10295
3157 12200
3157 13003
3157 13793
3157 16305
3157 18182
3157 18623
3157 18693
3157 19069
3157 22414
3158 5756
3158 7109
3158 9580
3158 10128
3158 10731
3158 16516
3158 16745
3158 17270
3158 20649
3158 23067
3159 3598
3159 5188
3159 6437
3159 6585
3159 7353
3159 7413
3159 9707
3159 9855
3159 10531
3159 11856
3159 14053
3159 15880
3159 16112
3159 17232
3160 6460
3160 21408
3160 22019
3161 10447
3161 12055
3161 12161
3161 14192
3161 21295
3162 7724
3162 11642
3162 14474
3162 18884
3162 20423
3162 22244
3162 23365
3163 23960
3164 15315
3165 4868
3165 6912
3165 12919
3165 23078
3166 5240
3166 6318
3166 24161
3167 8365
3167 21875
3168 9505
3168 23591
3169 6114
3169 23837
3169 24286
3170 8082
3170 10034
3170 18372
3170 20989
3171 5220
3171 5840
3171 5897
3171 6731
3171 8885
3171 8984
3171 9259
3171 9625
3171 10658
3171 13492
3171 15662
3171 21734
3171 22988
3172 4402
3172 23369
3173 4680
3173 19172
3173 19530
3174 13434
3174 16928
3175 6560
3175 12776
3175 17064
3175 20156
3176 15446
3177 6729
3177 21186
3178 8692
3178 12224
3178 21937
3178 22622
3179 6810
3179 14181
3179 18809
3180 8455
3180 14511
3180 15704
3180 16242
3180 20718
3180 20850
3181 3365
3181 8143
3181 8643
3181 22057
3181 22741
3182 19864
3182 21433
3183 3648
3183 7423
3183 18957
3184 4972
3184 6032
3184 7620
3184 8348
3184 12454
3184 13369
3184 17382
3184 17847
3184 18758
3184 19548
3184 20492
3184 21833
3185 11078
3185 17176
3186 4240
3186 6458
3186 7187
3186 11706
3186 12834
3187 7845
3187 10288
3187 10533
3187 20743
3188 6727
3188 6972
3188 19440
3188 20041
3188 20398
3188 21404
3189 7291
3189 12879
3190 23720
3190 23922
3190 24164
3190 24427
3191 3834
3191 7269
3191 8791
3191 18151
3191 18739
3191 21184
3192 12121
3192 14715
3193 10558
3193 11514
3193 13314
3193 21402
3194 3403
3194 6193
3194 17287
3194 20209
3195 17369
3195 22230
3196 3428
3196 8387
3196 22885
3197 13605
3197 17421
3197 22212
3198 4487
3198 4715
3198 5223
3198 6450
3198 6678
3198 7554
3198 10956
3198 13321
3198 13354
3198 13912
3198 14484
3198 17429
3198 21706
3198 23046
3199 9652
3199 10880
3200 5667
3200 9331
3200 11555
3200 16653
3201 23792
3201 23990
3201 24397
3201 24420
3202 8653
3202 10763
3202 11424
3202 17375
3202 20101
3202 21148
3203 12355
3203 13486
3204 12779
3204 14536
3204 23839
3205 5110
3205 12216
3205 18066
3206 12836
3206 15634
3206 17481
3206 17988
3206 21000
3207 11357
3207 18286
3207 18375
3207 18998
3207 23100
3208 18870
3208 21009
3209 13453
3209 15357
3209 18322
3209 20562
3209 22365
3210 6269
3210 11362
3210 23640
3210 23709
3211 8680
3211 13564
3212 4796
3212 20771
3212 21508
3212 22499
3213 9366
3213 10425
3213 10557
3214 5666
3214 6861
3214 9703
3214 15267
3215 20178
3215 20321
3216 13870
3216 16927
3217 5161
3217 12633
3217 13885
3218 5231
3218 5488
3218 7210
3218 7637
3218 10463
3218 10739
3218 13719
3218 13888
3218 14602
3218 17633
3218 17715
3218 20120
3218 23132
3218 23219
3218 23324
3219 7619
3219 7761
3219 11804
3219 17786
3220 3484
3220 19576
3220 21556
3220 23489
3221 5891
3221 10315
3221 10316
3221 19989
3222 10027
3222 10163
3222 12118
3223 5943
3223 13555
3223 23014
3223 23016
3224 15734
3224 16421
3225 3998
3225 4206
3225 12027
3225 17519
3225 18206
3225 18916
3225 19931
3225 20292
3226 23731
3226 24459
3227 3748
3227 6049
3227 7369
3227 8172
3227 10610
3227 16699
3227 17109
3227 21981
3228 4789
3228 5069
3228 13111
3228 14795
3228 17147
3228 19522
3228 21177
3228 21505
3228 21614
3228 21922
3228 23381
3229 19502
3229 20257
3229 21397
3230 7788
3230 14894
3230 21592
3230 23520
3231 7223
3231 7933
3231 9399
3231 11617
3231 11822
3231 13935
3231 14210
3231 17568
3231 19001
3231 22322
3231 22656
3232 5522
3232 7715
3232 9404
3232 13235
3232 13410
3232 14044
3232 14294
3232 17486
3232 18179
3232 22095
3233 13714
3233 14285
3233 17767
3234 6219
3234 10667
3234 11490
3234 11956
3234 13830
3234 14126
3234 18766
3234 19231
3234 20223
3234 20914
3234 21002
3234 23105
3235 4841
3235 5400
3235 10622
3236 7324
3236 12199
3236 23435
3237 7061
3237 13458
3238 3550
3238 5018
3239 4251
3239 4260
3239 4849
3239 4913
3239 5908
3239 6715
3239 7053
3239 7079
3239 8110
3239 8715
3239 10185
3239 10824
3239 11158
3239 12303
3239 12735
3239 13551
3239 14215
3239 14572
3239 14573
3239 14653
3239 14669
3239 14845
3239 15361
3239 15787
3239 16419
3239 16922
3239 18090
3239 18188
3239 18741
3239 19715
3239 20968
3239 21065
3239 21136
3239 21738
3239 22083
3239 22506
3239 22605
3239 22615
3239 22754
3239 22897
3239 23028
3239 24018
3239 24483
3240 3535
3240 6341
3240 6672
3240 7330
3240 8314
3240 12388
3240 13144
3240 23788
3240 23789
3240 24063
3241 3242
3241 7494
3241 9334
3241 11643
3241 12252
3241 23066
3241 23097
3242 7494
3243 12388
3243 23788
3244 4236
3244 20245
3244 22797
3245 3289
3245 5026
3245 5091
3245 10095
3245 12778
3245 16303
3247 5097
3247 11219
3247 13626
3247 17337
3247 22586
3248 10985
3248 13976
3248 18395
3248 19698
3249 4563
3249 13731
3249 16210
3250 8744
3250 13024
3251 3381
3251 3953
3251 17405
3251 20999
3252 17322
3252 17773
3252 21786
3253 4384
3253 12968
3253 15988
3253 17650
3253 19367
3254 3735
3254 12722
3254 18193
3254 22246
3255 10297
3256 14803
3256 14873
3256 15149
3256 15150
3256 16495
3256 16950
3256 17238
3256 18384
3256 19814
3256 19815
3256 21462
3257 3317
3257 4293
3257 11297
3258 3890
3258 11667
3258 13149
3258 23738
3258 24254
3258 24284
3259 4546
3259 12215
3259 13963
3259 16170
3259 16396
3259 20185
3259 21090
3259 22011
3260 4891
3260 12942
3260 18723
3260 21268
3260 22906
3261 11583
3262 5088
3262 6136
3262 11390
3262 12924
3262 14413
3262 15803
3262 17540
3262 18262
3262 21527
3263 8339
3263 13138
3263 18409
3263 18410
3263 18411
3264 11320
3264 13423
3264 15906
3264 16582
3264 22762
3265 4025
3265 4217
3265 8616
3265 9495
3265 16123
3265 18457
3265 18531
3265 22016
3265 23158
3266 5937
3266 6690
3266 13797
3266 16429
3266 16962
3267 3543
3267 5199
3267 13450
3267 14184
3267 15419
3268 4021
3268 10553
3268 15407
3268 15538
3268 15704
3268 16581
3268 17739
3268 18085
3268 18261
3268 19228
3268 20718
3268 21894
3268 23074
3269 3436
3269 4297
3269 14418
3269 21896
3270 6073
3270 8026
3270 14585
3271 7356
3271 10690
3271 18298
3271 18854
3272 3434
3272 5172
3272 7972
3272 9326
3272 13707
3273 4358
3273 4961
3273 9044
3273 12435
3273 15574
3273 15830
3273 19644
3274 7261
3274 8596
3274 9653
3274 10488
3274 19233
3274 21021
3275 17094
3276 4857
3276 10476
3276 15331
3276 17583
3276 19363
3276 20485
3276 22890
3276 23002
3277 7306
3277 9721
3277 17161
3277 19382
3277 20062
3278 3493
3278 11540
3278 17541
3279 5017
3279 21209
3279 22315
3280 8367
3280 12089
3280 18848
3280 19670
3280 20609
3281 3448
3281 6522
3281 9474
3282 5236
3282 6653
3282 7896
3282 11758
3283 6169
3283 8909
3283 10519
3283 12844
3283 13960
3283 20365
3285 5425
3285 8522
3285 10747
3285 14206
3286 7965
3286 10836
3286 16435
3286 18035
3287 3852
3287 3937
3287 8145
3287 9712
3287 14961
3287 19298
3288 3510
3288 8776
3288 15666
3288 15731
3288 17922
3288 22706
3289 4098
3289 4274
3289 4725
3289 5873
3289 6170
3289 7345
3289 7519
3289 7557
3289 8292
3289 8387
3289 9342
3289 9996
3289 10708
3289 11967
3289 12256
3289 12565
3289 13918
3289 14123
3289 14334
3289 15705
3289 15736
3289 16303
3289 17909
3289 21025
3289 21181
3289 21392
3289 21849
3289 22303
3289 22436
3289 22698
3290 3461
3290 11445
3290 17035
3290 17082
3290 18266
3290 22356
3290 23065
3291 10041
3291 12710
3291 16771
3291 22059
3291 22969
3292 14585
3292 21593
3293 8319
3293 17029
3293 20576
3293 21251
3293 22095
3294 5560
3294 10150
3294 11816
3294 20960
3294 23282
3295 9002
3295 11267
3295 13965
3295 16591
3296 10586
3296 20595
3296 21990
3296 22281
3297 5704
3297 8140
3297 15323
3298 20107
3299 7644
3299 8805
3299 11968
3299 14975
3299 15557
3299 18153
3300 3301
3300 6773
3300 10377
3300 10380
3300 16707
3301 10377
3301 10380
3301 15851
3301 20791
3302 8676
3302 12510
3302 22010
3302 23510
3303 4011
3303 12192
3304 3721
3304 4825
3304 6967
3304 21677
3304 21739
3304 22042
3305 4601
3305 8000
3305 10470
3305 12214
3305 13490
3305 13988
3305 15241
3305 21845
3305 22168
3306 11694
3307 8930
3307 22299
3307 22736
3307 24362
3307 24380
3308 8902
3308 14513
3308 18729
3308 20837
3308 22623
3308 23449
3308 23496
3309 8234
3309 9124
3309 10260
3309 11500
3309 12332
3309 15540
3310 6627
3310 10505
3310 15521
3310 18093
3310 22274
3310 23043
3311 5547
3311 9713
3311 21036
3311 21673
3312 5440
3312 6297
3312 8725
3312 12490
3312 16512
3312 21629
3312 22164
3313 5143
3313 6933
3313 9299
3313 10392
3313 12051
3313 12915
3313 13038
3313 13587
3313 13883
3313 14580
3313 16129
3313 16993
3313 20543
3313 20623
3313 21995
3313 22867
3314 11911
3314 15151
3314 19318
3315 5515
3315 6538
3315 9028
3315 9790
3315 10078
3315 10697
3315 12143
3315 12322
3315 13167
3315 13614
3315 14667
3315 16507
3315 17785
3315 22354
3315 22606
3315 22926
3316 17830
3316 22140
3317 4177
3317 4293
3317 9318
3317 9626
3317 10400
3317 11452
3317 23348
3317 24452
3317 24486
3319 5163
3319 6746
3319 8717
3319 8724
3319 14251
3319 16665
3319 22232
3320 6007
3320 6286
3320 8400
3320 12167
3322 3579
3322 10175
3322 10876
3322 11076
3322 11631
3322 11972
3322 14059
3322 15761
3322 15809
3322 16594
3322 16627
3322 17718
3322 20074
3322 21277
3322 21701
3323 12675
3323 23937
3323 24080
3324 3359
3324 6598
3324 10140
3324 21787
3325 3581
3325 9598
3325 15311
3326 4272
3326 9531
3326 14461
3326 19165
3326 21656
3326 23465
3327 11583
3327 22696
3328 7707
3328 11456
3328 12756
3328 20108
3329 3527
3329 14502
3329 18624
3329 22546
3330 4406
3330 8286
3330 14048
3330 23276
3331 6178
3331 7241
3331 15810
3331 19021
3332 15046
3332 17730
3333 4790
3333 10916
3334 3486
3334 4106
3334 7209
3334 10911
3334 13836
3334 16266
3334 19822
3335 5781
3335 13148
3336 4228
3336 7765
3336 9405
3336 13565
3336 14363
3336 15343
3336 16249
3336 17696
3336 18965
3336 19314
3336 19391
3336 19776
3336 19837
3336 19954
3337 7977
3337 18332
3337 21556
3337 21640
3338 19435
3338 22827
3339 6383
3339 10639
3339 14290
3340 8458
3340 9560
3340 13879
3340 17887
3341 12863
3341 13699
3341 23567
3342 8355
3342 11352
3342 13862
3342 15189
3342 16223
3342 20972
3342 22676
3342 22919
3343 13898
3343 15444
3343 16613
3343 19519
3344 4262
3344 17459
3344 23306
3345 7314
3345 8340
3345 11239
3345 12823
3345 15438
3345 17848
3345 19747
3345 21710
3345 23519
3346 6185
3346 6252
3346 11690
3346 12513
3347 3348
3347 5483
3347 6704
3347 11900
3347 18834
3348 11900
3348 17804
3348 18834
3349 6553
3349 9670
3349 11513
3349 14370
3349 14475
3349 16151
3349 21009
3349 22040
3349 23121
3350 6059
3350 6907
3350 11241
3350 13345
3350 23488
3351 6920
3351 11691
3351 13316
3351 23258
3352 9703
3352 15185
3352 17077
3352 18164
3353 3907
3353 9740
3353 10796
3353 14293
3353 15613
3353 15687
3353 15840
3353 18468
3353 20561
3353 22302
3354 9430
3354 16170
3355 3824
3355 13776
3355 14387
3355 16736
3356 4220
3356 5008
3356 10048
3356 11114
3356 14614
3356 15015
3356 18131
3356 21630
3356 21825
3356 22067
3356 23277
3357 6401
3357 23960
3358 7506
3358 8301
3358 24370
3359 8280
3359 11070
3359 13917
3359 14436
3359 18769
3360 3361
3360 12865
3360 15651
3361 12321
3361 12793
3361 20051
3362 7399
3362 7625
3362 7634
3362 15825
3362 20692
3362 21537
3363 8867
3363 19731
3363 19770
3364 14129
3364 16994
3364 22456
3364 23762
3365 8143
3365 13273
3365 22741
3365 23961
3366 4897
3366 11302
3366 15232
3366 18993
3366 22333
3367 16715
3367 18503
3367 19026
3368 12212
3368 17284
3368 19279
3368 20756
3369 4233
3369 9439
3369 13391
3369 14955
3369 19664
3370 3530
3370 13296
3370 17124
3371 5394
3371 14514
3371 15743
3371 15920
3371 22021
3372 3649
3372 3650
3372 4764
3372 6803
3372 19501
3372 20072
3373 17598
3373 18041
3373 19426
3373 22729
3374 4687
3374 5563
3374 14059
3374 19956
3374 21079
3374 21676
3375 7555
3375 8151
3375 16165
3376 5727
3376 14324
3377 3593
3377 11777
3377 18050
3377 20717
3377 20732
3378 7659
3378 13765
3378 19621
3378 22307
3379 23619
3379 23913
3379 24213
3380 6121
3380 13440
3380 14368
3380 18467
3381 3463
3381 3953
3381 5118
3381 5138
3381 9753
3381 10670
3381 11084
3381 12328
3381 13056
3381 13217
3381 13491
3381 13644
3381 14129
3381 15038
3381 15846
3381 15899
3381 16375
3381 16833
3381 16994
3381 17177
3381 18552
3381 18830
3381 19142
3381 20379
3381 20579
3381 21227
3381 21420
3381 21716
3381 21946
3381 22456
3381 22459
3381 22958
3382 4789
3382 8116
3382 8853
3382 14579
3383 5136
3383 7969
3383 9751
3383 10618
3383 10754
3383 11066
3383 11178
3383 11650
3383 11732
3383 12210
3383 14431
3383 15261
3383 15932
3383 16076
3383 16513
3383 20285
3383 20418
3383 20431
3383 21443
3383 21543
3383 21632
3383 22591
3384 6564
3384 9773
3384 11916
3384 12495
3384 12671
3384 12770
3384 18589
3384 23146
3385 3393
3385 5644
3385 21419
3386 9644
3386 14227
3386 16089
3386 17303
3386 21762
3386 22937
3387 6641
3387 12466
3387 16466
3387 21651
3387 23784
3387 23963
3387 24285
3388 3416
3388 7893
3388 9954
3388 12282
3388 17149
3388 18978
3388 19718
3389 7546
3389 11947
3389 13959
3390 4395
3390 17639
3390 21254
3391 10513
3391 13340
3391 23667
3391 24099
3392 11049
3393 7238
3393 11209
3393 19508
3393 20417
3393 21419
3394 4273
3394 4504
3394 8174
3394 8498
3394 8857
3394 16961
3394 17698
3394 21673
3394 23404
3395 8082
3395 15672
3395 18372
3395 20989
3396 5100
3396 10985
3396 11489
3396 12888
3396 16100
3397 3501
3397 5590
3397 6889
3397 8413
3397 9523
3397 11513
3397 11547
3397 14045
3397 14569
3397 14933
3397 15345
3397 15463
3397 15518
3397 16899
3397 17367
3397 18643
3397 18726
3397 18944
3397 19605
3397 19907
3397 21098
3397 22449
3397 22913
3397 23840
3397 24165
3398 18649
3398 19235
3398 24008
3399 5947
3399 8617
3400 10320
3401 6472
3401 8857
3401 14482
3402 7685
3402 17636
3402 17741
3402 18663
3402 23223
3403 3796
3403 6216
3403 9013
3403 9304
3403 10381
3403 10440
3403 11248
3403 18581
3403 19896
3403 20209
3403 20860
3403 21797
3403 23368
3404 17126
3404 19468
3405 14688
3406 4917
3406 5616
3406 9768
3406 13950
3406 19039
3407 5376
3408 7161
3408 7367
3408 9224
3408 12348
3408 20853
3409 7869
3409 9799
3409 20396
3410 10018
3410 12540
3410 13803
3410 20771
3411 6617
3411 13388
3411 22679
3411 23828
3412 6046
3412 7265
3412 24117
3412 24379
3413 8007
3413 18257
3414 11160
3414 19586
3415 5976
3415 6284
3415 7205
3415 9046
3415 14643
3415 15354
3415 15756
3415 16973
3416 4353
3416 4524
3416 7561
3416 7607
3416 7893
3416 8322
3416 9470
3416 9829
3416 9954
3416 10341
3416 12282
3416 14125
3416 18317
3416 18978
3416 19063
3416 19718
3416 19799
3417 3712
3417 3714
3417 3715
3417 23661
3417 23816
3418 15371
3418 15373
3418 21314
3418 22564
3418 23140
3419 6614
3419 13657
3419 17005
3419 22755
3420 3623
3420 15933
3420 23322
3421 7175
3421 9250
3421 16607
3421 19639
3422 7146
3422 10689
3423 4935
3423 7291
3423 12879
3423 21736
3424 10527
3424 15199
3425 3897
3425 10000
3425 10299
3426 4619
3426 7823
3426 10328
3426 11918
3426 18378
3427 5173
3427 8779
3427 11347
3427 22343
3428 5026
3428 13927
3428 14458
3428 17066
3428 18667
3428 20055
3428 23355
3428 24140
3429 10156
3429 14021
3429 23862
3430 4893
3430 5448
3430 6908
3430 17548
3430 21362
3431 3466
3431 6737
3431 7490
3431 14229
3431 23284
3431 23526
3432 3728
3432 4651
3432 5460
3432 15286
3432 17876
3432 20152
3432 21971
3432 22654
3432 23407
3432 23562
3433 6714
3433 9010
3433 10639
3433 16872
3433 20039
3434 5796
3434 6834
3434 7972
3434 13381
3435 4793
3435 5313
3436 10206
3436 12381
3436 12573
3436 14504
3437 7534
3437 12371
3437 12639
3437 22553
3438 4078
3438 6377
3438 7803
3438 9416
3438 10134
3438 15495
3438 16880
3438 16999
3438 17723
3438 19202
3438 20251
3438 21455
3438 21489
3438 22073
3439 3440
3439 11321
3439 14434
3439 17493
3439 20359
3440 4921
3440 4922
3440 8534
3440 11321
3440 20359
3440 22477
3441 12571
3441 17994
3441 18199
3442 8082
3442 9689
3442 16551
3442 23085
3443 8238
3443 10740
3443 11980
3444 7742
3444 11774
3444 17758
3444 23461
3445 4792
3445 6256
3445 7035
3445 11058
3445 12003
3445 13459
3445 13635
3445 16186
3445 18845
3445 19222
3446 6231
3446 11002
3447 6067
3447 13122
3447 17757
3447 22138
3448 4623
3448 6522
3448 15771
3448 22465
3449 10406
3449 13004
3449 18870
3450 5205
3450 11986
3450 15734
3450 18253
3451 8236
3451 8597
3451 11740
3451 12889
3451 23626
3452 4389
3452 4829
3452 11358
3452 14298
3452 16346
3452 21120
3452 21309
3452 23156
3453 4826
3453 4830
3453 9925
3453 15649
3453 16612
3453 18045
3453 19212
3453 19568
3454 3809
3454 21556
3454 21614
3455 9827
3455 19215
3456 7736
3456 9445
3456 16991
3456 19005
3457 3461
3457 6283
3457 6822
3457 7912
3457 9867
3457 15553
3457 15816
3457 16299
3457 16822
3457 17193
3457 17668
3458 12562
3458 15036
3458 15347
3459 8528
3459 18905
3459 23138
3460 20912
3461 5995
3461 7680
3461 7995
3461 14432
3461 19088
3461 19214
3461 20980
3461 22356
3461 23302
3462 10492
3462 13194
3462 15762
3462 21861
3463 11084
3463 13056
3463 13217
3463 15846
3463 16994
3463 17177
3463 20379
3463 20579
3463 21716
3463 22799
3464 9522
3465 4401
3465 7072
3465 13055
3465 13848
3465 23480
3466 4102
3466 4541
3466 7490
3466 12983
3466 14377
3466 19960
3467 4757
3467 5510
3467 8165
3467 13613
3467 22269
3468 11523
3468 14852
3468 19131
3468 22286
3468 22964
3469 14999
3469 20618
3469 21607
3470 8026
3470 14585
3471 6126
3471 11417
3471 14758
3471 15763
3471 17224
3471 20811
3471 21846
3471 22565
3472 3729
3472 18459
3472 23369
3473 13572
3473 15442
3473 18426
3474 4224
3474 8133
3474 10745
3475 7447
3475 7516
3475 14255
3476 13455
3476 19052
3477 5463
3478 5721
3478 14251
3478 14578
3478 15147
3478 18158
3478 21819
3479 8135
3479 14847
3480 4789
3480 8853
3480 23070
3481 3769
3481 6493
3481 9377
3481 13553
3481 14950
3481 16804
3481 18631
3481 21287
3482 13951
3482 14000
3482 17230
3482 18917
3483 5156
3483 8192
3483 11998
3483 13028
3483 13396
3483 15584
3483 17505
3483 17976
3483 18787
3483 20415
3483 22170
3483 22350
3483 22496
3483 23401
3484 21556
3485 11682
3485 12424
3485 18467
3485 21326
3486 3845
3486 4106
3486 10911
3486 16266
3486 19822
3487 7997
3487 10007
3487 20776
3488 3698
3488 3990
3488 5637
3488 5862
3488 8579
3488 8675
3488 8835
3488 8933
3488 9841
3488 10777
3488 11050
3488 11171
3488 11298
3488 11480
3488 14180
3488 17088
3488 17305
3488 17586
3488 19734
3488 19900
3488 22856
3488 22862
3488 23771
3489 9020
3489 12440
3489 17387
3489 21785
3489 21890
3490 7744
3490 8334
3490 11170
3490 17927
3490 18474
3490 19127
3490 19587
3490 21659
3490 21909
3490 22466
3491 5719
3491 8480
3491 14948
3491 24288
3492 11966
3492 16483
3492 22885
3493 4367
3493 5006
3493 6191
3493 6229
3493 7304
3493 7830
3493 8497
3493 10467
3493 12399
3493 13443
3493 17541
3493 17626
3493 19772
3493 20578
3493 22398
3493 22746
3494 19096
3494 20771
3495 6244
3495 12964
3495 13365
3495 22585
3496 3760
3496 6066
3496 19611
3497 12526
3497 14304
3497 19229
3498 5656
3498 9387
3498 10303
3498 13656
3498 21833
3499 3787
3499 5746
3499 11943
3499 13267
3500 4917
3500 5616
3501 6570
3501 7964
3501 9808
3501 10111
3501 18453
3501 19197
3502 11197
3502 15432
3502 17043
3502 19534
3502 20009
3502 21121
3502 22580
3503 4166
3503 8387
3503 11255
3504 9506
3504 15740
3504 17631
3504 20765
3505 5135
3505 7331
3505 8711
3505 8726
3505 10910
3505 15812
3505 15883
3505 16461
3505 17787
3505 19042
3505 20003
3505 22262
3505 22662
3506 7319
3506 18658
3506 22216
3507 20329
3507 20581
3508 8702
3508 14426
3509 14207
3509 21097
3510 9499
3510 15666
3511 4473
3511 6067
3511 13122
3512 3837
3512 5648
3512 17893
3512 19788
3513 6760
3514 5223
3514 6450
3514 8927
3514 11680
3514 14295
3515 10872
3515 16470
3515 23205
3515 24173
3515 24410
3515 24458
3516 4093
3516 18251
3516 19169
3516 23139
3517 4093
3518 9843
3518 10961
3518 17068
3518 22529
3519 13311
3520 4015
3520 13081
3520 16853
3521 10620
3521 12321
3521 12793
3521 14767
3522 9130
3522 10914
3522 16680
3522 17488
3522 21770
3523 4436
3523 13844
3523 15208
3523 18382
3523 20941
3524 7180
3524 10018
3525 4712
3525 9010
3525 10775
3526 8694
3526 9995
3526 13181
3527 3596
3527 3768
3527 4420
3527 4999
3527 5077
3527 5310
3527 9216
3527 14502
3527 15652
3527 19162
3528 3749
3528 8078
3528 8878
3528 11863
3528 11998
3528 14728
3528 18787
3528 23760
3529 9633
3529 11374
3529 13075
3529 13753
3529 17524
3531 10268
3531 11093
3531 14002
3532 8088
3532 21482
3533 8722
3533 16405
3533 16625
3534 8976
3534 12691
3534 19824
3534 20853
3534 22904
3535 23789
3535 24369
3536 6101
3536 11510
3536 12749
3536 13236
3536 15353
3536 16630
3536 19244
3536 22766
3537 10419
3537 10443
3537 15864
3537 23948
3538 5548
3538 7842
3538 20177
3538 22419
3538 22571
3538 23929
3539 5044
3539 5812
3539 5970
3539 8810
3539 9103
3539 10146
3539 10376
3539 11545
3539 13484
3539 18505
3539 20658
3539 22213
3539 23129
3539 23482
3540 3914
3540 19061
3540 22841
3541 6293
3541 8071
3541 14643
3542 4542
3542 7440
3542 20661
3543 5199
3543 9398
3543 13450
3543 14184
3543 15419
3544 6839
3544 11130
3544 15615
3545 6067
3545 21331
3546 5910
3546 5911
3546 13999
3546 14917
3546 23878
3546 24033
3546 24310
3547 8861
3547 22416
3547 23288
3548 13052
3548 22650
3549 4297
3549 10082
3550 4535
3550 4866
3550 5018
3550 6023
3550 9468
3550 11803
3550 14765
3550 15497
3550 16803
3550 18255
3550 18660
3550 19967
3550 20093
3550 20207
3550 21552
3550 22712
3551 8863
3551 9737
3551 10622
3552 4043
3552 4072
3552 6572
3552 10526
3552 13448
3552 16095
3552 21019
3553 5213
3553 5746
3553 13842
3554 9080
3554 24215
3555 16441
3555 17278
3555 18446
3556 6354
3556 19687
3557 3751
3557 4867
3557 4888
3557 12939
3558 9116
3558 21029
3559 9173
3559 9864
3559 15665
3559 21167
3560 4926
3560 10465
3560 11006
3560 20639
3560 21013
3560 21446
3561 17566
3562 5811
3562 5955
3562 7769
3562 10038
3562 10172
3562 10323
3562 14801
3562 16209
3562 16847
3562 19630
3562 19951
3562 20686
3562 20794
3562 21486
3563 7513
3563 8999
3563 11086
3563 12189
3563 12225
3563 12758
3563 13902
3563 20904
3564 8911
3564 10489
3564 16318
3565 24067
3565 24321
3566 4276
3566 4498
3566 5426
3566 5603
3566 6651
3566 10318
3566 11381
3566 12012
3566 13189
3566 15536
3566 19503
3566 19930
3566 20896
3566 21860
3567 6169
3567 7379
3568 5481
3568 10016
3568 10255
3568 15835
3568 19606
3568 20966
3569 3570
3569 3572
3569 3574
3569 3575
3569 4684
3569 13472
3569 21493
3569 22480
3570 3571
3570 3572
3570 3573
3570 3574
3570 3575
3570 3577
3570 4684
3570 13472
3570 21493
3570 22480
3571 3574
3571 3577
3572 21493
3572 22480
3574 4684
3574 21493
3575 4684
3576 4550
3576 14344
3576 14476
3576 20554
3578 4685
3578 11723
3578 20864
3578 21780
3578 22996
3579 5563
3579 16594
3580 7965
3580 18035
3580 22338
3581 4035
3581 4167
3581 5549
3581 12314
3581 12653
3581 14691
3581 15379
3581 21749
3582 3902
3582 14380
3582 23041
3583 4694
3583 5790
3583 7270
3583 7636
3583 8358
3583 10182
3583 10728
3583 12386
3583 12457
3583 12644
3583 16226
3583 17260
3583 17617
3583 17749
3583 19182
3583 19625
3583 23319
3584 4696
3584 11990
3584 17012
3585 6530
3585 17162
3585 21881
3586 4167
3586 19451
3586 21838
3586 22999
3587 6549
3587 22400
3588 3780
3588 4950
3588 5194
3588 9420
3588 14788
3588 17998
3588 20948
3588 23576
3589 6506
3589 6975
3589 7093
3589 8578
3589 10606
3589 11790
3589 21944
3589 21989
3590 10501
3590 23932
3591 12929
3591 20597
3591 23162
3592 9493
3592 18039
3592 18083
3593 5539
3593 6145
3593 6800
3593 20732
3593 22391
3594 13718
3594 16414
3595 16389
3595 19063
3596 3768
3596 14502
3596 18624
3597 5003
3597 5544
3597 7396
3597 9684
3597 11093
3597 13283
3597 14357
3597 14953
3597 15908
3597 16353
3597 17267
3597 19761
3597 20344
3598 5188
3598 7413
3598 9707
3598 11856
3598 16112
3599 15145
3599 16349
3599 18210
3599 19381
3600 6758
3600 8947
3600 15360
3600 15949
3600 15994
3601 3621
3601 4838
3601 8848
3601 10329
3602 8554
3602 11911
3602 15151
3602 22025
3603 5242
3603 8013
3603 8347
3603 9072
3603 10235
3603 19108
3604 4617
3604 5112
3604 10609
3604 16875
3604 18284
3604 22748
3605 3900
3605 4523
3605 6184
3605 9556
3605 10017
3605 15661
3605 17497
3605 18646
3605 19687
3605 21784
3605 22608
3606 20551
3606 20893
3606 21243
3606 23955
3606 24279
3606 24423
3607 7743
3607 24284
3608 17062
3608 17949
3608 22365
3609 19973
3610 6272
3610 7025
3610 12821
3610 13850
3610 15742
3610 17045
3610 18744
3610 19199
3610 19825
3610 20737
3610 22070
3610 23431
3611 5298
3611 7938
3611 11334
3611 12223
3611 13412
3612 14517
3613 3614
3613 3615
3613 3616
3613 3618
3613 6345
3613 6349
3613 6706
3613 8582
3613 8583
3613 22481
3613 22705
3614 3615
3614 3617
3614 6345
3614 14378
3614 21238
3614 22705
3614 23037
3615 3616
3615 3617
3615 8582
3615 8583
3615 18150
3615 22105
3615 22705
3616 6349
3616 8583
3616 18150
3616 19915
3616 21236
3616 21238
3616 22105
3616 22481
3617 3618
3617 6349
3617 8582
3617 8583
3617 14378
3617 22481
3617 22705
3617 23037
3618 8583
3618 14378
3618 21236
3618 21238
3618 22481
3619 8736
3619 11616
3619 11880
3619 17597
3619 19050
3619 20162
3620 15672
3620 18169
3620 20989
3620 23589
3621 4838
3621 8417
3621 17349
3621 18413
3622 8826
3622 17616
3623 4239
3623 7045
3623 9264
3623 11861
3623 11905
3623 12409
3623 17623
3623 17632
3623 18405
3623 18672
3623 23322
3624 5714
3624 7668
3624 12047
3624 12393
3624 15201
3625 10037
3626 4095
3627 12405
3628 10679
3628 17394
3628 21843
3628 22986
3629 4970
3629 7297
3630 9458
3630 17587
3630 20646
3631 17765
3631 18846
3631 19586
3632 7698
3632 8553
3632 16583
3632 17090
3632 20114
3633 9664
3633 10540
3633 12830
3633 16636
3633 19481
3634 5889
3634 8576
3634 17640
3635 4946
3635 10543
3635 11498
3635 22726
3635 22727
3635 23971
3635 23996
3636 8593
3636 16445
3636 19604
3637 5295
3637 5379
3637 7048
3637 16514
3637 19719
3637 22575
3637 23058
3638 6999
3638 7192
3638 17509
3638 23154
3639 11651
3639 20057
3639 23811
3639 23929
3640 4720
3640 10808
3640 20100
3640 24205
3641 15300
3641 22475
3641 23943
3642 4720
3642 6859
3642 20100
3642 24061
3643 4117
3643 8932
3643 11013
3643 19150
3644 4117
3644 7069
3644 10954
3644 19150
3645 7942
3645 12897
3645 15818
3645 22716
3646 12943
3646 18886
3647 4336
3647 6814
3648 16939
3649 3650
3649 20072
3650 19501
3650 23498
3651 4954
3652 10960
3652 16853
3652 19957
3652 23242
3653 4931
3653 15777
3653 17994
3654 4896
3654 8102
3654 11112
3655 19318
3655 22025
3656 6597
3656 9027
3656 10414
3656 10857
3656 11117
3657 4099
3657 6141
3657 6910
3657 6997
3657 9844
3657 10446
3657 10917
3657 13318
3657 16965
3657 18701
3657 18818
3657 22642
3658 4248
3658 8773
3658 9487
3658 12187
3658 13957
3659 9323
3659 10853
3659 11499
3659 15417
3660 17305
3660 18782
3661 10991
3661 12114
3661 12260
3661 14830
3661 16602
3661 18798
3662 12971
3662 20882
3662 21399
3663 10391
3663 10716
3663 20115
3664 8513
3664 11714
3664 15629
3664 19693
3664 22510
3665 10974
3665 16054
3666 8597
3666 18953
3666 19250
3667 3868
3667 18544
3667 20571
3667 20876
3668 17157
3668 20812
3669 17851
3670 5754
3670 9389
3670 14187
3670 21581
3670 21591
3671 4648
3671 5151
3671 5316
3671 8737
3671 14132
3671 19995
3672 10550
3672 16636
3672 17383
3673 4732
3673 6962
3673 7528
3673 8512
3673 8640
3673 10966
3673 19657
3673 23273
3674 4485
3674 16001
3674 17918
3675 4680
3675 5993
3675 9637
3675 15790
3675 17189
3675 17190
3675 18520
3675 19173
3677 7619
3677 9284
3677 10930
3677 11804
3678 8330
3678 9973
3678 16430
3679 8491
3679 8774
3679 16502
3680 11697
3680 13699
3680 14191
3680 20720
3680 22627
3681 5774
3681 13519
3681 14641
3682 4351
3682 4510
3682 10657
3682 14797
3682 15162
3682 18125
3682 23267
3683 6604
3683 12097
3683 19258
3683 22510
3684 4465
3684 5113
3684 22701
3684 22757
3685 13176
3685 22289
3685 23212
3686 8481
3686 23630
3686 24358
3687 7849
3688 6794
3688 24191
3689 14113
3689 16157
3689 21690
3690 3857
3690 4309
3690 5890
3690 6149
3690 6477
3690 6934
3690 9213
3690 11260
3690 13227
3690 13648
3690 18740
3690 19144
3690 19723
3690 21963
3691 4935
3691 11870
3691 12512
3691 20243
3692 24079
3693 7246
3693 9871
3693 12972
3693 19075
3693 21770
3694 7235
3694 15095
3694 21872
3695 7686
3695 10786
3695 14247
3696 8503
3696 12951
3696 12953
3696 12955
3696 15645
3697 9933
3697 11836
3697 12416
3698 5526
3698 18782
3699 5592
3699 5981
3699 6540
3699 12876
3699 14648
3699 14649
3699 17081
3699 18328
3699 19448
3700 4191
3700 5025
3700 15547
3701 5416
3701 7479
3702 5051
3702 5728
3702 9825
3702 10679
3702 18215
3702 21843
3702 23665
3702 23701
3702 23783
3702 24444
3703 5763
3703 6977
3703 9877
3703 24109
3703 24239
3703 24269
3704 4701
3704 15135
3704 20768
3705 4506
3705 8524
3705 15210
3705 17806
3705 20558
3706 4105
3706 8864
3706 17737
3706 21496
3707 9616
3707 16268
3708 5896
3708 11010
3708 11941
3708 12135
3709 4719
3709 7931
3709 8392
3709 16769
3709 17530
3709 17846
3709 18547
3710 9251
3711 12251
3711 16320
3711 22111
3711 23209
3711 24408
3712 3713
3712 3714
3712 3715
3712 9021
3712 11184
3712 11646
3712 12341
3712 17588
3712 23110
3712 23816
3712 24027
3712 24108
3712 24209
3712 24356
3713 12271
3713 12341
3713 23110
3713 23661
3713 24027
3714 9021
3714 12271
3714 24108
3715 9021
3715 11184
3715 11646
3715 23110
3715 23661
3715 23816
3715 24209
3716 17606
3716 19611
3716 21671
3717 7446
3717 21181
3718 8554
3718 22025
3719 9211
3719 9961
3719 10171
3719 10642
3719 23753
3719 24203
3719 24229
3720 11255
3720 12201
3720 16599
3720 17555
3720 17928
3720 19583
3721 4137
3721 18549
3722 4540
3722 7000
3722 7627
3722 14657
3723 3749
3723 4226
3723 19382
3724 10893
3724 17305
3724 17992
3725 9559
3725 11704
3725 14459
3725 18454
3726 15930
3727 8019
3727 11627
3727 19997
3728 20202
3728 21971
3728 23407
3729 14321
3729 18459
3729 23369
3730 7350
3730 7351
3730 18348
3730 21544
3730 21642
3731 7268
3731 10390
3731 10759
3731 15168
3731 19442
3731 23059
3732 7382
3732 8092
3732 8143
3732 10418
3732 11253
3732 11575
3732 22508
3732 22741
3732 23912
3732 23961
3732 24376
3732 24415
3733 5275
3733 8517
3733 23966
3734 6104
3734 9998
3734 10165
3734 18300
3734 18301
3734 22836
3735 7092
3735 18193
3735 19191
3735 20341
3735 20389
3736 5191
3736 9116
3737 4509
3737 10320
3738 9585
3738 18114
3738 22188
3739 4012
3739 9084
3739 11334
3739 20560
3740 9785
3740 13455
3740 13684
3740 14024
3740 15027
3740 16294
3740 19052
3740 21285
3741 14306
3741 21856
3741 23888
3742 11894
3742 13847
3742 22918
3743 6438
3743 19497
3744 5941
3744 6089
3744 10452
3744 12846
3744 18088
3744 19557
3745 6194
3745 8375
3745 12275
3745 17937
3745 20651
3745 21324
3746 5874
3746 21210
3746 22866
3747 7285
3747 10816
3747 11414
3747 13143
3747 18098
3748 10610
3748 16162
3748 21981
3749 8078
3749 8891
3749 10811
3749 11663
3749 12769
3749 13284
3749 14802
3749 15718
3749 19109
3749 21334
3749 22352
3749 22657
3750 5239
3750 19134
3750 22332
3750 22784
3751 4867
3751 4888
3751 6805
3752 6964
3752 20242
3752 21604
3753 8515
3753 17611
3753 23515
3753 23851
3754 5320
3754 7577
3754 10120
3754 17094
3755 6169
3755 10404
3755 17610
3755 24024
3755 24147
3756 14601
3756 17857
3756 22391
3757 5767
3757 10129
3757 12333
3757 14639
3757 15177
3757 19601
3757 20093
3759 4069
3759 11423
3759 14336
3760 6066
3760 14944
3760 20199
3760 20461
3761 5501
3761 8366
3761 9257
3761 18692
3761 22068
3762 4008
3762 6354
3762 8391
3762 10135
3762 19687
3763 18355
3763 19040
3763 20356
3763 21583
3764 4243
3764 4516
3764 4671
3764 5355
3764 6473
3764 11570
3764 14022
3764 15502
3764 16245
3764 20452
3764 21481
3765 13040
3765 13597
3765 13632
3765 18649
3766 12101
3766 14030
3766 18223
3766 19597
3767 8736
3767 8774
3767 10753
3767 16314
3768 5077
3768 9216
3768 16326
3768 18624
3768 22546
3769 6493
3769 18631
3769 22365
3770 10704
3770 10845
3770 16004
3770 18585
3770 22363
3771 4431
3771 4433
3771 10859
3771 15123
3772 11910
3772 20409
3773 7942
3773 8356
3773 9425
3773 12897
3773 16016
3773 20669
3773 22086
3774 8024
3774 11266
3774 14242
3774 14523
3774 17602
3774 20471
3774 21962
3775 4424
3775 4426
3775 4430
3775 4432
3775 4433
3776 20098
3777 5533
3777 9982
3778 12455
3778 13581
3778 21112
3779 4952
3779 11931
3779 12177
3779 16141
3779 17218
3779 20524
3779 22517
3779 23770
3779 23803
3779 23956
3779 23972
3779 23986
3779 24273
3780 4950
3780 5194
3781 17625
3781 19009
3781 19811
3782 5189
3782 6430
3782 9715
3782 10107
3782 10841
3782 10972
3782 12460
3782 15667
3782 16806
3782 17339
3782 17903
3782 18352
3782 18708
3782 19087
3782 20252
3783 4846
3783 5255
3783 11469
3783 12130
3783 19406
3784 4609
3784 23329
3785 6302
3785 7785
3785 13481
3785 17178
3785 21525
3786 11214
3786 12211
3786 12620
3787 4355
3787 5092
3787 5500
3787 5738
3787 5746
3787 6363
3787 7178
3787 9240
3787 11182
3787 11226
3787 11943
3787 12022
3787 12230
3787 13267
3787 13842
3787 14250
3787 14991
3787 19267
3787 19297
3787 19326
3787 20336
3787 20644
3787 21448
3787 21531
3787 22090
3787 22963
3788 4490
3788 4615
3788 5731
3788 6456
3788 9508
3788 9960
3788 11692
3788 19844
3788 22743
3789 5822
3789 7107
3789 8393
3789 17622
3789 19274
3790 6526
3790 12088
3790 16341
3790 16733
3790 21385
3791 13051
3791 14233
3792 4595
3792 9207
3792 12790
3793 12620
3793 16506
3793 21781
3794 18079
3794 20417
3795 13392
3795 18662
3796 17287
3796 20209
3796 21415
3797 4129
3797 7171
3797 14776
3798 4293
3798 8134
3798 24016
3799 4117
3799 7521
3799 24473
3800 10823
3800 21150
3800 22921
3800 23563
3801 5892
3801 8187
3801 8666
3801 17067
3801 21647
3802 6312
3802 8745
3802 10933
3802 17743
3802 22144
3802 23609
3803 5473
3803 8959
3803 10298
3803 21335
3803 21610
3804 10417
3804 16076
3805 8761
3805 9322
3805 11831
3805 12941
3805 13685
3805 20255
3805 21666
3806 23784
3806 24436
3807 3886
3807 22558
3808 4049
3808 10332
3808 19237
3808 23761
3809 8696
3809 21556
3809 23489
3810 9092
3810 12692
3810 18702
3810 20006
3810 20680
3811 8714
3811 10759
3811 22738
3812 8688
3812 14272
3812 19071
3812 23273
3813 9518
3813 24076
3814 6719
3814 8323
3814 12029
3814 20667
3814 22904
3815 12675
3815 15774
3815 24352
3815 24404
3816 15828
3816 17894
3816 18796
3817 6788
3817 13857
3817 16891
3817 19832
3817 23318
3817 24350
3818 4389
3818 6372
3819 4402
3819 8857
3819 13870
3819 18166
3820 5059
3820 16213
3820 18998
3821 10056
3821 16003
3821 16546
3821 20918
3822 10678
3822 12632
3822 22894
3823 12772
3823 14427
3823 19968
3823 23476
3823 23853
3824 4853
3824 5308
3824 8182
3824 13441
3824 16189
3824 16736
3824 22435
3825 9054
3825 11821
3825 15446
3825 16484
3825 17436
3825 19903
3825 20922
3826 3853
3826 6887
3826 12132
3826 22518
3827 9386
3827 10087
3827 18508
3827 22170
3827 22350
3828 4307
3828 7292
3828 12719
3829 4672
3830 11139
3830 12533
3830 16076
3831 7355
3831 15680
3831 16363
3831 20894
3832 5572
3832 8442
3832 8839
3832 12524
3833 8338
3833 8818
3833 10065
3833 11431
3833 14505
3833 15542
3833 15765
3833 18931
3833 19985
3833 20195
3833 22668
3833 22843
3833 23231
3834 8791
3834 18151
3834 20161
3835 10238
3835 10608
3835 12409
3835 15730
3835 15933
3835 22769
3836 5526
3836 5577
3836 6915
3836 10697
3836 11695
3836 12143
3836 13167
3836 16507
3836 17785
3836 19349
3836 22354
3836 22490
3836 22926
3837 4466
3837 4596
3837 13500
3837 14048
3837 17893
3837 19788
3837 22851
3838 15329
3839 10825
3839 10879
3839 11173
3839 13091
3839 21813
3840 13870
3840 20714
3840 23369
3841 15928
3842 4148
3842 11456
3842 15586
3843 7965
3843 13233
3843 18035
3844 8228
3844 23784
3844 24135
3845 4106
3845 12987
3846 5398
3846 6439
3846 10647
3846 11976
3846 20783
3846 22277
3847 7362
3847 23731
3848 13270
3848 20000
3849 11823
3849 15984
3851 10303
3851 11214
3852 7124
3852 19298
3853 6887
3853 8028
3853 12031
3853 14693
3853 22518
3853 23572
3854 4402
3854 10056
3854 12776
3855 9620
3855 24176
3855 24196
3855 24225
3856 11180
3856 11696
3856 12822
3856 20624
3856 23589
3857 5890
3857 9213
3857 11260
3857 13648
3857 19723
3858 6067
3858 6602
3858 12959
3858 13122
3858 14467
3858 17342
3858 20598
3858 22138
3858 22847
3859 9258
3859 14087
3859 14557
3859 14626
3860 4324
3860 7501
3860 15770
3860 16474
3860 17971
3860 19303
3861 4056
3861 10365
3861 10369
3861 10371
3861 24260
3862 10613
3862 10625
3862 18631
3863 7965
3863 10836
3863 17712
3863 22338
3864 6461
3864 6559
3864 9072
3864 9778
3864 13085
3864 18889
3865 20330
3865 24318
3866 4254
3866 4637
3866 10004
3866 16102
3866 18358
3867 5110
3867 13515
3868 18706
3868 20571
3868 20876
3869 23823
3869 24303
3869 24339
3870 6719
3870 19227
3871 11055
3871 14819
3871 17704
3871 18574
3871 21918
3872 4480
3872 6993
3872 8930
3873 18921
3873 19373
3873 22191
3873 22409
3874 5244
3874 14892
3874 15023
3875 4512
3875 7012
3875 7778
3875 8477
3875 16506
3875 17882
3875 18801
3875 23176
3876 4754
3876 11248
3876 12851
3877 6670
3877 23837
3877 24286
3878 9141
3878 11493
3878 12848
3878 13320
3878 16083
3879 8139
3879 12461
3879 19709
3880 5580
3880 5973
3880 7009
3880 8200
3880 9099
3880 14198
3880 16343
3880 17384
3880 17912
3880 21985
3880 22081
3880 23327
3881 4327
3881 6813
3881 8903
3881 17211
3881 20361
3881 21791
3881 22681
3882 8030
3882 10237
3882 13564
3882 17812
3883 4210
3883 23305
3883 23809
3883 24394
3884 5328
3884 20107
3884 20376
3884 22287
3885 9972
3885 13374
3885 18867
3886 4200
3886 9506
3886 10356
3886 13936
3886 14971
3886 19521
3887 6370
3887 6588
3887 6646
3887 8502
3887 8562
3887 8798
3887 9524
3887 10568
3887 10601
3887 10937
3887 11649
3887 12814
3887 14532
3887 15184
3887 16794
3887 17340
3887 17414
3887 18249
3887 18331
3887 19427
3887 22092
3888 4971
3888 21683
3888 22260
3889 10593
3889 17559
3889 20188
3889 21428
3890 18720
3890 21832
3891 16750
3891 19914
3892 5212
3892 8914
3892 11136
3892 14134
3892 19819
3893 4661
3893 9577
3893 9982
3893 10695
3893 22460
3894 10893
3894 17305
3895 10325
3895 16982
3895 18712
3896 7072
3896 7445
3897 5918
3897 9522
3897 10000
3897 10299
3897 10789
3897 11742
3897 12698
3897 13532
3897 15382
3897 15754
3897 16815
3897 20557
3897 21839
3897 23285
3897 23703
3898 9560
3899 8523
3899 17122
3899 18954
3899 22984
3900 6354
3900 19687
3900 21902
3901 4305
3901 4556
3901 7594
3901 8020
3901 11252
3901 15105
3901 15729
3901 16155
3901 16579
3902 7427
3902 12396
3902 23041
3903 7984
3903 12169
3904 10250
3904 14496
3904 21635
3904 22315
3905 8395
3905 21844
3906 5315
3906 9265
3906 9694
3906 12667
3907 4988
3907 8867
3907 10796
3907 14585
3907 15434
3907 18077
3907 19731
3907 19770
3908 18880
3908 19581
3908 20065
3908 21365
3909 12866
3909 19413
3909 21804
3910 4701
3910 16591
3910 16969
3910 22756
3911 8230
3911 10258
3911 16739
3911 19652
3911 22916
3912 5684
3912 10481
3912 13128
3912 15128
3912 19339
3913 5307
3913 7444
3913 12030
3914 5676
3914 5832
3914 9599
3914 11364
3914 13775
3914 14716
3915 13431
3915 18967
3916 19259
3916 19878
3916 20264
3917 12057
3917 14927
3917 16935
3917 21458
3917 21775
3918 4571
3918 4796
3919 7135
3919 12007
3919 14978
3919 18614
3919 24038
3920 10902
3920 11969
3920 12115
3921 22650
3922 6608
3922 6756
3922 10560
3922 22817
3923 9184
3923 14856
3923 23955
3923 24279
3923 24423
3924 5201
3924 10390
3924 11129
3925 9917
3925 15048
3926 22285
3927 13324
3927 15930
3928 15991
3928 22156
3929 11959
3929 18319
3929 20310
3930 4506
3930 14193
3930 15210
3931 7857
3931 8276
3931 10339
3931 16106
3931 16107
3932 9040
3932 12571
3932 22140
3933 5820
3933 15988
3933 22203
3934 14590
3934 15470
3934 18534
3935 13523
3935 17054
3936 4402
3936 8857
3936 13870
3937 19298
3937 22051
3938 6150
3938 7393
3938 7482
3939 4356
3939 4613
3939 12081
3940 10029
3940 12465
3940 14538
3941 6339
3941 19405
3942 12523
3942 14168
3942 18886
3942 21942
3943 8225
3943 16066
3943 19767
3943 21102
3944 10004
3944 20554
3944 20866
3945 5178
3945 24078
3946 6131
3946 7489
3946 8494
3946 12765
3946 12873
3946 13288
3946 16555
3946 17707
3946 19132
3946 20253
3946 20659
3946 22256
3946 23255
3947 7852
3947 13539
3947 13826
3947 17156
3947 17788
3947 19739
3947 22835
3948 4561
3948 4743
3948 5489
3948 5528
3948 6409
3948 7844
3948 7983
3948 8753
3948 8784
3948 9432
3948 9529
3948 10626
3948 10848
3948 11476
3948 12819
3948 12842
3948 14097
3948 14392
3948 15212
3948 15958
3948 16344
3948 16407
3948 16457
3948 16478
3948 16811
3948 17589
3948 17674
3948 17746
3948 17966
3948 18642
3948 18784
3948 19022
3948 19839
3948 20693
3948 20891
3948 21223
3948 21685
3948 22329
3948 22388
3949 5078
3949 7697
3949 9677
3949 9749
3949 9890
3949 10659
3949 16827
3949 20429
3949 21082
3949 21405
3950 7862
3950 17473
3950 19271
3951 5029
3951 5751
3951 5994
3951 8507
3951 9374
3951 12401
3951 13533
3951 14283
3951 18539
3951 18797
3951 19873
3951 22210
3951 22987
3951 23799
3952 11435
3952 13785
3952 15600
3952 18363
3952 19856
3952 21039
3953 5138
3953 6223
3953 8476
3953 13393
3953 17117
3953 17205
3953 22958
3954 4563
3954 9477
3954 13731
3954 16210
3954 21356
3955 3997
3955 8758
3955 13473
3955 17582
3955 20827
3956 3957
3956 11819
3956 16304
3956 16342
3956 21761
3957 5531
3957 11237
3957 12914
3957 16844
3957 20484
3958 4724
3958 13728
3958 15952
3958 17984
3958 22193
3959 7108
3959 13479
3959 13509
3960 4357
3960 7177
3960 7200
3961 7807
3961 9549
3961 10661
3961 10723
3961 16538
3962 9160
3962 9314
3962 13716
3963 4702
3963 6396
3963 6527
3963 11494
3963 13932
3964 5574
3964 7905
3964 11080
3964 11481
3964 13512
3964 13920
3964 14346
3964 15275
3964 15358
3964 16415
3964 17182
3964 19654
3964 22148
3964 22582
3965 10349
3965 10796
3965 15613
3966 4385
3966 8207
3966 16406
3966 18983
3966 19407
3966 23766
3967 7118
3967 7481
3967 9195
3967 9722
3967 10056
3967 15633
3967 19661
3967 21870
3968 4354
3968 10585
3968 23915
3969 11419
3969 12166
3969 19503
3969 22899
3969 23089
3970 14989
3970 23094
3971 11764
3971 18275
3972 6847
3972 7733
3972 9532
3972 10487
3973 6596
3973 18039
3974 5482
3974 6512
3974 6896
3974 7301
3974 13169
3974 13193
3974 22405
3975 5695
3975 17431
3975 23835
3976 6287
3976 8137
3976 24397
3976 24420
3977 4902
3977 10529
3977 21854
3977 23508
3978 4530
3978 9866
3978 17299
3978 17508
3979 13435
3979 18001
3979 18170
3980 6695
3980 7486
3980 8862
3980 18476
3980 23025
3981 14396
3981 15018
3982 8957
3982 10479
3982 12608
3982 18232
3982 18777
3982 21426
3982 22866
3983 13546
3984 11057
3984 12289
3984 24176
3985 5809
3985 12612
3985 16817
3985 23542
3986 6950
3986 14419
3986 17872
3986 19393
3986 21269
3987 16428
3987 18127
3987 21614
3988 5538
3988 6838
3988 12579
3988 15588
3988 18306
3989 6079
3989 6169
3989 20725
3989 24392
3990 8835
3990 17305
3991 3993
3991 5095
3991 6011
3991 7514
3991 7773
3991 9772
3991 10453
3991 11192
3991 11193
3991 11948
3991 13043
3991 13723
3991 14033
3991 14863
3991 17646
3991 18046
3991 19538
3991 21216
3992 4077
3992 4378
3992 4681
3992 6051
3992 6566
3992 7068
3992 7967
3992 8023
3992 16736
3992 17272
3992 17923
3992 18515
3992 20956
3992 21141
3992 21190
3992 21770
3992 23101
3992 23179
3993 21713
3994 4615
3994 5490
3994 7889
3994 8113
3994 18165
3995 11489
3995 12888
3995 16100
3996 13371
3996 13536
3996 19355
3997 8758
3997 12762
3997 15630
3997 16830
3997 17813
3997 22172
3997 23608
3998 9285
3998 12027
3998 18916
3999 8431
3999 8682
3999 9989
3999 10066
3999 11341
3999 11810
3999 22616
3999 23408
4000 7298
4000 13184
4000 13206
4000 22819
4001 5215
4001 13195
4001 15071
4001 18537
4002 7775
4002 11291
4002 11514
4002 22940
4003 4243
4003 5842
4003 5925
4003 6473
4003 18121
4003 20724
4003 20967
4004 7324
4004 9491
4004 20186
4005 6112
4005 13139
4005 22049
4006 8563
4006 10906
4006 11162
4006 24465
4007 9983
4008 6184
4008 10017
4008 10267
4008 14466
4008 18646
4008 19687
4008 20741
4008 22608
4009 5011
4009 9053
4009 23358
4010 6053
4010 7196
4010 9321
4010 14709
4011 4499
4011 5606
4011 7498
4011 8866
4011 9045
4011 9490
4011 9719
4011 10090
4011 10850
4011 11051
4011 11305
4011 11363
4011 12192
4011 15100
4011 15725
4011 16124
4011 16333
4011 17546
4011 19425
4011 20943
4011 21549
4011 21983
4012 11334
4012 17221
4013 23859
4013 24008
4013 24176
4013 24225
4014 4731
4014 9971
4014 13969
4014 16781
4014 16942
4014 18550
4014 19637
4015 10960
4015 13081
4015 14562
4016 13504
4016 17553
4016 17744
4016 21803
4017 5815
4017 19515
4017 20103
4018 7450
4018 9360
4018 10807
4019 12827
4019 14465
4019 15439
4019 22930
4020 9598
4021 15538
4021 15704
4021 20718
4022 20533
4023 23369
4024 7674
4024 14554
4024 17432
4024 19789
4025 4851
4025 7117
4025 13200
4026 5530
4026 12957
4026 14375
4026 16029
4026 17678
4026 20572
4026 21074
4027 6632
4027 18631
4028 7731
4028 9286
4028 17186
4029 9747
4029 9875
4029 14653
4029 19113
4030 5277
4030 12345
4030 12804
4030 24071
4031 8610
4031 16021
4031 23557
4032 6492
4032 8930
4033 4750
4033 5304
4033 9739
4033 10242
4033 15694
4033 20890
4033 24395
4034 9360
4034 12932
4034 19398
4034 20719
4035 5549
4035 9598
4035 15311
4036 4509
4036 15997
4037 6438
4037 8989
4037 10011
4037 16285
4037 20397
4038 4701
4038 11467
4040 6296
4040 11738
4040 23188
4040 23311
4040 24349
4041 7977
4041 18332
4041 19198
4041 21556
4041 21640
4042 6328
4042 10159
4042 11624
4042 11688
4042 20812
4043 4072
4043 9870
4043 10890
4043 16095
4043 21019
4044 6404
4044 6405
4044 20227
4044 23678
4044 24021
4045 18290
4045 20297
4046 14094
4046 17397
4046 21735
4047 6403
4047 24284
4048 4058
4049 19237
4050 17163
4050 23492
4051 5134
4051 16498
4051 23725
4052 4054
4052 4056
4052 14064
4052 23445
4052 23679
4052 24260
4053 10369
4053 10370
4053 10372
4053 19246
4054 10370
4054 10372
4054 11322
4054 14064
4054 14947
4054 15081
4054 19245
4054 19246
4054 22687
4055 4056
4055 12446
4055 22410
4055 23679
4055 24260
4056 5152
4056 10259
4056 10365
4056 10369
4056 11322
4056 12446
4056 20810
4056 22779
4056 24260
4057 13313
4057 21208
4058 4060
4058 6689
4058 13313
4059 4060
4059 6689
4059 13313
4059 21789
4060 13313
4060 21208
4061 13313
4061 14881
4062 4550
4062 20554
4063 6081
4063 7075
4063 12974
4063 13837
4063 15076
4064 4293
4064 12551
4064 24452
4065 5298
4065 7938
4065 12223
4065 14526
4065 16402
4066 10417
4066 16076
4066 16300
4067 4762
4067 19115
4068 7364
4068 8184
4068 13869
4068 15744
4068 17996
4068 20771
4069 4086
4069 8324
4069 9663
4069 9823
4069 9898
4069 10803
4069 11423
4069 11705
4069 12246
4069 13517
4069 17255
4069 18761
4069 19917
4069 20938
4069 21733
4069 23454
4069 23841
4070 12897
4071 12262
4071 18843
4072 9287
4072 9870
4072 10832
4072 10890
4072 13448
4072 21019
4073 10004
4073 20554
4074 7076
4074 18350
4074 19319
4075 9241
4075 10652
4075 11369
4075 16734
4075 20992
4076 8526
4076 20695
4077 4378
4077 5190
4077 6027
4077 8023
4077 13383
4078 9416
4078 21489
4079 5071
4079 6107
4079 6750
4079 10314
4080 13077
4080 13582
4080 15259
4080 16980
4080 19918
4080 22691
4081 6328
4081 6795
4081 10159
4081 21067
4082 4180
4082 6728
4082 7511
4082 9125
4082 10264
4082 11583
4082 11707
4082 12473
4083 9151
4083 10939
4083 11656
4083 16422
4083 19862
4083 20687
4083 20688
4083 20689
4084 6719
4084 7161
4084 8467
4084 9815
4084 12348
4084 12880
4084 18707
4084 19524
4084 19702
4084 21428
4084 21884
4084 22973
4084 23269
4085 10034
4086 14498
4086 18761
4087 8722
4087 17086
4087 18089
4088 5196
4088 7529
4088 10357
4088 13629
4089 12324
4090 4784
4090 4799
4090 6190
4090 12579
4090 16646
4090 17878
4091 8249
4091 8452
4091 15043
4091 18645
4092 9086
4092 13588
4092 13639
4092 14566
4092 21408
4093 11025
4093 23982
4093 24459
4094 8059
4094 15329
4094 21606
4094 22795
4095 8294
4095 9917
4096 4402
4096 18166
4096 19923
4097 4680
4097 13032
4097 20847
4097 23515
4098 14234
4098 21849
4099 6910
4099 9844
4099 10574
4099 13318
4099 14640
4099 22642
4100 10501
4100 23932
4101 17280
4101 17480
4101 17531
4101 22475
4102 22281
4102 23284
4103 5923
4103 13601
4103 15428
4103 16737
4103 19064
4103 20632
4104 5271
4104 8710
4104 15658
4104 16128
4104 18964
4105 5558
4105 8865
4105 9927
4105 12970
4105 15616
4105 17736
4105 17737
4105 21176
4105 21496
4105 21877
4105 23564
4106 7209
4106 19822
4107 6782
4107 13266
4107 15217
4107 17738
4107 19947
4107 21360
4107 22009
4108 10337
4108 16664
4108 17263
4108 19779
4108 20520
4109 12892
4109 22297
4110 9706
4110 13250
4110 20651
4111 4293
4111 23938
4112 7212
4112 8134
4112 11297
4112 24414
4113 7139
4113 11020
4114 15240
4114 15650
4115 5051
4115 8379
4115 10088
4115 10433
4115 11750
4115 19649
4115 20702
4116 10914
4116 14154
4116 17302
4116 21616
4117 7521
4117 10021
4117 13307
4117 16616
4117 17069
4117 17223
4117 18767
4117 22142
4117 22245
4117 23714
4117 24182
4117 24302
4117 24383
4117 24409
4117 24473
4118 10250
4118 21209
4118 22315
4119 4411
4119 18548
4119 22852
4120 7846
4120 11267
4120 13965
4120 20936
4121 8528
4121 14973
4121 21234
4122 4930
4122 7284
4122 23888
4123 7100
4123 19066
4123 20417
4124 12557
4124 24206
4125 10806
4125 13008
4125 16291
4125 16621
4126 7588
4126 18732
4127 7757
4127 12627
4127 12791
4127 18126
4127 18405
4128 4970
4128 7448
4128 13962
4128 18932
4128 22207
4129 9314
4129 9631
4129 10633
4129 13716
4129 14776
4129 17615
4129 20143
4129 22934
4130 9167
4130 9310
4130 15841
4130 20798
4131 4396
4131 8789
4131 13254
4131 18344
4131 23388
4132 5532
4132 14099
4132 20924
4132 21256
4132 23352
4134 4232
4134 6416
4134 13086
4134 17849
4135 9577
4135 9982
4135 10729
4135 14909
4135 16296
4135 18095
4135 18272
4135 19385
4136 5678
4136 6385
4136 6489
4136 7041
4136 7119
4136 7816
4136 9097
4136 14912
4136 17053
4136 18876
4136 20265
4136 20406
4137 5423
4137 5516
4137 14452
4137 21739
4138 7598
4138 14570
4138 17000
4139 9835
4139 15376
4139 22125
4140 20875
4141 9434
4141 9833
4141 14325
4141 14326
4141 15304
4142 16791
4142 22110
4142 22488
4142 23054
4143 9035
4143 12037
4143 12429
4143 12753
4144 21274
4145 10795
4145 11621
4145 18631
4146 12276
4146 16537
4146 21874
4146 22597
4147 9936
4147 14264
4148 4258
4148 5435
4148 12213
4148 15586
4148 22751
4149 8383
4149 16933
4149 22473
4150 12516
4150 21257
4150 21660
4151 16624
4151 16768
4151 17447
4151 18632
4152 13870
4152 16535
4152 20107
4152 23200
4153 6167
4153 7764
4153 8144
4154 5798
4154 12303
4154 14486
4154 18900
4154 22053
4155 7977
4155 20861
4155 21556
4156 13291
4157 4816
4157 19148
4157 23369
4158 5889
4159 11957
4159 14808
4159 23497
4160 13416
4160 19426
4160 22729
4161 5593
4161 5810
4162 5553
4162 12120
4162 14940
4162 15648
4163 13040
4163 13632
4163 23375
4164 7090
4164 10642
4164 14850
4164 23064
4164 24335
4164 24454
4165 5328
4165 18998
4166 4475
4166 15867
4167 5549
4167 9217
4167 9598
4167 16565
4167 21838
4168 5181
4168 5957
4168 6183
4168 16332
4168 18995
4168 19408
4168 21017
4168 22161
4168 23669
4168 23959
4168 24029
4168 24225
4169 12000
4169 17861
4169 19310
4170 5313
4170 10644
4170 11617
4170 14210
4170 16428
4170 18080
4170 21437
4171 6704
4171 8564
4171 12617
4171 20526
4172 12549
4172 14800
4172 20045
4172 20216
4172 21624
4173 5099
4173 18978
4174 6067
4174 8290
4174 22138
4175 8499
4175 22628
4176 8169
4176 19103
4176 20328
4177 9626
4177 11297
4178 9880
4178 15360
4179 8300
4179 8439
4179 8655
4179 9192
4179 11686
4179 13130
4180 7511
4180 10264
4181 5186
4181 6862
4181 9241
4181 22024
4181 22178
4182 5229
4182 8082
4182 10034
4182 18372
4183 10880
4183 11069
4183 15251
4184 9220
4185 6358
4185 9270
4185 9271
4186 12202
4186 23970
4186 24434
4187 13176
4187 16719
4187 23212
4188 9307
4188 21371
4188 23987
4188 24112
4188 24171
4189 7184
4189 23503
4189 24177
4189 24299
4190 8062
4190 11795
4190 21688
4190 23243
4191 5025
4191 13286
4191 17266
4192 4426
4192 4807
4192 21496
4192 23564
4193 7815
4193 9694
4193 18918
4193 21206
4194 5228
4194 6125
4194 6644
4194 7719
4194 11630
4194 11826
4194 14035
4194 14329
4194 15320
4194 16079
4194 18152
4194 20321
4195 6176
4195 6830
4195 7831
4195 9503
4195 10631
4195 12033
4195 13170
4196 11056
4196 12047
4196 12393
4196 15201
4196 22298
4197 5114
4197 6092
4197 8163
4197 12693
4198 6328
4198 10159
4198 11624
4198 11688
4198 20812
4199 5994
4199 8507
4200 7271
4201 5728
4201 12007
4201 23701
4201 24072
4201 24444
4202 9034
4202 14133
4202 14932
4202 19035
4203 5191
4203 7089
4203 18631
4204 10062
4204 14694
4205 10393
4205 11069
4205 11780
4205 20955
4206 9285
4206 19931
4206 23076
4207 4662
4207 4782
4207 4941
4207 5541
4207 5843
4207 6004
4207 6432
4207 10101
4207 12253
4207 12740
4207 16981
4207 17248
4207 20110
4208 15975
4208 17946
4208 19757
4209 5798
4209 12303
4209 14486
4209 18900
4210 5257
4210 5589
4210 8880
4210 9588
4211 17895
4211 23706
4212 5820
4213 11199
4213 17687
4214 6719
4214 10245
4214 10571
4215 8070
4215 8135
4215 20550
4216 4850
4216 8231
4216 9639
4216 15913
4216 20963
4217 8616
4217 9495
4217 12720
4217 18457
4217 18531
4218 11100
4218 14286
4218 16571
4218 18679
4218 19428
4219 4930
4219 7284
4219 20640
4219 23888
4220 6745
4220 10682
4220 11114
4220 14027
4220 14614
4220 15015
4220 21825
4220 22067
4220 23277
4220 23301
4221 8079
4221 10189
4221 19287
4221 21670
4222 7888
4222 8156
4222 12391
4222 13166
4222 18781
4223 5277
4223 8309
4223 24071
4224 8133
4224 13602
4224 18423
4225 24163
4226 10942
4226 19382
4226 22352
4227 5205
4227 14141
4227 20503
4228 8173
4228 19314
4228 23028
4229 17794
4230 11291
4230 15011
4230 19166
4231 8056
4231 9115
4231 16143
4232 6416
4232 13086
4232 13537
4232 18238
4233 13391
4233 19664
4234 14405
4234 18690
4235 4284
4235 4345
4235 4401
4235 4558
4235 13137
4235 15531
4235 16126
4235 18043
4235 19518
4235 19911
4235 20664
4235 22653
4236 7231
4236 12652
4236 21135
4236 21353
4236 22797
4236 23333
4237 14461
4237 19165
4237 21656
4238 6420
4238 7244
4238 11495
4238 11496
4238 19608
4239 7679
4239 9264
4239 10608
4239 18672
4239 23528
4240 6458
4240 7187
4240 14831
4241 4242
4241 7376
4241 12248
4241 13026
4241 13027
4241 13923
4241 20395
4242 13026
4242 13027
4242 13923
4242 18922
4242 20395
4243 4516
4243 5925
4243 6473
4243 10563
4243 15502
4243 15897
4243 17044
4243 20182
4243 22295
4244 6444
4244 7624
4244 9288
4244 12750
4244 13779
4244 16559
4244 17326
4244 17373
4244 17482
4244 17532
4244 18500
4244 20042
4244 23436
4245 23900
4245 24361
4246 16572
4246 18759
4247 5912
4247 7000
4247 10347
4247 13181
4247 14806
4247 17844
4248 8773
4248 13957
4249 9975
4249 16441
4249 18954
4249 20473
4250 5543
4250 15390
4250 16077
4250 17840
4251 5230
4251 12897
4251 18900
4252 12988
4252 17398
4253 8120
4253 8469
4253 11586
4253 11654
4253 12895
4253 13109
4253 14884
4253 15240
4253 15650
4253 20473
4253 21195
4253 21910
4253 22689
4254 10004
4255 9679
4255 13340
4255 23938
4255 24101
4255 24102
4256 8905
4256 9717
4256 11149
4256 14735
4256 22285
4256 23623
4257 7149
4257 24067
4258 15586
4258 19025
4258 19441
4258 22751
4259 7529
4259 19921
4260 12303
4260 12735
4260 12897
4261 4614
4261 7743
4261 24254
4262 23306
4262 23326
4263 11545
4263 18984
4264 5320
4264 7577
4264 17094
4264 22857
4265 5225
4265 11655
4265 14553
4265 18219
4266 10725
4266 17868
4267 5371
4267 6495
4267 7816
4267 13218
4267 18876
4268 4616
4268 9171
4268 23795
4268 23796
4268 24303
4269 4368
4269 5487
4269 8760
4269 17913
4269 20957
4269 22767
4270 8709
4270 9733
4270 10879
4270 11173
4270 22326
4271 5252
4271 7465
4271 9253
4271 11456
4271 15054
4271 16902
4271 18970
4271 20158
4272 21656
4273 17698
4273 20537
4275 6415
4275 8679
4275 19403
4275 19961
4276 20896
4277 5013
4277 6847
4277 7122
4277 16724
4277 19498
4277 22223
4278 12495
4278 14642
4278 16309
4278 17268
4278 22535
4279 4876
4279 18462
4279 19768
4279 23729
4280 5532
4280 14581
4280 15628
4280 23352
4281 10322
4281 16673
4281 18168
4281 18814
4282 4487
4282 6450
4282 6678
4282 10956
4282 13321
4282 22296
4283 19122
4283 22297
4284 4345
4284 5659
4284 9436
4284 13246
4284 14174
4284 15531
4284 20643
4284 21934
4286 4289
4286 9221
4286 21432
4286 21778
4286 23857
4286 24098
4286 24345
4287 12284
4287 12451
4287 20820
4287 22870
4287 23979
4287 24272
4288 6318
4288 12270
4288 23665
4288 23765
4288 23872
4288 23970
4289 9221
4289 11388
4289 11477
4289 12515
4289 12615
4289 21432
4289 21778
4289 22201
4289 22382
4289 23017
4289 23854
4289 24098
4290 4291
4290 14269
4290 19457
4290 24427
4291 24164
4292 4525
4292 9180
4292 13771
4292 14454
4292 16766
4292 21032
4292 23969
4292 24474
4293 6052
4293 6120
4293 7212
4293 7412
4293 7871
4293 8093
4293 8134
4293 10400
4293 10515
4293 11297
4293 11452
4293 12551
4293 13191
4293 14007
4293 20712
4293 21841
4293 24134
4293 24452
4293 24486
4295 10106
4295 19855
4296 6226
4296 14124
4296 15142
4296 16294
4296 21285
4297 7403
4297 10206
4297 14418
4297 14890
4297 19562
4297 23749
4298 10005
4298 15037
4298 19399
4298 23190
4299 5226
4299 14986
4299 17544
4300 10557
4301 8895
4301 9807
4301 21831
4301 24031
4301 24094
4301 24439
4302 6328
4303 6471
4303 7296
4303 11987
4304 7619
4304 7761
4304 11804
4305 4556
4305 15052
4306 15121
4306 19418
4306 19834
4307 5033
4307 12391
4307 13166
4307 14787
4307 14874
4307 18398
4307 18418
4307 18781
4307 18861
4307 22093
4307 23149
4308 6848
4308 14512
4308 16442
4309 5890
4309 6934
4309 9213
4310 4409
4310 6093
4310 6384
4310 7344
4310 7673
4310 7976
4310 9630
4310 9921
4310 12100
4310 19758
4310 21278
4310 23023
4311 4507
4311 7862
4311 10283
4311 12407
4311 18228
4312 6584
4312 13619
4313 5553
4313 12120
4313 15648
4314 10762
4314 17248
4315 4624
4315 4643
4315 5757
4315 10826
4315 13396
4315 14150
4315 14347
4315 22041
4316 19305
4317 4361
4317 9637
4318 12162
4318 21818
4318 22278
4318 23914
4319 4544
4320 9637
4321 4361
4321 6094
4321 9637
4322 4680
4322 7611
4322 9637
4322 17189
4322 17428
4322 19056
4322 20848
4323 8909
4324 7501
4325 13119
4325 16572
4325 18248
4325 19080
4326 18286
4326 18375
4326 18998
4326 23100
4327 6883
4327 8782
4328 12263
4329 9976
4329 11060
4329 12763
4329 15327
4329 16374
4329 18339
4329 22660
4330 9038
4330 11861
4330 15944
4331 4502
4331 5251
4331 8045
4331 20650
4331 21681
4331 22489
4332 5889
4332 7356
4332 18298
4332 21455
4333 10168
4333 17842
4333 19710
4334 7409
4334 10532
4334 11459
4334 17366
4335 16660
4335 19318
4336 5636
4336 13685
4336 14858
4336 16723
4337 11144
4337 11516
4337 14689
4337 15086
4337 15087
4337 20763
4337 23268
4338 5213
4338 5746
4338 13842
4339 7047
4339 15381
4339 20401
4339 22858
4340 9085
4340 22443
4341 13419
4341 15145
4341 17773
4341 19381
4342 9315
4342 13344
4342 20573
4343 6401
4344 8042
4344 10971
4344 11034
4344 17765
4344 21187
4345 4558
4345 13246
4345 15531
4346 8930
4346 23949
4346 24067
4347 5263
4347 6100
4347 6139
4347 11205
4347 13706
4347 17574
4347 18408
4347 18533
4347 21573
4347 22711
4347 23068
4347 23618
4347 23619
4347 23750
4347 23822
4347 24344
4347 24347
4347 24371
4347 24406
4347 24456
4348 6944
4348 14751
4349 9441
4349 14486
4349 15318
4350 6868
4350 14724
4350 20495
4351 4510
4351 6960
4352 5317
4352 9002
4352 16591
4352 17756
4353 18317
4353 23262
4354 6389
4354 9512
4354 24359
4354 24393
4355 5213
4355 5746
4356 8608
4356 13677
4357 4740
4357 7177
4357 15059
4357 19886
4357 23653
4358 6466
4358 13758
4358 14179
4358 22234
4358 22463
4359 4886
4359 12043
4359 24155
4360 16194
4360 18631
4360 22365
4361 11964
4361 13073
4361 20004
4362 5124
4362 5341
4362 5900
4362 11264
4362 24005
4363 23354
4363 24225
4364 4417
4364 4933
4364 7491
4364 8216
4364 17158
4364 18878
4364 22839
4364 23346
4364 24085
4364 24328
4364 24355
4364 24446
4364 24447
4364 24449
4364 24489
4365 11120
4365 16754
4366 4911
4366 10585
4366 23915
4366 24004
4367 17626
4367 19772
4368 5391
4368 17913
4368 20957
4369 5329
4369 14373
4369 19842
4369 20066
4370 4613
4370 8608
4370 9864
4370 20476
4371 13941
4371 17913
4372 6282
4372 16615
4372 18201
4372 20845
4372 21814
4373 5558
4373 13301
4373 13875
4373 21229
4374 13365
4374 23242
4375 19509
4376 6146
4376 6169
4376 8909
4377 6401
4378 6051
4378 8023
4379 7010
4379 7453
4379 7596
4379 9446
4379 10183
4379 11648
4379 12775
4379 14209
4379 15893
4379 16261
4379 17915
4379 19294
4379 21836
4379 23137
4380 8362
4381 17360
4382 8766
4382 16528
4382 17501
4382 18514
4382 19484
4383 5127
4383 9786
4383 13617
4383 15569
4383 16907
4383 20702
4383 21173
4383 22235
4384 18379
4384 18837
4385 13148
4385 18983
4386 5889
4386 7559
4386 15181
4387 10042
4387 10174
4387 11782
4387 12219
4388 6222
4388 14554
4388 17432
4389 6372
4389 8197
4389 19313
4389 20767
4390 10245
4390 22696
4391 11413
4391 12531
4391 22339
4392 5083
4392 5730
4392 8386
4392 9352
4392 21704
4393 5889
4393 6035
4393 7581
4393 13427
4393 19460
4393 20744
4393 22091
4394 6034
4394 12094
4395 4797
4395 6854
4395 7400
4395 9257
4395 9347
4395 10003
4395 10710
4395 11052
4395 15008
4395 17121
4395 17637
4395 17639
4395 18692
4395 21228
4395 21231
4395 21254
4395 23754
4395 24295
4396 6657
4396 17386
4396 17447
4396 19364
4396 20125
4396 20213
4397 7558
4397 22283
4398 17305
4398 20107
4399 8082
4399 9175
4399 10909
4399 14159
4400 4841
4400 9737
4401 7072
4401 19911
4401 22500
4402 4618
4402 4683
4402 4735
4402 5250
4402 5278
4402 5312
4402 5705
4402 5725
4402 5817
4402 5872
4402 5878
4402 5883
4402 5898
4402 6152
4402 6472
4402 6976
4402 7725
4402 7971
4402 8364
4402 8623
4402 8857
4402 9139
4402 9300
4402 9309
4402 9397
4402 9802
4402 9916
4402 10112
4402 10210
4402 10226
4402 10439
4402 10686
4402 10915
4402 11353
4402 11536
4402 11726
4402 11767
4402 11982
4402 12346
4402 12373
4402 12529
4402 12697
4402 12776
4402 13216
4402 13244
4402 13544
4402 13870
4402 13949
4402 14151
4402 14328
4402 14335
4402 14617
4402 14701
4402 14877
4402 14910
4402 14977
4402 15351
4402 15499
4402 15559
4402 15636
4402 16081
4402 16330
4402 17125
4402 17138
4402 17275
4402 17371
4402 17503
4402 17957
4402 17967
4402 18134
4402 18523
4402 19105
4402 19288
4402 19336
4402 19371
4402 19387
4402 19527
4402 19852
4402 20061
4402 20206
4402 20438
4402 20464
4402 20595
4402 20610
4402 20656
4402 20681
4402 21510
4402 21578
4402 21602
4402 21662
4402 22127
4402 22373
4402 22432
4402 22725
4402 23091
4402 23143
4402 23200
4402 23232
4402 23359
4402 23369
4402 23392
4402 23540
4403 5395
4403 10025
4403 14376
4403 20304
4404 6525
4404 8528
4404 9766
4404 17564
4404 21034
4405 8014
4405 9681
4405 12934
4405 13508
4405 14348
4405 15785
4405 17550
4405 18417
4405 19647
4405 23148
4406 4466
4406 10878
4406 12044
4406 18992
4406 20380
4407 9647
4407 16168
4407 16975
4407 21211
4408 14670
4408 21257
4408 21660
4409 7673
4409 9630
4410 6297
4410 12195
4410 19311
4410 19703
4410 21629
4411 5585
4411 9042
4411 12207
4411 22852
4412 7977
4412 10053
4412 21556
4413 10485
4413 22904
4415 4562
4415 5177
4415 8299
4415 9158
4415 17609
4415 21893
4416 15738
4416 21077
4417 24449
4417 24450
4418 7159
4418 12185
4418 15182
4419 7499
4419 14136
4419 19803
4419 21617
4420 15527
4420 20258
4421 13623
4421 18234
4421 21061
4421 22998
4422 8735
4422 10740
4422 10934
4422 23312
4423 4426
4423 4431
4423 4432
4423 4433
4424 4425
4424 4426
4424 4430
4424 4431
4424 4433
4424 4434
4425 4431
4425 4433
4426 4429
4426 4431
4426 4433
4426 4434
4426 5458
4426 5950
4426 9577
4426 15631
4427 19612
4428 17992
4429 9982
4429 15631
4430 4431
4430 4433
4431 4432
4431 4433
4431 4434
4431 10859
4431 19925
4432 4433
4433 4434
4433 5533
4433 6340
4433 9982
4433 10179
4433 10859
4433 15123
4433 15631
4433 19925
4435 4713
4435 8176
4435 9555
4435 22529
4436 5197
4436 7671
4436 8828
4436 13844
4436 15208
4436 16194
4436 18287
4436 18382
4436 19564
4436 20941
4436 21270
4436 21412
4436 23852
4437 5737
4437 7176
4437 8730
4437 8978
4437 10291
4437 11195
4437 16623
4437 17220
4438 9554
4438 12464
4439 5628
4439 12002
4439 15338
4440 12290
4440 24084
4440 24225
4441 8016
4441 23786
4441 24053
4441 24471
4442 7654
4442 16204
4442 17351
4442 18656
4443 8440
4443 10409
4443 16175
4443 18571
4443 20584
4443 23131
4444 6311
4444 9731
4444 9732
4444 10099
4444 11657
4444 12921
4444 13514
4445 11233
4445 16159
4445 16947
4445 20608
4445 23402
4446 8019
4446 8615
4446 10521
4446 17630
4446 21047
4446 21820
4447 4448
4447 7474
4447 10801
4447 11591
4447 12238
4448 7220
4448 7474
4448 10801
4448 11591
4448 12238
4448 13089
4448 13721
4448 13799
4448 16017
4448 19112
4448 19756
4448 20066
4449 5587
4449 22237
4450 12999
4450 16316
4451 10550
4451 12830
4451 16636
4452 10132
4452 11847
4452 14152
4452 21929
4453 12705
4453 16837
4454 20775
4455 5535
4455 5536
4455 20358
4455 20775
4456 4457
4456 5562
4456 13278
4456 16836
4456 18823
4456 18824
4456 18825
4457 5562
4457 7243
4457 13234
4457 18607
4457 18824
4457 22133
4458 6237
4458 10905
4458 24055
4458 24433
4459 24326
4460 7938
4460 12223
4460 16402
4461 9491
4462 4790
4462 8786
4462 10916
4462 12056
4462 12731
4462 13594
4462 18222
4462 23616
4463 12924
4463 18262
4463 21527
4464 5724
4464 9828
4464 13153
4464 13959
4464 17910
4465 5353
4465 6504
4465 16093
4465 22701
4465 22757
4465 23237
4466 14048
4467 8857
4467 21673
4468 11488
4468 13624
4468 14310
4468 20887
4468 24090
4469 6930
4469 12303
4469 18900
4470 5083
4470 6029
4470 6248
4470 7108
4470 11605
4471 10846
4471 11936
4471 14797
4471 18078
4472 12726
4473 6067
4473 8290
4474 7008
4474 18432
4475 6402
4475 8387
4475 11255
4476 12971
4477 5399
4477 8601
4477 12826
4477 15996
4477 16754
4478 4826
4478 15582
4478 15649
4478 16612
4478 17990
4479 17820
4479 18631
4479 19564
4479 21270
4479 22365
4480 24083
4481 15892
4481 18321
4481 21920
4481 24050
4482 4895
4482 11131
4482 13722
4483 5593
4483 5810
4483 7764
4483 8144
4483 10064
4483 15357
4483 17276
4483 17820
4483 19638
4483 20454
4484 5110
4484 17935
4485 5793
4485 7446
4485 7875
4485 9031
4485 11342
4485 11371
4485 12279
4485 13429
4485 14741
4485 15066
4485 17647
4485 17763
4485 17796
4485 17810
4485 17918
4485 22511
4486 6014
4486 16276
4486 21551
4487 6462
4487 8699
4487 9665
4487 9857
4487 11827
4487 13000
4487 13912
4487 20368
4487 21445
4488 7319
4488 15222
4488 18458
4488 21658
4488 22216
4489 7346
4489 7347
4489 7348
4489 7349
4490 4615
4490 6261
4490 7889
4490 9960
4490 11330
4490 22743
4491 7311
4491 9100
4491 17687
4492 9513
4492 13303
4492 15096
4492 17391
4492 19536
4493 8153
4493 8804
4493 24009
4493 24158
4494 4701
4494 11847
4494 14152
4495 6171
4495 17333
4495 23826
4496 5501
4496 18455
4496 18692
4497 5213
4497 5746
4497 8557
4497 13842
4498 4940
4498 15604
4498 18282
4499 7498
4499 10090
4499 22349
4500 21576
4501 6181
4501 10385
4501 12444
4501 13104
4501 14356
4501 14500
4501 14574
4501 17004
4501 18785
4501 21595
4501 23040
4502 5776
4502 20650
4502 21681
4503 12714
4503 17378
4504 8498
4504 9981
4504 12922
4504 14826
4504 17698
4504 23404
4505 9105
4506 8524
4506 14193
4506 20558
4506 22614
4507 10283
4507 12407
4507 18228
4508 12160
4508 17704
4508 21918
4509 6153
4509 7436
4509 8203
4509 10676
4509 13049
4509 13463
4509 15997
4509 16631
4509 18513
4509 20449
4509 21131
4509 23644
4510 9056
4510 10657
4510 14797
4510 15162
4510 23267
4511 6824
4511 7281
4511 12021
4511 13142
4512 16506
4512 22695
4513 5863
4513 10751
4513 12138
4513 14750
4513 16020
4513 19470
4513 20230
4513 20777
4513 20911
4513 21930
4513 22341
4514 15108
4514 20796
4515 5348
4515 10121
4516 6473
4516 17044
4517 14688
4517 22557
4518 10614
4518 17625
4518 19811
4519 9575
4519 17369
4519 19323
4520 4917
4520 5616
4520 5801
4520 12573
4520 13950
4520 14504
4520 17596
4520 18406
4520 19039
4520 20754
4521 5855
4521 15624
4521 18534
4521 19674
4522 13870
4522 16535
4523 8337
4523 9220
4524 6508
4524 7561
4524 7893
4524 9829
4525 23969
4526 12845
4526 13702
4526 15310
4527 6347
4527 12454
4528 6171
4528 8054
4528 8250
4528 8759
4528 12468
4528 14051
4528 15576
4528 17569
4528 23326
4529 11634
4529 13365
4529 14075
4529 19717
4529 23242
4530 9866
4530 17299
4530 17985
4531 5085
4531 6468
4531 23811
4532 8780
4532 15072
4532 16722
4532 17649
4532 20115
4533 23856
4533 24113
4533 24114
4533 24426
4534 10041
4534 11116
4534 14433
4534 15471
4534 22059
4534 22969
4535 4866
4535 20093
4535 20207
4536 11357
4536 18375
4536 18998
4537 6926
4537 21560
4537 21563
4538 4600
4538 5436
4538 5804
4538 5905
4538 17277
4538 21702
4539 8091
4539 11555
4539 12421
4539 16653
4539 17605
4539 19888
4539 20372
4539 21754
4540 7000
4540 8694
4540 9000
4540 9995
4540 12301
4540 12792
4540 13001
4540 13181
4540 13378
4540 18930
4540 19273
4540 21316
4540 22849
4540 23537
4540 23547
4540 23898
4541 6737
4541 7338
4541 7502
4541 16490
4541 18974
4541 19960
4541 22281
4541 23284
4541 23526
4542 7440
4542 16391
4542 20661
4542 21020
4543 14290
4543 14463
4543 19260
4543 20039
4544 12202
4544 17295
4544 22215
4544 23772
4545 5663
4545 11331
4545 14612
4545 15437
4545 18742
4545 19823
4545 20261
4546 6210
4546 10627
4546 13963
4546 19431
4546 21090
4546 22011
4547 4549
4547 13571
4548 10004
4548 16416
4548 18355
4548 19040
4549 15114
4550 6709
4550 7951
4550 8813
4550 8814
4550 9859
4550 10004
4550 11884
4550 13557
4550 14344
4550 14476
4550 14552
4550 16416
4550 20554
4550 20866
4550 21319
4550 22671
4551 6259
4551 9571
4551 12075
4551 19180
4551 19370
4552 6100
4552 8529
4552 17192
4552 19235
4552 23952
4553 5491
4553 7102
4553 13821
4553 15363
4553 15726
4553 22381
4553 23289
4554 8868
4554 19705
4554 24222
4555 4883
4555 22238
4555 23928
4555 24078
4556 5745
4556 7592
4556 8020
4556 8591
4556 8871
4556 10410
4556 11252
4556 14412
4556 14970
4556 15105
4556 15398
4556 15729
4556 16155
4556 16385
4556 16579
4556 22578
4557 8026
4557 14585
4557 21593
4558 13246
4559 6581
4559 9865
4559 13608
4559 14086
4560 12964
4560 13468
4560 15612
4561 5489
4561 19022
4561 21834
4562 5177
4562 8299
4562 9915
4562 10565
4562 13063
4562 20552
4562 21893
4563 8518
4563 19060
4563 20786
4563 21337
4563 21644
4564 20002
4564 21108
4565 4597
4565 9827
4565 10108
4565 13886
4565 15890
4565 16510
4566 7888
4566 13166
4566 21760
4567 15128
4567 19339
4567 19486
4568 5205
4569 5916
4569 9913
4569 19009
4570 5582
4570 10903
4570 19489
4571 4796
4571 8205
4571 9820
4571 19096
4571 19765
4572 10893
4572 17305
4573 20018
4573 20022
4573 20026
4573 20030
4573 20031
4573 20032
4573 20033
4574 4866
4574 5018
4574 5313
4574 18255
4574 20093
4575 9310
4575 20798
4576 20601
4576 20771
4576 22894
4577 6883
4577 8022
4577 12966
4577 17211
4577 19706
4578 13136
4579 12587
4579 17819
4579 19669
4580 11115
4580 22693
4580 24099
4580 24100
4580 24152
4580 24187
4581 5951
4581 8091
4581 11555
4581 12421
4581 12856
4581 17605
4581 19136
4581 21754
4582 11702
4582 13903
4582 17365
4582 18994
4582 23056
4583 7000
4583 14806
4584 6853
4584 8213
4584 13557
4584 17462
4585 7888
4585 8156
4585 12391
4585 13166
4586 15817
4586 16703
4587 6260
4587 14594
4588 4935
4588 8611
4588 18732
4589 11456
4589 11966
4589 12213
4589 14778
4590 20342
4590 22497
4590 23440
4591 5707
4591 15377
4591 20130
4592 4593
4592 4594
4592 15278
4592 20856
4592 23338
4593 5383
4593 14231
4593 14571
4593 21667
4593 23338
4594 20856
4594 23338
4595 9207
4595 12790
4595 19640
4596 5648
4596 8166
4596 17893
4597 13886
4597 15890
4597 16510
4598 23094
4598 23704
4599 10192
4599 11378
4599 14518
4599 22504
4599 22770
4600 5436
4600 5905
4600 14408
4600 20977
4601 8000
4601 12214
4601 13988
4601 21240
4602 13489
4602 17117
4603 5439
4603 14706
4603 15239
4604 11761
4604 12188
4604 12604
4604 14990
4604 19077
4604 19417
4604 21509
4604 22882
4605 10319
4605 12217
4605 22904
4606 7055
4606 7288
4606 8185
4606 11096
4606 14006
4607 10512
4607 17348
4607 20808
4608 7975
4608 16283
4608 23317
4609 16812
4609 21414
4610 6769
4610 10125
4610 11156
4610 13814
4610 16896
4610 22824
4611 8417
4611 12145
4612 12730
4612 12855
4612 13603
4612 14953
4613 8118
4613 8608
4613 9864
4613 10405
4613 12081
4614 7743
4614 23738
4614 24254
4614 24284
4615 5413
4615 5617
4615 5731
4615 6456
4615 9508
4615 11330
4615 18165
4615 18840
4616 11979
4616 15138
4616 22331
4616 23795
4616 24484
4617 16875
4617 20250
4617 22748
4617 24220
4618 15351
4619 4634
4619 6774
4619 7142
4619 7823
4619 10142
4619 10328
4619 11398
4619 13440
4619 13906
4619 15060
4619 15176
4619 20998
4619 21272
4619 22346
4619 22789
4619 23597
4620 8019
4620 8615
4620 13227
4621 4878
4621 21486
4621 23056
4622 12666
4622 16427
4622 22416
4622 22624
4624 10826
4624 14150
4624 14347
4625 19576
4625 21556
4626 6111
4626 7768
4626 23912
4626 23992
4627 7804
4627 7814
4627 18059
4627 18485
4627 23224
4628 7804
4628 7814
4628 23226
4629 5866
4629 12879
4629 19318
4630 9417
4630 16017
4631 11112
4631 12034
4631 13311
4631 22629
4632 13397
4632 15040
4632 15400
4632 16259
4633 7947
4633 8869
4633 15334
4633 18376
4634 7784
4634 10716
4634 13440
4635 6776
4635 13653
4635 17883
4635 20678
4635 22231
4636 6719
4636 12348
4637 10004
4638 4639
4638 8923
4638 9920
4638 10194
4638 15086
4638 15087
4638 17103
4638 21255
4638 21296
4639 15086
4639 15087
4639 20763
4640 10294
4640 13365
4641 8159
4641 9948
4641 10712
4641 13155
4641 21975
4642 12356
4642 18286
4642 18998
4643 19110
4644 11093
4644 18350
4645 14709
4646 5107
4646 7683
4646 10269
4646 13426
4647 11236
4647 13292
4647 15980
4647 16295
4647 17181
4647 19671
4647 20047
4647 20865
4648 14132
4648 18952
4649 5102
4649 13281
4649 16072
4649 22505
4649 23204
4650 5102
4650 5104
4650 16148
4650 17943
4650 20324
4650 23204
4651 20152
4651 23407
4652 6719
4652 10245
4652 19590
4653 5418
4653 12614
4653 14546
4653 23870
4653 24124
4654 8528
4654 16584
4654 17655
4654 18061
4654 21234
4655 8729
4655 15603
4655 16944
4655 17513
4655 18436
4655 20456
4656 5045
4656 7820
4656 8072
4656 10776
4656 16856
4656 22692
4656 22854
4657 9126
4657 11902
4657 15183
4657 22379
4658 8656
4658 9408
4658 9412
4658 11999
4658 21955
4659 23897
4659 23913
4659 24062
4660 11644
4660 14049
4660 15061
4661 7877
4661 9577
4661 13373
4661 14154
4661 14292
4661 19257
4661 21154
4661 21352
4662 5541
4662 12740
4662 17248
4663 16961
4663 17698
4664 9847
4664 12262
4664 18843
4664 22816
4665 6850
4665 8049
4665 16545
4665 17845
4665 18774
4665 19149
4665 20142
4665 22686
4665 23594
4666 18058
4666 18846
4666 19973
4667 8631
4667 12633
4668 6163
4668 7064
4668 7439
4668 20976
4668 22659
4669 6096
4669 7685
4669 17636
4669 18663
4669 18807
4669 23223
4670 5765
4670 18309
4670 18712
4670 22160
4671 6473
4671 14565
4671 15502
4672 5356
4672 9396
4672 11682
4672 17172
4672 21326
4673 5553
4673 11619
4673 13210
4673 15648
4674 4958
4674 12635
4675 5380
4675 9339
4676 6530
4676 9814
4676 9856
4676 17162
4677 17248
4677 20110
4677 21279
4678 15278
4678 22875
4679 6857
4679 16310
4679 16894
4680 5280
4680 7611
4680 8515
4680 8830
4680 9695
4680 10044
4680 11963
4680 13032
4680 13074
4680 13668
4680 14263
4680 15568
4680 16850
4680 17189
4680 17370
4680 17599
4680 17611
4680 18057
4680 18373
4680 18374
4680 18591
4680 18620
4680 19172
4680 19173
4680 19174
4680 19556
4680 20140
4680 22118
4681 6051
4681 9798
4682 9777
4682 17249
4683 8857
4683 14482
4683 19986
4684 22480
4685 11723
4685 20864
4685 21780
4685 22996
4686 10648
4686 11699
4686 12742
4686 16328
4686 17616
4687 13275
4687 15844
4687 19956
4688 13275
4688 14059
4688 14903
4688 15844
4689 9211
4689 10348
4689 24457
4690 5805
4690 8290
4691 7456
4691 14670
4691 21660
4692 7237
4692 10072
4692 13023
4692 14446
4693 14621
4693 17583
4693 19363
4694 5790
4694 8358
4694 16226
4694 17260
4695 4766
4695 9447
4695 9920
4695 17118
4695 22366
4695 22367
4696 17012
4696 22457
4697 5688
4697 7042
4697 10058
4697 10155
4697 18504
4697 20694
4698 9650
4698 10119
4698 13838
4698 14009
4698 15019
4698 15316
4699 7012
4699 8477
4699 9380
4699 9622
4699 13165
4699 14311
4699 17882
4699 23176
4700 9585
4700 13470
4700 22188
4701 4843
4701 5433
4701 6151
4701 6569
4701 6784
4701 6968
4701 7095
4701 7942
4701 8260
4701 9061
4701 9421
4701 9945
4701 10116
4701 10132
4701 10218
4701 11784
4701 11817
4701 11847
4701 12897
4701 12938
4701 13372
4701 13607
4701 14334
4701 15135
4701 15818
4701 16005
4701 16467
4701 16969
4701 17410
4701 18567
4701 18960
4701 19357
4701 20674
4701 20757
4701 21226
4701 21450
4701 21568
4701 21611
4701 21732
4701 22756
4702 6396
4702 11494
4702 13932
4703 10234
4703 12196
4703 16109
4703 16609
4703 17046
4703 20294
4703 21080
4704 7743
4705 5875
4705 10011
4705 11704
4705 13160
4705 16285
4705 21260
4706 6284
4706 7205
4706 13129
4707 4709
4707 5837
4707 7597
4708 4709
4708 23802
4708 24279
4708 24309
4709 5837
4709 7218
4709 23802
4709 24279
4709 24309
4710 5187
4710 6090
4710 6333
4711 10795
4711 11621
4711 13933
4711 18631
4712 6276
4712 6714
4712 9010
4712 10639
4712 10712
4712 10775
4712 13155
4712 14383
4712 15493
4712 17838
4712 20696
4713 8176
4713 9843
4713 19574
4713 20424
4713 21222
4714 17216
4714 17602
4714 19889
4715 13354
4716 5394
4716 14514
4717 7987
4717 23503
4717 24177
4717 24299
4718 7184
4718 7987
4718 23503
4718 24299
4719 7593
4719 8392
4719 16769
4719 17713
4719 18547
4720 6723
4720 8150
4720 13783
4720 14197
4720 20100
4720 22392
4720 23950
4720 24061
4720 24205
4720 24410
4721 22238
4721 23928
4722 13857
4722 21246
4723 6788
4723 12179
4724 5839
4724 9074
4724 12347
4724 13513
4724 13728
4724 14979
4724 15388
4724 15952
4724 20594
4724 20852
4724 22062
4724 22150
4724 23253
4726 5063
4726 6407
4726 14833
4726 18962
4727 10046
4727 24310
4728 12816
4728 22914
4729 7789
4729 8290
4729 10743
4730 6175
4730 10503
4730 13198
4730 22735
4730 22904
4731 13715
4731 16942
4731 18550
4731 19637
4732 7732
4732 14272
4732 23273
4733 6530
4733 12989
4733 17162
4733 21881
4734 8458
4734 9560
4734 17887
4735 16631
4735 21736
4736 6697
4736 13687
4736 14104
4736 15253
4736 16718
4736 18804
4736 22357
4737 9286
4737 16355
4737 18954
4738 8607
4738 15256
4738 19478
4738 24432
4739 9084
4739 10051
4740 7177
4740 7200
4741 5841
4741 5884
4741 6832
4741 23772
4741 23797
4742 8034
4742 13446
4742 14651
4742 15130
4743 5489
4743 9529
4743 17674
4744 7980
4744 17565
4744 18594
4744 19554
4745 5544
4745 13603
4745 14953
4745 19761
4746 9316
4746 16027
4746 17764
4746 19097
4747 7401
4747 18402
4748 5328
4748 6538
4748 18998
4748 22005
4748 22116
4749 15300
4750 9739
4750 14390
4751 13705
4751 13706
4751 13891
4751 24167
4751 24213
4751 24459
4752 10571
4752 12348
4752 20667
4753 12789
4753 19308
4754 4986
4754 5262
4754 10706
4754 11194
4754 11455
4754 22384
4755 5191
4755 5317
4755 21822
4756 10115
4756 12465
4756 13829
4756 14276
4756 21406
4756 22775
4756 23033
4757 5510
4757 7505
4757 8165
4757 13613
4758 5657
4758 11611
4758 12700
4758 15683
4758 17415
4758 19147
4758 21623
4758 22941
4759 11134
4759 23857
4760 8684
4760 11078
4760 11739
4760 17159
4760 22609
4761 7299
4761 16452
4761 22927
4762 5036
4762 5232
4762 6628
4762 9154
4762 11350
4762 12206
4762 12643
4762 13076
4762 13674
4762 20192
4762 20257
4762 20529
4762 21924
4762 23447
4763 11134
4763 23854
4763 23856
4763 23954
4763 24424
4764 19501
4764 20072
4765 7283
4766 9920
4766 23371
4767 9776
4767 16921
4768 6254
4768 6577
4768 13920
4769 9053
4769 12926
4769 17361
4770 7401
4770 18991
4771 6178
4771 10462
4771 15810
4771 15979
4771 16923
4771 23690
4772 5302
4772 12497
4773 8019
4773 11627
4773 19997
4774 6401
4774 11842
4774 23735
4775 12749
4775 16630
4775 20629
4776 9441
4776 15318
4777 11246
4777 12538
4777 17821
4777 19016
4777 22255
4778 10080
4778 11157
4778 23126
4779 24169
4780 10295
4780 21658
4781 5542
4781 6698
4781 20144
4782 5541
4782 17248
4782 20110
4783 6388
4783 9471
4783 13870
4783 21085
4784 12579
4784 14657
4784 16481
4784 19347
4785 24176
4785 24225
4786 5653
4786 8657
4786 10705
4786 15995
4786 21958
4787 9920
4787 17118
4787 21294
4787 22364
4787 23371
4788 7761
4789 5349
4789 5505
4789 6110
4789 10998
4789 13111
4789 14135
4789 15552
4789 20164
4789 21425
4789 21922
4789 23070
4790 6038
4790 6172
4790 7813
4790 8786
4790 8832
4790 8946
4790 10483
4790 10805
4790 10916
4790 11250
4790 12035
4790 12731
4790 13594
4790 13696
4790 15386
4790 17345
4790 17781
4790 18222
4790 18711
4790 18795
4790 20710
4790 21233
4790 21686
4790 23584
4790 23616
4791 11265
4792 6256
4792 7929
4792 12003
4792 12020
4792 13459
4792 13520
4792 14069
4792 14786
4792 16186
4792 18815
4792 19222
4792 20260
4792 22120
4793 7151
4793 7172
4793 8990
4793 9246
4793 12597
4793 14541
4793 19211
4793 19619
4793 20726
4793 20825
4793 21725
4794 8223
4794 8531
4794 11805
4794 20591
4795 7077
4795 10689
4796 6836
4796 8855
4796 10068
4796 12715
4796 12913
4796 16968
4796 21721
4796 22499
4797 21254
4798 4804
4798 4807
4798 21378
4799 6190
4799 12579
4799 16646
4799 16661
4799 17878
4799 19347
4800 23615
4800 23700
4800 23861
4801 5327
4801 8916
4801 9539
4801 14148
4801 16350
4801 23255
4802 10786
4802 12861
4802 13639
4803 9100
4803 10604
4803 11214
4803 11861
4804 4806
4804 14248
4805 4809
4805 14988
4805 21378
4806 4807
4807 5592
4807 5980
4807 6540
4807 14248
4807 15778
4807 19448
4807 20469
4807 22241
4807 22242
4807 23222
4808 14248
4808 21378
4808 22242
4809 7934
4809 11602
4809 13183
4809 13873
4809 14647
4809 14650
4809 15013
4809 15594
4809 16280
4809 18274
4809 20102
4809 22316
4809 22524
4810 5592
4810 7727
4810 15778
4811 5059
4811 10893
4811 12797
4811 16213
4811 18998
4812 7180
4812 9874
4813 8039
4813 8123
4813 9016
4813 9313
4813 21303
4813 22644
4813 22653
4813 23168
4814 23292
4815 6857
4815 7909
4815 19827
4816 4832
4816 6534
4816 7586
4816 7937
4816 11210
4816 17229
4816 19983
4816 24479
4817 5344
4817 23321
4818 16926
4818 19141
4818 22017
4819 14251
4819 20903
4819 21952
4819 24178
4820 4984
4820 4990
4820 17843
4820 21145
4821 5380
4821 7402
4821 9339
4821 9562
4821 9889
4821 10195
4821 11528
4821 12858
4821 14374
4821 15299
4821 19248
4821 19281
4821 21769
4821 21779
4821 22815
4821 23849
4822 11121
4822 12191
4822 13272
4823 11047
4823 21530
4824 19506
4824 20816
4825 21677
4826 4830
4826 8111
4826 9925
4826 15582
4826 17526
4826 17990
4826 18045
4826 19212
4826 19535
4826 21634
4827 6067
4827 8290
4827 13122
4827 22138
4828 6515
4828 10614
4829 12243
4829 21309
4830 16612
4831 6980
4831 23543
4831 24138
4832 7586
4833 5001
4833 5217
4833 15637
4833 18474
4833 23424
4834 7426
4834 8856
4834 15487
4835 5961
4835 7993
4835 11387
4835 14559
4836 9193
4836 18192
4836 18254
4836 19552
4836 22174
4837 7879
4837 24177
4837 24322
4838 8417
4838 8848
4838 10329
4838 18128
4838 18263
4838 18748
4838 20586
4839 4888
4840 10950
4840 13231
4841 9737
4841 10622
4841 14740
4841 15955
4842 19353
4842 21344
4843 8147
4844 8668
4844 12905
4845 5933
4845 5935
4845 9932
4845 10602
4845 12226
4845 15764
4845 17207
4845 19839
4845 20106
4846 19406
4846 19999
4847 7815
4847 8639
4847 9694
4847 14309
4847 19899
4847 21152
4848 9874
4848 10018
4849 5095
4849 12735
4850 9639
4850 13333
4850 15913
4850 20963
4851 6233
4851 7117
4851 15351
4851 20924
4852 8050
4852 8834
4852 9938
4852 9983
4852 10324
4852 12277
4852 12800
4852 13943
4852 23812
4852 23960
4852 24212
4852 24305
4853 5308
4853 8182
4853 13441
4853 13776
4853 14387
4853 16189
4853 16736
4853 20585
4853 23081
4854 10040
4854 19552
4855 9868
4855 11545
4855 19043
4856 5784
4856 13724
4856 13725
4856 13726
4856 16439
4856 19720
4857 14621
4857 22890
4857 23002
4858 13364
4858 17353
4858 17860
4858 19927
4859 9726
4859 10246
4859 19272
4861 21702
4861 23088
4861 23683
4862 5343
4862 9215
4862 9530
4864 11331
4864 13102
4864 18742
4864 21666
4865 6155
4865 7468
4865 7469
4865 8806
4865 16524
4866 5018
4866 6023
4866 9468
4866 11803
4866 14765
4866 15606
4866 16803
4866 18238
4866 18255
4866 20093
4866 20207
4866 22712
4867 4888
4867 6805
4867 8368
4867 12939
4869 5724
4869 9828
4869 13959
4869 17910
4870 8681
4870 11071
4870 12679
4870 20404
4871 6459
4871 9075
4871 10780
4871 12711
4871 19225
4871 22749
4871 22891
4872 11504
4872 16578
4872 20079
4872 23769
4873 5970
4873 20658
4874 11224
4874 11636
4874 15152
4874 15784
4874 18494
4875 7418
4875 11676
4875 15796
4875 18835
4875 20246
4875 20962
4875 22933
4876 24032
4876 24328
4877 10678
4877 20771
4878 7769
4878 21486
4878 23056
4879 6894
4879 12926
4879 17361
4879 18564
4879 21438
4880 11428
4880 12618
4880 16203
4880 22043
4880 24248
4881 4883
4881 6978
4881 23406
4881 23656
4881 24154
4882 5304
4882 10242
4882 14390
4882 15694
4882 20685
4883 7918
4883 11980
4883 19137
4883 22238
4883 23698
4883 23855
4883 23928
4883 24154
4884 8643
4884 22741
4884 23961
4885 12079
4885 19381
4885 19745
4885 21437
4886 5372
4886 5818
4886 9374
4886 12043
4886 22989
4886 23950
4886 24001
4886 24252
4887 7029
4887 9225
4887 18051
4887 21674
4888 6805
4888 8368
4888 15143
4889 11957
4889 22044
4890 11634
4890 13365
4890 22176
4891 22906
4891 23681
4892 14025
4892 15868
4892 18193
4892 22246
4893 13582
4893 19061
4893 20697
4894 6450
4894 7554
4894 13354
4894 22296
4895 8077
4895 12600
4895 23148
4896 5339
4896 8651
4896 23334
4897 12232
4897 13048
4897 20513
4898 5227
4898 8138
4898 11896
4898 13055
4898 17719
4898 21441
4899 8202
4899 9338
4899 12900
4899 13665
4899 17259
4900 10751
4900 12138
4900 15335
4901 5279
4901 8097
4901 13353
4901 18897
4901 21194
4902 6089
4902 9187
4902 10529
4902 12746
4902 17479
4902 23508
4903 6681
4903 7353
4903 11780
4903 11890
4903 20231
4904 16768
4904 17447
4904 18632
4904 20973
4905 8454
4905 8638
4905 10434
4905 16569
4905 18783
4906 5005
4906 18217
4906 21518
4906 23234
4907 12010
4907 24340
4907 24341
4908 11444
4909 20237
4909 20266
4909 22589
4910 5761
4910 6052
4910 8137
4910 9273
4910 10224
4910 10650
4910 11679
4910 13191
4910 19282
4910 24429
4911 6389
4911 8083
4911 9486
4911 9512
4911 23799
4911 24026
4911 24243
4911 24372
4912 6043
4912 13305
4912 14444
4912 14904
4912 15886
4912 15895
4912 16912
4913 12303
4913 12735
4913 12897
4914 9152
4914 24421
4915 7871
4915 8229
4915 23713
4915 24292
4916 8330
4916 8789
4916 9973
4916 23388
4917 5616
4917 17596
4918 18286
4918 18998
4919 6917
4919 7245
4919 18256
4920 4923
4920 7037
4920 9111
4920 13472
4920 15651
4920 21493
4921 8534
4921 16458
4921 17493
4921 20359
4922 8534
4922 11321
4922 16458
4922 17493
4922 20359
4923 6593
4923 8211
4923 10227
4923 10231
4923 10232
4923 11319
4923 21201
4924 8718
4924 8929
4924 10765
4924 11511
4924 11629
4924 17492
4924 17688
4924 18778
4924 19993
4924 23506
4925 8717
4925 18476
4926 10465
4926 14122
4926 20639
4927 14349
4927 21728
4928 15641
4928 15642
4928 15644
4928 15647
4929 5723
4929 12378
4929 13132
4929 17896
4930 5542
4930 7284
4930 10760
4930 16164
4930 16654
4930 18587
4930 19541
4930 21052
4930 23102
4931 15814
4931 17830
4932 10680
4932 18828
4933 23346
4933 24355
4933 24450
4934 8026
4934 8800
4934 21614
4935 5515
4935 6961
4935 7291
4935 7847
4935 7864
4935 8611
4935 9028
4935 9509
4935 9790
4935 9924
4935 10078
4935 10097
4935 10697
4935 11316
4935 11568
4935 11695
4935 11708
4935 11728
4935 12104
4935 12143
4935 12263
4935 12322
4935 12799
4935 13167
4935 13356
4935 13614
4935 13732
4935 14223
4935 14667
4935 14673
4935 15504
4935 16507
4935 16828
4935 17241
4935 17785
4935 18086
4935 18385
4935 19318
4935 19997
4935 22313
4935 22354
4935 22490
4935 22542
4935 22926
4935 23438
4936 11446
4936 18502
4936 18521
4936 20699
4936 23912
4936 24436
4937 5121
4937 8221
4937 16220
4937 21880
4938 5902
4938 15604
4938 20896
4939 11523
4939 12519
4939 20503
4940 5902
4940 6651
4940 13189
4940 18282
4941 10762
4941 16948
4941 17248
4941 20110
4942 7756
4942 11049
4942 13368
4942 17276
4942 20596
4942 23538
4943 5939
4943 12182
4943 17281
4943 18791
4943 20546
4943 21379
4944 8714
4944 9672
4944 10759
4944 20531
4944 22344
4945 5277
4945 8309
4945 19493
4945 23874
4945 24071
4946 6624
4946 23503
4946 23722
4946 24382
4947 9691
4947 11861
4947 15991
4947 17687
4948 11516
4948 15087
4948 22431
4949 5011
4949 9053
4949 16650
4950 5194
4950 5759
4950 9420
4950 17998
4951 8062
4951 11795
4951 21688
4951 23243
4952 11931
4952 12176
4952 12177
4952 23803
4953 9458
4953 17587
4953 20646
4954 7278
4954 8226
4954 9370
4954 14077
4954 14883
4955 8656
4955 16708
4955 22179
4956 6799
4956 15257
4956 21906
4956 23434
4957 10447
4957 12001
4957 12161
4957 14192
4958 12635
4958 22942
4959 7558
4959 8426
4959 8546
4959 9550
4959 10706
4959 11951
4959 14275
4959 19517
4959 22283
4959 23147
4960 6647
4960 7712
4960 14301
4960 19855
4961 6045
4961 15805
4961 17234
4961 21398
4962 7504
4962 11865
4962 16606
4962 17130
4963 11002
4963 23213
4964 5964
4964 13347
4964 14518
4964 15751
4964 22504
4964 22770
4965 10412
4965 12046
4965 13295
4965 20682
4966 7565
4966 9237
4966 16952
4966 22747
4967 15987
4967 17050
4968 8930
4968 23721
4968 24083
4969 6719
4970 7297
4970 11787
4971 12954
4971 21683
4971 22260
4972 6347
4972 7027
4972 7620
4972 11045
4972 12454
4972 13538
4972 16905
4972 17847
4972 18590
4972 20492
4972 20504
4972 22094
4972 23545
4973 5282
4973 17926
4974 14877
4975 7827
4975 11955
4975 15238
4975 17560
4975 22555
4975 22828
4976 8676
4976 23510
4977 11134
4977 23854
4977 23856
4977 23954
4977 24424
4978 5561
4978 9354
4979 10503
4979 22904
4980 13617
4980 16907
4980 20702
4981 4982
4981 6158
4981 10785
4981 24282
4982 6158
4982 7221
4982 16225
4982 21099
4983 8857
4983 13870
4984 15898
4985 11636
4985 13697
4985 14460
4985 15784
4985 16757
4985 18494
4985 19464
4985 22911
4986 8124
4986 11248
4986 12851
4987 8019
4987 21345
4987 21681
4988 8867
4988 9779
4988 19731
4989 16768
4989 17447
4989 20973
4990 13243
4990 14266
4990 17843
4990 21145
4991 5879
4991 15687
4991 21650
4992 14561
4993 5750
4993 9340
4993 21556
4993 21614
4994 16278
4994 17438
4994 22385
4995 6780
4995 9516
4995 10721
4995 18157
4995 20219
4996 12903
4996 12905
4996 15506
4996 21636
4997 8309
4997 23787
4997 23915
4998 5651
4998 5882
4998 7132
4998 12372
4998 12459
5000 5505
5000 6742
5001 7744
5001 11170
5001 12117
5001 18474
5001 19127
5001 19587
5001 19850
5001 21659
5001 22466
5002 5486
5002 15418
5002 22036
5003 5636
5003 10030
5003 16229
5003 17521
5004 13054
5004 14548
5004 16098
5004 16908
5005 11751
5005 18217
5005 19346
5005 21518
5005 21548
5005 23246
5006 17541
5007 8290
5007 11868
5008 15015
5008 23301
5009 6674
5009 14974
5010 12523
5010 18886
5011 9476
5011 11894
5011 12494
5011 13847
5011 17962
5011 18042
5011 18492
5011 22258
5011 22918
5011 23358
5012 7434
5013 7733
5013 12580
5013 14556
5013 16138
5014 7464
5014 11606
5014 13335
5014 19459
5015 6729
5015 8472
5015 8727
5015 10420
5015 10502
5015 10931
5015 11067
5015 13750
5015 16228
5015 16617
5015 19143
5015 22972
5016 7215
5016 12977
5016 12986
5016 17538
5016 20089
5016 21370
5017 10250
5017 17472
5017 21635
5018 5313
5018 6023
5018 9378
5018 9468
5018 11962
5018 15497
5018 16803
5018 18255
5018 19967
5018 21552
5019 15159
5019 19040
5020 7355
5020 16363
5020 20894
5021 15204
5022 5461
5022 10049
5023 11165
5023 14245
5023 20995
5023 22761
5023 22831
5024 11165
5024 11172
5024 12295
5024 14245
5024 20995
5024 22831
5025 13286
5025 15092
5025 15547
5025 15563
5025 17266
5025 24306
5026 5091
5027 11448
5027 20749
5027 23439
5028 5798
5028 12303
5028 18900
5028 22053
5029 24054
5030 5031
5030 11036
5030 13154
5031 5561
5031 9716
5031 13154
5031 15285
5032 8946
5032 13696
5032 14302
5032 17781
5032 18441
5032 20058
5033 7292
5034 20082
5034 20794
5035 6520
5035 11127
5035 12299
5035 17105
5036 21805
5037 6719
5037 10245
5037 10571
5037 18908
5038 5177
5038 7632
5038 8299
5038 16788
5039 5701
5039 9336
5039 11063
5040 18846
5040 19586
5041 21455
5042 6135
5042 13448
5042 14010
5042 19125
5043 8055
5043 10571
5043 19227
5043 20096
5044 9103
5044 13484
5045 7820
5045 22088
5045 22692
5045 22854
5046 9252
5046 18852
5046 22222
5046 23326
5047 7362
5047 24416
5048 5318
5048 5319
5048 8538
5048 10225
5048 13729
5048 17334
5048 18038
5048 19213
5048 19239
5048 19494
5048 20210
5048 20916
5048 21069
5048 21368
5048 22500
5049 16054
5049 18031
5049 18147
5050 9174
5050 9703
5050 11203
5051 5411
5051 9825
5052 9393
5052 17851
5052 17951
5053 11697
5053 13699
5053 14191
5054 5171
5054 5470
5054 7451
5054 8512
5054 8688
5054 10779
5054 13590
5054 15589
5054 18982
5054 19465
5054 21006
5054 21361
5055 9112
5055 14023
5055 22903
5056 21865
5057 6187
5057 7181
5057 7182
5057 8414
5057 10233
5057 14674
5057 16473
5057 23862
5057 23953
5057 24460
5058 6187
5058 8414
5058 23862
5059 5328
5059 7392
5059 7907
5059 10893
5059 11185
5059 14115
5059 14312
5059 15125
5059 15186
5059 15372
5059 15632
5059 15937
5059 16313
5059 19573
5059 19650
5059 20376
5059 22287
5059 22327
5059 22549
5060 5185
5060 15653
5060 16655
5060 19078
5061 17214
5061 22056
5062 8231
5062 9639
5062 21117
5063 5521
5063 6792
5063 7198
5063 7394
5063 7406
5063 8084
5063 8112
5063 8353
5063 9052
5063 9429
5063 9463
5063 9822
5063 10564
5063 10833
5063 10953
5063 12342
5063 13123
5063 13256
5063 13380
5063 13852
5063 14079
5063 14199
5063 14208
5063 14833
5063 15752
5063 16640
5063 16793
5063 17456
5063 17536
5063 18049
5063 18230
5063 18327
5063 18422
5063 18962
5063 19055
5063 19359
5063 20083
5063 20617
5063 20704
5063 20770
5063 21075
5063 21128
5063 21276
5063 22418
5063 23858
5064 5951
5064 8458
5064 16653
5065 7972
5065 9096
5065 9290
5065 16561
5065 20053
5066 13747
5066 15411
5067 23970
5067 24283
5067 24403
5068 6421
5068 8520
5068 12105
5068 13326
5068 20849
5068 21138
5068 23484
5069 14579
5069 17147
5070 7271
5071 6107
5071 10314
5071 17133
5072 7274
5072 12576
5072 13480
5072 17556
5073 8434
5073 11602
5073 15013
5073 15594
5073 21293
5074 11790
5074 16067
5074 21944
5075 5918
5076 6156
5076 9498
5076 14102
5076 15292
5076 22734
5077 14502
5077 18624
5078 9749
5078 13939
5078 21405
5079 6790
5079 11750
5079 18497
5080 11980
5080 23928
5080 24078
5081 19952
5082 6719
5082 15315
5082 19227
5083 5730
5083 6029
5083 6248
5083 9352
5083 11605
5083 12447
5083 20308
5084 9085
5084 22443
5084 23726
5084 24030
5085 6866
5085 7482
5085 9142
5085 24482
5086 6964
5086 9596
5086 12150
5086 19543
5086 20014
5086 20242
5086 21604
5086 23505
5087 8654
5087 10150
5088 5129
5088 6352
5088 10941
5088 12924
5088 12927
5088 13659
5088 14629
5088 15803
5088 17048
5088 17424
5088 17540
5088 18214
5088 18262
5089 6207
5089 16185
5089 16851
5090 8560
5090 10526
5090 11484
5090 14316
5090 14823
5090 22099
5091 10095
5092 5738
5092 7178
5092 8557
5092 21448
5093 9450
5093 12866
5093 16926
5093 19413
5094 5805
5094 8290
5094 9934
5094 16340
5094 22138
5095 6011
5095 10185
5095 11158
5095 14863
5095 15787
5095 15907
5095 18090
5095 18637
5095 18741
5095 19653
5095 21713
5095 22395
5095 22605
5095 22754
5096 6211
5096 10086
5096 18159
5097 8757
5097 9078
5097 16639
5097 17337
5097 19376
5098 12488
5098 13567
5098 16334
5098 19236
5099 6674
5099 14974
5100 11489
5100 16100
5101 5795
5101 9607
5101 12047
5101 12193
5102 5104
5102 13281
5102 15294
5102 15456
5102 16072
5102 17308
5102 17309
5102 17310
5102 17803
5102 17960
5102 17964
5102 18107
5102 20067
5102 23340
5103 7690
5103 7977
5103 21556
5104 16072
5104 17310
5104 17312
5104 17936
5104 17943
5104 17964
5104 18105
5104 20067
5104 20324
5105 12640
5105 17108
5105 19953
5106 7141
5106 8222
5106 8486
5106 16713
5106 21986
5107 7683
5107 9172
5107 10269
5107 13992
5107 16641
5107 20050
5107 21292
5107 22227
5108 8221
5108 21880
5109 5569
5109 8213
5109 8306
5109 15973
5109 23467
5110 5557
5110 7276
5110 12216
5110 13488
5110 15364
5110 15786
5110 17311
5110 22872
5111 7277
5111 8093
5111 12551
5111 15050
5111 21841
5112 16875
5112 19651
5112 20250
5112 24220
5113 6504
5113 6623
5113 10191
5113 13845
5113 22757
5114 12693
5114 13131
5114 15337
5114 18699
5114 23290
5115 18241
5116 6493
5116 10005
5116 20718
5117 8383
5117 13610
5117 16800
5117 16933
5117 22473
5117 23398
5118 12233
5118 17205
5119 8198
5119 9296
5119 11214
5119 12620
5120 7184
5120 11063
5122 8341
5122 18293
5122 18425
5123 10295
5123 18623
5123 22414
5124 10060
5124 14522
5124 15422
5124 15769
5124 22884
5124 23425
5124 23969
5124 24005
5125 9781
5125 11125
5125 11366
5126 9536
5126 24164
5126 24272
5126 24427
5127 9786
5127 13617
5127 13740
5127 15569
5128 6881
5128 8031
5128 17207
5128 17828
5129 6455
5129 21527
5130 7296
5130 16652
5130 21359
5131 11583
5131 11707
5132 5328
5132 22116
5134 8080
5134 10366
5134 10373
5134 12525
5134 15153
5134 16215
5134 16498
5134 18351
5134 19245
5134 24261
5135 5188
5136 15230
5137 5283
5137 7888
5137 13166
5137 21760
5138 17405
5138 20999
5139 6335
5139 11676
5139 12480
5140 6789
5140 23891
5140 24213
5141 6789
5141 24167
5141 24213
5142 6789
5142 7225
5142 7919
5142 8409
5142 10085
5142 13705
5142 13706
5142 13891
5142 22924
5142 23838
5142 23891
5142 24167
5142 24213
5142 24249
5142 24308
5143 13883
5143 16993
5144 21939
5145 9410
5145 11974
5145 12598
5145 22377
5146 11373
5146 13232
5146 20303
5147 6551
5147 7024
5147 10831
5147 11313
5148 8132
5148 12722
5148 14680
5148 20389
5149 12897
5149 22716
5150 10465
5151 5316
5151 8737
5151 19995
5152 10047
5152 10259
5152 10369
5152 19246
5152 22779
5152 24260
5153 13827
5153 14737
5153 16995
5153 17110
5154 6171
5154 10927
5154 23326
5155 9913
5155 12786
5155 17625
5155 18821
5155 19009
5156 22170
5157 10397
5157 18910
5157 20556
5158 5205
5158 11935
5158 20503
5158 21512
5159 10687
5159 17866
5161 8030
5161 13885
5161 15587
5161 19209
5161 22061
5161 23579
5162 7758
5162 11564
5162 16977
5162 19028
5162 20549
5162 20599
5162 22426
5163 5563
5163 7797
5163 16665
5164 8102
5164 22806
5164 23473
5165 5166
5165 11323
5165 11324
5165 23856
5166 6232
5166 11325
5166 23856
5167 5916
5167 6515
5167 12786
5167 19811
5168 17305
5169 5255
5169 5753
5169 6561
5169 10494
5169 12660
5169 12933
5169 13892
5169 16500
5169 16854
5170 17270
5170 23067
5171 5470
5171 21361
5172 5789
5172 7972
5172 9096
5173 10989
5173 11347
5173 13645
5174 6555
5174 10426
5174 10721
5174 18157
5174 20219
5174 23759
5175 8171
5175 12978
5175 14681
5176 5180
5176 8199
5176 10418
5176 23968
5177 6686
5177 9158
5177 9482
5177 9915
5177 13054
5177 13063
5177 13090
5177 15263
5177 16534
5177 16788
5177 17609
5177 18118
5177 20666
5177 21382
5177 21893
5177 23260
5178 5180
5179 10418
5179 23735
5179 24154
5180 5372
5180 8517
5180 10418
5180 11349
5180 23968
5181 16250
5181 18533
5181 18995
5182 5200
5182 19030
5183 6348
5183 7428
5183 7530
5183 15605
5184 7428
5184 15605
5185 5996
5185 15653
5185 16655
5185 19076
5185 19078
5185 21523
5186 6862
5186 9241
5187 6088
5187 11155
5187 12975
5187 16434
5187 18650
5187 20900
5188 6437
5188 7353
5188 7413
5188 8711
5188 9707
5188 9855
5188 10534
5188 10592
5188 11520
5188 11856
5188 14268
5188 16112
5188 16461
5188 17171
5188 17232
5188 17756
5188 17787
5188 21538
5189 5508
5189 10107
5189 23023
5190 6051
5191 5317
5191 6467
5191 6632
5191 7089
5191 8535
5191 8886
5191 9116
5191 9298
5191 10181
5191 10528
5191 10799
5191 11730
5191 12909
5191 12962
5191 13478
5191 13818
5191 14175
5191 14365
5191 15206
5191 16823
5191 18071
5191 18194
5191 18631
5191 19544
5191 19846
5191 20304
5191 20892
5191 21029
5191 21219
5191 22365
5191 23620
5192 6826
5192 8261
5192 19205
5193 21844
5194 8378
5194 15222
5194 17998
5195 8358
5195 17260
5195 17749
5195 19206
5196 10735
5196 11592
5196 13629
5196 19921
5197 6129
5197 6162
5197 6493
5197 7650
5197 7998
5197 9030
5197 9239
5197 9547
5197 10799
5197 16149
5197 16194
5197 16823
5197 18391
5197 18631
5197 19846
5197 20892
5197 22308
5197 22530
5198 17360
5199 13450
5199 15419
5200 13250
5200 21980
5201 6382
5201 6438
5201 9685
5201 11129
5201 13678
5201 18021
5201 21387
5202 6954
5202 11678
5202 17490
5203 6586
5203 7527
5203 9193
5203 12357
5203 13561
5203 22174
5204 11328
5204 15828
5204 18796
5205 7520
5205 8950
5205 11897
5205 11935
5205 12154
5205 12306
5205 12350
5205 13296
5205 13859
5205 14736
5205 15749
5205 16588
5205 18392
5206 5526
5206 8835
5207 10353
5207 16238
5207 18477
5207 19949
5207 22832
5208 13036
5208 21284
5209 19477
5209 21224
5209 21800
5209 23511
5210 5939
5210 7799
5210 18389
5210 19231
5211 12383
5211 16354
5212 7484
5212 8914
5212 11136
5212 14134
5212 16146
5212 16480
5212 20616
5212 21001
5213 5500
5213 6363
5213 8557
5213 9240
5213 11046
5213 11182
5213 11226
5213 11909
5213 12230
5213 13267
5213 13842
5213 19267
5213 19326
5213 20336
5213 21448
5213 22090
5214 7903
5214 9615
5214 10771
5214 13105
5214 13196
5214 13593
5214 15086
5214 18537
5215 7903
5215 9615
5215 13593
5215 18537
5216 9211
5216 23654
5216 24324
5217 12117
5217 15637
5217 18474
5217 19850
5218 19418
5218 22975
5219 14738
5219 17824
5220 6731
5220 8885
5220 22988
5221 5881
5221 14142
5221 19195
5221 19597
5221 21490
5222 6600
5222 23720
5222 24164
5222 24427
5223 5632
5223 7554
5223 7989
5223 8927
5223 10118
5223 11680
5223 13354
5223 15325
5223 15915
5223 16377
5223 17429
5223 21706
5223 22296
5224 6282
5224 9873
5224 16615
5224 17331
5224 18201
5224 20845
5224 21814
5225 11655
5225 22543
5226 17544
5227 6957
5227 11896
5227 13055
5227 14969
5227 20905
5227 22319
5228 11630
5229 6148
5229 7783
5229 11113
5229 12364
5229 14182
5229 14855
5229 18211
5229 18372
5229 19312
5229 22166
5229 22722
5229 22995
5230 5798
5230 6249
5230 18900
5230 20968
5230 21230
5230 21738
5230 22083
5231 23297
5232 13495
5232 19115
5233 7265
5233 20669
5233 23981
5233 24090
5233 24480
5234 10046
5234 24146
5234 24160
5234 24310
5235 6401
5235 20944
5236 10671
5236 16943
5237 5915
5237 12702
5237 17650
5237 17697
5237 23475
5238 5691
5238 7442
5238 9082
5238 23612
5239 19134
5239 22784
5240 8016
5240 10828
5240 12581
5240 15767
5240 15879
5240 17423
5240 18647
5240 18668
5240 19275
5240 19979
5240 20907
5240 22487
5240 22648
5240 23777
5240 23786
5240 23999
5240 24052
5240 24053
5240 24082
5240 24471
5241 18910
5242 8347
5242 9072
5242 9458
5242 16392
5242 19108
5243 16349
5243 21786
5243 22153
5243 23167
5244 6510
5244 12592
5244 13084
5244 14016
5244 14616
5244 15023
5244 17771
5244 18229
5244 19780
5245 17000
5246 12479
5246 14222
5246 16761
5247 19052
5247 22975
5248 18851
5248 19164
5248 21103
5248 21104
5249 8533
5249 9902
5249 10154
5249 13159
5249 16424
5249 20880
5250 10056
5250 10586
5250 22281
5251 5776
5251 21681
5252 9253
5252 15054
5253 15775
5253 16190
5254 9281
5254 9969
5254 20878
5255 5753
5255 8029
5255 10494
5255 12540
5255 12660
5255 12933
5255 16500
5255 17261
5256 12303
5256 15735
5256 18006
5257 5589
5257 9588
5257 23305
5257 24394
5258 19190
5258 24408
5259 15963
5259 18844
5259 23437
5259 23444
5260 18333
5260 23887
5261 6469
5261 12266
5261 19269
5261 21132
5262 20166
5263 8493
5263 23952
5263 24476
5264 5921
5264 9402
5264 23661
5264 23816
5265 11861
5265 13669
5265 21113
5266 6870
5266 9515
5267 5809
5267 15415
5267 22310
5268 5328
5268 6388
5268 18286
5268 23100
5269 6095
5269 19643
5269 20489
5269 21564
5269 23542
5270 12479
5270 14222
5270 15147
5271 15658
5271 18964
5272 5740
5272 7661
5272 11453
5272 23964
5272 24478
5273 6803
5273 14888
5273 16562
5274 6514
5274 10861
5274 18536
5275 10847
5275 11296
5275 16119
5275 23235
5275 23765
5276 8309
5276 15178
5276 19065
5277 6888
5277 8309
5277 9113
5277 12345
5277 15178
5277 19493
5277 23787
5277 23874
5277 24071
5279 14074
5279 21194
5279 23905
5279 23906
5280 8515
5280 17611
5280 20847
5280 23515
5281 8792
5281 22595
5281 23390
5281 23931
5282 15597
5282 20218
5283 5290
5283 7888
5283 11866
5283 15404
5283 15783
5283 16709
5283 18556
5283 21883
5283 22978
5284 8736
5284 10753
5284 24239
5285 5764
5285 6163
5285 16529
5285 22659
5285 22750
5286 5514
5286 10701
5286 20019
5286 20020
5286 20021
5287 18059
5287 23224
5288 7651
5288 23878
5288 24310
5289 8837
5289 12119
5289 15032
5289 20165
5290 7888
5290 8915
5290 13166
5290 13433
5290 15404
5290 16848
5290 18556
5290 21760
5290 21883
5290 22413
5291 6027
5291 8233
5291 8893
5291 8970
5291 13430
5291 18829
5291 20412
5291 21643
5291 21916
5291 22328
5292 16781
5292 16942
5292 18550
5293 6311
5293 14204
5293 14779
5293 15136
5294 10950
5294 13231
5294 18028
5294 18786
5295 9238
5295 16514
5296 22885
5297 9882
5297 17168
5298 7938
5298 9609
5298 10588
5298 11334
5298 11639
5298 12410
5298 12448
5298 12487
5298 12558
5298 13412
5298 14399
5298 14526
5298 15541
5298 16402
5298 16525
5298 17087
5298 17221
5298 20560
5298 21887
5298 24491
5299 11842
5299 24425
5300 13796
5300 19973
5300 21655
5301 7719
5301 14035
5301 14329
5302 12497
5302 13083
5303 9040
5303 15814
5304 14098
5304 24395
5305 6851
5305 7078
5305 9123
5305 17016
5305 18601
5305 19019
5305 20762
5306 12433
5306 23162
5309 12101
5309 14364
5310 10993
5311 11019
5311 16635
5311 20565
5312 8857
5312 18166
5312 19923
5313 6416
5313 7172
5313 9947
5313 10986
5313 17849
5314 5854
5314 7639
5314 7640
5314 23876
5315 5975
5315 6068
5315 7800
5315 9265
5315 10756
5315 10945
5315 12948
5315 13854
5315 14478
5315 16011
5315 16401
5315 17557
5315 19934
5315 21214
5316 8737
5317 7089
5317 8886
5317 9239
5317 13818
5317 14597
5317 15301
5317 18071
5317 21273
5318 17334
5318 19239
5319 17334
5319 20210
5320 6422
5320 17094
5321 10341
5321 11380
5322 6758
5322 13207
5322 15360
5323 7105
5323 10695
5323 15567
5323 22460
5324 10369
5324 19245
5324 23679
5325 7888
5325 8156
5325 8457
5325 18781
5326 16447
5326 17818
5326 21722
5327 6131
5327 7489
5327 8916
5327 13288
5327 16350
5328 5752
5328 6388
5328 6629
5328 6899
5328 7123
5328 7162
5328 7392
5328 7547
5328 7907
5328 9165
5328 9356
5328 9578
5328 9720
5328 10355
5328 10478
5328 10594
5328 10605
5328 10948
5328 11185
5328 11460
5328 11835
5328 12422
5328 12602
5328 12797
5328 13012
5328 13469
5328 13741
5328 14001
5328 14200
5328 14425
5328 14598
5328 14618
5328 15125
5328 15186
5328 15441
5328 15469
5328 15551
5328 15632
5328 15964
5328 16213
5328 16313
5328 16348
5328 16553
5328 16677
5328 17135
5328 17321
5328 17805
5328 17992
5328 18009
5328 18108
5328 18998
5328 19008
5328 19049
5328 19083
5328 19320
5328 19650
5328 20183
5328 20184
5328 20240
5328 21967
5328 22116
5328 22327
5328 23320
5328 23517
5329 7689
5329 14373
5329 19112
5329 20066
5330 9872
5330 9874
5330 20771
5330 21339
5331 5853
5331 13087
5331 13542
5331 16580
5331 18334
5332 18880
5333 15148
5333 21100
5333 21317
5333 24407
5334 5402
5334 10593
5334 21740
5335 5615
5335 24294
5335 24463
5336 13162
5336 18843
5336 24468
5337 5820
5337 22203
5338 7827
5338 15238
5338 22555
5340 6407
5340 7198
5340 8353
5340 9429
5340 9463
5340 12508
5340 15350
5340 16640
5340 16793
5340 17217
5340 17456
5340 18327
5340 20083
5340 20617
5341 8700
5341 20059
5342 5345
5342 6765
5342 9530
5342 23715
5342 24379
5343 5345
5343 24379
5344 13135
5344 23069
5344 23321
5344 23804
5344 24144
5345 24379
5346 11946
5346 14286
5346 17206
5347 18222
5348 15601
5348 19914
5349 6742
5349 8853
5349 18177
5350 5351
5350 8311
5351 5352
5351 8311
5351 9080
5351 9337
5351 9690
5351 11635
5351 13192
5351 15701
5351 18941
5351 20832
5351 22158
5351 23107
5351 23806
5351 24418
5351 24419
5352 9337
5352 11635
5352 13437
5352 14055
5352 15069
5352 23806
5352 23902
5352 24169
5352 24419
5353 22757
5354 8033
5354 10175
5354 11506
5355 5471
5355 9765
5355 16245
5355 17044
5356 17273
5356 18467
5357 10893
5357 17305
5357 17992
5358 12266
5358 18501
5358 19594
5359 6639
5359 6640
5359 9612
5359 9613
5359 12419
5359 14988
5359 21096
5360 8908
5360 10877
5360 13428
5360 14633
5360 18196
5360 21200
5360 22114
5360 22375
5360 22703
5361 15189
5361 20972
5361 21053
5361 22919
5362 9414
5363 19031
5363 23939
5364 6318
5364 23765
5364 24017
5365 5444
5365 8346
5365 13451
5365 13570
5365 13962
5365 15720
5365 17464
5365 20488
5366 7450
5366 12699
5366 17047
5366 17257
5367 11911
5367 14757
5367 20697
5367 21746
5368 22287
5368 23552
5369 10434
5369 15403
5369 17175
5370 8527
5370 16986
5371 9173
5371 15871
5371 16208
5371 21167
5372 6391
5372 7968
5372 12043
5372 24001
5372 24252
5373 5691
5373 7442
5373 11596
5373 24037
5374 13505
5374 15615
5375 6714
5375 19432
5375 20696
5376 13272
5377 7771
5377 8777
5377 9965
5377 13005
5378 11464
5378 11513
5378 19988
5378 22913
5379 7048
5379 16514
5379 19719
5380 6338
5380 7007
5380 7061
5380 7599
5380 9339
5380 9562
5380 9889
5380 10089
5380 10173
5380 10981
5380 11301
5380 11528
5380 12054
5380 12858
5380 13458
5380 13929
5380 14471
5380 15299
5380 17245
5380 18190
5380 19248
5380 19281
5380 21769
5380 21779
5380 22132
5380 22573
5380 22815
5380 23310
5380 23849
5382 7646
5382 7873
5382 18001
5382 23072
5382 23214
5383 20856
5384 8479
5384 11061
5384 13059
5384 17963
5384 20447
5384 20521
5384 22809
5385 21551
5386 5532
5386 15628
5386 20924
5387 6711
5387 14400
5387 16908
5387 18867
5388 8290
5388 13122
5388 18747
5388 22138
5389 10640
5389 22419
5390 11530
5390 20545
5391 8760
5391 12656
5391 20957
5392 6584
5392 14028
5392 17550
5393 6319
5393 10117
5393 20645
5393 22055
5394 14070
5394 14934
5395 14376
5395 18911
5395 19959
5396 14495
5396 16536
5396 20176
5396 22184
5396 22540
5396 22812
5397 5559
5397 6438
5397 21969
5398 8452
5398 20783
5398 23415
5399 11120
5399 11521
5399 14094
5399 15174
5399 16380
5399 16754
5400 7031
5400 10622
5400 16177
5401 6326
5401 6758
5401 9262
5401 10333
5401 13207
5401 13487
5401 15360
5401 17954
5401 18868
5401 19168
5401 23518
5402 8274
5402 9603
5402 10814
5402 11929
5403 19537
5403 19796
5403 21341
5403 22936
5404 12021
5404 13050
5405 8930
5405 24284
5406 5889
5406 8056
5406 8473
5406 8690
5406 13427
5406 15655
5406 16143
5406 21106
5407 17735
5407 17862
5407 19744
5408 7888
5408 13166
5408 14874
5409 5432
5409 7449
5409 7786
5409 11625
5409 13343
5409 20382
5410 6407
5410 8017
5410 14833
5410 15350
5411 8574
5411 10088
5411 13505
5412 8064
5412 19824
5412 22592
5413 8113
5413 18165
5414 6539
5414 6928
5414 8369
5414 12244
5414 14271
5414 19536
5414 21577
5414 21585
5414 22417
5414 22807
5414 23006
5415 7571
5415 7580
5415 15450
5415 16492
5415 20467
5415 23170
5416 11115
5416 24099
5417 5418
5417 5419
5417 5954
5417 6342
5418 5954
5418 6342
5418 14546
5418 23676
5418 24124
5419 6342
5419 14546
5420 5555
5420 6360
5420 6551
5420 7716
5420 8289
5420 9137
5420 9735
5420 10395
5420 14052
5420 14812
5420 15747
5420 17164
5420 19547
5420 19882
5420 20655
5420 20713
5420 21614
5420 22020
5421 6071
5421 8563
5421 10906
5421 24244
5421 24320
5422 11746
5422 24177
5423 5516
5423 18549
5423 21677
5424 7072
5424 7445
5424 17719
5424 21441
5425 8328
5425 10747
5426 13189
5427 6730
5427 18918
5427 19134
5427 22784
5428 5702
5429 6458
5429 7187
5430 6931
5430 7993
5430 9166
5430 9376
5430 11387
5430 14559
5430 18751
5430 22454
5432 7786
5432 11625
5432 12015
5432 20382
5433 12897
5433 17025
5433 18567
5434 5479
5434 18806
5434 19567
5434 21362
5435 10912
5435 15586
5435 19025
5436 5905
5436 14408
5436 19185
5437 18694
5438 13973
5438 15170
5438 19492
5439 5989
5439 12723
5439 14706
5440 5931
5440 6297
5440 8725
5440 16512
5441 8875
5441 10100
5441 15344
5441 16779
5442 12537
5442 14340
5442 16390
5442 18416
5444 12074
5444 13451
5444 13962
5445 9863
5445 10600
5445 16753
5445 18530
5445 19046
5446 10245
5446 10571
5446 22841
5447 12269
5447 12512
5447 15654
5447 21056
5448 9821
5448 19868
5449 10604
5449 11861
5449 12633
5450 11118
5450 11196
5450 12620
5450 13367
5450 13704
5450 15293
5450 23011
5451 9874
5451 15119
5451 21339
5451 22719
5452 6931
5452 18751
5453 8026
5453 21593
5454 23369
5455 11530
5455 14584
5455 20545
5456 22526
5457 6367
5457 16022
5457 24035
5457 24231
5458 5533
5458 9982
5459 11839
5460 20152
5460 21971
5460 22654
5461 5809
5461 15415
5461 23542
5462 6502
5462 17032
5463 19663
5464 9458
5464 16921
5464 17101
5464 18030
5464 20919
5464 21615
5464 22311
5465 6198
5465 8630
5465 14690
5465 16335
5465 17061
5465 18417
5465 23610
5466 10367
5466 15580
5467 9100
5467 12620
5467 21593
5468 8019
5468 10736
5469 10147
5469 11233
5469 12564
5469 16159
5469 17128
5469 20608
5470 8688
5470 14272
5470 18982
5471 9100
5471 11861
5471 17687
5472 5907
5472 8483
5472 14438
5472 16207
5473 10298
5473 13062
5473 21335
5473 23477
5474 16660
5474 19318
5474 20107
5475 6395
5475 9608
5475 10922
5475 15324
5475 16909
5476 10274
5476 18629
5476 20635
5477 7177
5477 7200
5477 19691
5479 7021
5479 9461
5479 9821
5479 14908
5479 15839
5479 18806
5479 19567
5480 12838
5480 15392
5480 22904
5481 10016
5482 10593
5482 16774
5483 6704
5483 8564
5483 11900
5483 12617
5483 18834
5484 14573
5484 22193
5485 10027
5485 17603
5486 5497
5486 6838
5486 10975
5486 11146
5486 12330
5486 14609
5486 19111
5486 21144
5486 22036
5486 22786
5487 20957
5488 23297
5489 9529
5490 5617
5490 6261
5490 18165
5491 18175
5491 19053
5491 22381
5492 9501
5492 13179
5492 13620
5492 17131
5492 17363
5493 9285
5493 14611
5493 19931
5493 20098
5493 21291
5494 5679
5494 14509
5495 9780
5496 8245
5496 8551
5496 13316
5496 16882
5496 17566
5496 19506
5496 20071
5497 22036
5498 5820
5498 15877
5499 7669
5499 7876
5499 10608
5499 17467
5500 5746
5500 13267
5501 6537
5501 8366
5501 8685
5501 9257
5501 10003
5501 15008
5501 16622
5501 17667
5501 18455
5501 18692
5501 19140
5501 20677
5501 22231
5501 23038
5502 7082
5502 7990
5502 8977
5502 13867
5502 17163
5502 18166
5502 20377
5502 23492
5503 13157
5503 21114
5503 22103
5504 12610
5504 16263
5504 16264
5504 18158
5504 19646
5505 6742
5505 8853
5505 10998
5505 11068
5505 13752
5505 13766
5505 14579
5505 15552
5505 17955
5505 19522
5505 20490
5505 20780
5505 20958
5505 21007
5505 21425
5505 23070
5507 15868
5507 19191
5507 22246
5508 7673
5508 10107
5508 10797
5508 10972
5508 16806
5508 17339
5508 17903
5508 18708
5508 19087
5509 11694
5509 13287
5510 7505
5510 8165
5510 10921
5510 22269
5511 6748
5511 8726
5511 12847
5511 15840
5511 21614
5511 22302
5511 22445
5511 23185
5512 11819
5512 16304
5512 19304
5513 8909
5513 17196
5514 10701
5514 20020
5514 20021
5515 15351
5516 6967
5516 14282
5516 14452
5516 21677
5516 21739
5516 22042
5517 22040
5518 13883
5518 16211
5519 9009
5519 17889
5519 24389
5519 24391
5520 11908
5520 20503
5521 8112
5521 18049
5521 18962
5522 13235
5522 14294
5522 15302
5523 7326
5523 7367
5523 8543
5523 12973
5523 13093
5523 13112
5523 13395
5523 13672
5523 13881
5523 14324
5523 15392
5523 15607
5523 17155
5523 21472
5524 7644
5524 11968
5524 14975
5524 15557
5525 24166
5526 5637
5526 5862
5526 6250
5526 7150
5526 8675
5526 8752
5526 8822
5526 8835
5526 8849
5526 9841
5526 9885
5526 10777
5526 11298
5526 11910
5526 12293
5526 13651
5526 14105
5526 14575
5526 15464
5526 17305
5526 17586
5526 18015
5526 18872
5526 20061
5526 22065
5526 23771
5527 7256
5527 9942
5527 10475
5527 19240
5527 19744
5528 8753
5528 11476
5528 12819
5528 15445
5528 19022
5529 24016
5529 24043
5529 24217
5530 12957
5530 16029
5530 17072
5530 20451
5530 21074
5530 23513
5531 10275
5531 11237
5532 10509
5532 11138
5532 14581
5532 15628
5532 19908
5532 20924
5533 9577
5533 15123
5533 15631
5533 19925
5533 21562
5533 23244
5534 21496
5534 22242
5535 6346
5536 6346
5536 20056
5537 6571
5537 11529
5537 19079
5537 19942
5538 6838
5538 12579
5538 15588
5539 18050
5539 20732
5539 22391
5540 7564
5540 17034
5540 19367
5541 5843
5541 6004
5541 6432
5541 10762
5541 12568
5541 12740
5541 13078
5541 16981
5541 19293
5541 19722
5541 20110
5542 5584
5542 7130
5542 7284
5542 10885
5542 12493
5542 13424
5542 14622
5542 14698
5542 15539
5542 15711
5542 16418
5542 16730
5542 22974
5543 8993
5543 9876
5543 10168
5543 10170
5543 15390
5543 16074
5543 16075
5543 16286
5544 13603
5544 14953
5544 19761
5545 7063
5545 7337
5545 7708
5545 8155
5545 14962
5545 15584
5545 16483
5545 17174
5545 18231
5545 23604
5546 7254
5546 7336
5546 19358
5547 21673
5548 6979
5548 7375
5548 7608
5548 8961
5548 15219
5548 16376
5548 19402
5548 19701
5548 23706
5548 24271
5549 9598
5549 12653
5549 15311
5549 15379
5549 15942
5549 19451
5549 21749
5549 22999
5550 9039
5551 5913
5551 18890
5551 21183
5551 22163
5551 22360
5552 5588
5552 8857
5552 21487
5552 22948
5553 5604
5553 5766
5553 6702
5553 6798
5553 7941
5553 9705
5553 10028
5553 10102
5553 11619
5553 11668
5553 11930
5553 13636
5553 14940
5553 16176
5553 17642
5553 18680
5553 19145
5553 20291
5553 20491
5553 20797
5553 21189
5553 21325
5553 22130
5553 22208
5554 9369
5554 11841
5555 10063
5555 10531
5555 11610
5555 21556
5557 8691
5558 8864
5558 8865
5558 13301
5558 13873
5558 13874
5558 13875
5558 15836
5558 15838
5558 21496
5559 6438
5559 8794
5559 10860
5559 19497
5560 8654
5560 10150
5560 10999
5560 11816
5560 17380
5560 19152
5560 20960
5560 21153
5561 6487
5561 9354
5561 9716
5561 11035
5561 21914
5561 22520
5562 16836
5562 18825
5562 22133
5563 5985
5563 11972
5563 14034
5563 15809
5563 19196
5563 19956
5563 21079
5563 21943
5563 22232
5563 23530
5564 10215
5564 14270
5564 23047
5565 8909
5566 14270
5566 16541
5566 23047
5567 20823
5568 6589
5568 17313
5568 17315
5568 17316
5568 17319
5568 19870
5569 8213
5569 8306
5569 21262
5570 5571
5570 8841
5570 8844
5570 10343
5570 12524
5570 18478
5571 8841
5571 8844
5571 10343
5571 12524
5572 8840
5572 10343
5572 12524
5572 18478
5573 6591
5573 13809
5573 16197
5573 16201
5573 19876
5574 17182
5575 19304
5575 19305
5575 19306
5575 20316
5575 20317
5575 22324
5576 7766
5576 11944
5577 6915
5577 17305
5578 13479
5578 17359
5578 21401
5579 6222
5579 10035
5579 14554
5581 16671
5583 7288
5583 7766
5583 11944
5584 7811
5584 10760
5584 15519
5585 18548
5585 22852
5586 5588
5586 8857
5586 12676
5586 15065
5586 18871
5586 21179
5586 22723
5586 22948
5587 9055
5587 14066
5588 8857
5588 9089
5588 12811
5588 15065
5588 18836
5588 19801
5588 21487
5588 22006
5588 22948
5589 9563
5589 9588
5590 8413
5590 21009
5591 10307
5591 13289
5591 15131
5591 16982
5591 17254
5592 6540
5592 8845
5592 14648
5592 15640
5592 19448
5592 21083
5593 7664
5593 7861
5593 8144
5593 16566
5594 18193
5594 19191
5594 20341
5595 8054
5595 14051
5596 5945
5596 15806
5596 18557
5596 20028
5596 20031
5596 20033
5597 5972
5597 6067
5597 8290
5597 9543
5597 17662
5598 7457
5598 12308
5598 12521
5598 17595
5598 17970
5598 19598
5598 23284
5599 14558
5599 17773
5599 21786
5600 8605
5600 9564
5600 16388
5600 18194
5600 18721
5601 13628
5601 23509
5602 11870
5602 11911
5602 23438
5603 5902
5603 18282
5604 15648
5605 11577
5605 11757
5605 11838
5606 7498
5606 22349
5607 9043
5607 23940
5608 10262
5608 15567
5608 20451
5608 22998
5609 10853
5609 18644
5609 20660
5610 14496
5610 21209
5610 22315
5611 14986
5611 17544
5612 6044
5612 7272
5612 16765
5613 15997
5613 21131
5614 19872
5615 24363
5616 6583
5616 9768
5616 11166
5616 12573
5616 17596
5617 7889
5617 8113
5617 18165
5618 16173
5619 8594
5619 12082
5619 18185
5619 23896
5619 24148
5619 24387
5620 7327
5620 11966
5620 22074
5621 6655
5621 7058
5621 8636
5621 9104
5621 10571
5621 12561
5621 15157
5621 19227
5621 19845
5622 7296
5622 23558
5623 6219
5623 9289
5623 13864
5623 22801
5624 9114
5624 9321
5624 14709
5625 6922
5625 19350
5625 20404
5625 22551
5626 15246
5626 20764
5626 22007
5627 13841
5627 14679
5627 18132
5627 21724
5627 22337
5627 23233
5628 5710
5628 12002
5628 12004
5628 15338
5629 9559
5629 11704
5629 15746
5629 17017
5629 22330
5630 6354
5630 18646
5630 19687
5631 21254
5632 6450
5632 7554
5632 7989
5632 13354
5632 17429
5633 7977
5633 10053
5633 21614
5634 10082
5634 14890
5634 19562
5634 23749
5635 17298
5635 22696
5636 14844
5636 15823
5636 17440
5636 17521
5636 18162
5636 19898
5636 22268
5638 10838
5638 11486
5638 18034
5638 19748
5638 23600
5639 16331
5639 16943
5639 21161
5640 8551
5640 16882
5641 8000
5641 8823
5641 10470
5641 12897
5641 16446
5642 15281
5642 18580
5642 20393
5643 12071
5643 17289
5644 7432
5644 17115
5644 18813
5644 19508
5644 20417
5644 21058
5645 7042
5645 12882
5645 15182
5645 22135
5646 6380
5646 9623
5646 10852
5646 12032
5646 12721
5646 13385
5646 18110
5646 18792
5646 20353
5646 22312
5647 15264
5647 15795
5647 18831
5647 19636
5647 21109
5648 14048
5649 12101
5649 18223
5649 20343
5650 11302
5650 18993
5651 5882
5651 7132
5651 8968
5651 12372
5651 12601
5651 17201
5651 21476
5652 18299
5652 18771
5652 22123
5653 8657
5653 14296
5653 22195
5654 6383
5654 12099
5654 20696
5655 14372
5655 17033
5655 18696
5655 21242
5656 6022
5656 9387
5656 12275
5656 13332
5656 13656
5656 18127
5656 22347
5657 8750
5657 12700
5657 22941
5658 14282
5658 17141
5658 18307
5659 15531
5660 10597
5660 14299
5661 9024
5661 9200
5661 13923
5661 22570
5662 7818
5662 7819
5662 7821
5662 7822
5662 12067
5663 20261
5663 23146
5664 12071
5664 22771
5666 9703
5666 10368
5666 14012
5667 5951
5667 11555
5667 17605
5668 13133
5668 13449
5668 13630
5668 20422
5668 22533
5669 8670
5669 11942
5669 11973
5669 13088
5669 16338
5669 19793
5669 20290
5669 20727
5670 7175
5670 11848
5670 13349
5670 19560
5671 19834
5672 7798
5672 19727
5672 20345
5672 21799
5672 22791
5673 20093
5674 11577
5674 11838
5674 14951
5675 14602
5675 20648
5675 21172
5675 23297
5676 5832
5676 13775
5676 15225
5677 6133
5677 12084
5677 19923
5678 7041
5678 14912
5679 5826
5679 5849
5679 5984
5679 9848
5679 15911
5680 9439
5680 13391
5680 13780
5680 13977
5680 16814
5681 7807
5681 16538
5682 7218
5682 7638
5682 23802
5682 24279
5683 22053
5684 10481
5684 15128
5684 19486
5685 5973
5685 8200
5685 21061
5686 12010
5686 24201
5686 24464
5687 12943
5687 21942
5688 10058
5688 15627
5688 20694
5688 21698
5689 7071
5689 7823
5689 17443
5689 19582
5690 6008
5690 9584
5690 12208
5690 13525
5690 15635
5690 18666
5690 22935
5691 6013
5691 7442
5691 8327
5691 9082
5691 10375
5691 11596
5691 19414
5691 23612
5691 23988
5691 23998
5691 24037
5692 7033
5692 9620
5692 11746
5692 14084
5692 15560
5692 22877
5693 23896
5693 24028
5693 24148
5694 11307
5694 19059
5694 22306
5695 8963
5695 11143
5695 11453
5695 23835
5696 18355
5696 20355
5696 21583
5697 11143
5697 11453
5697 18167
5697 23075
5697 23835
5697 24008
5697 24478
5698 8213
5698 13557
5698 17462
5699 8930
5699 24083
5699 24173
5700 7828
5700 9048
5700 14708
5700 19341
5700 20711
5701 7087
5701 11063
5701 17931
5701 21063
5703 12079
5703 15145
5703 16293
5703 19381
5703 20063
5703 21437
5704 6057
5704 6609
5704 7792
5704 8140
5704 15719
5704 20073
5704 22273
5705 13870
5705 19986
5706 6056
5706 8892
5706 12892
5706 20479
5707 7397
5707 12438
5707 22763
5709 9833
5709 11491
5709 14326
5709 15304
5710 11220
5710 13961
5710 20174
5711 7743
5711 23820
5711 24284
5712 6493
5712 12108
5713 9063
5713 10438
5713 15812
5713 16461
5714 5792
5714 7230
5714 7668
5714 12047
5714 15201
5715 20137
5715 20882
5716 12140
5716 22516
5717 5741
5717 14600
5717 15041
5718 17802
5719 14948
5719 24288
5719 24406
5720 6719
5720 9815
5721 6144
5721 6825
5721 14136
5721 14251
5721 18158
5721 18580
5721 18656
5721 19808
5721 20430
5722 6144
5722 14251
5722 18580
5723 12378
5723 13132
5723 14477
5723 15010
5723 17525
5723 18008
5723 21982
5724 8922
5724 9828
5724 13153
5726 15630
5726 17582
5727 8543
5727 17155
5728 23997
5728 24072
5728 24313
5729 7319
5729 16818
5729 18458
5729 22216
5730 7415
5730 8386
5730 9352
5730 12447
5730 16825
5730 20308
5731 9508
5731 19844
5732 9969
5732 15129
5732 17055
5733 7190
5733 9329
5733 9691
5733 14363
5733 15991
5734 9896
5734 11667
5734 22013
5734 23633
5734 24365
5734 24487
5735 7001
5735 7197
5735 8812
5735 15538
5735 16777
5736 10529
5736 11029
5737 7176
5737 8978
5739 5871
5739 9170
5739 21721
5740 7661
5740 8471
5740 23964
5741 11425
5741 13573
5741 13576
5741 14600
5741 17362
5741 17901
5741 20088
5742 10042
5742 11782
5742 12219
5742 22048
5743 6167
5743 7764
5743 8144
5743 17271
5744 8026
5744 14585
5744 21614
5745 14412
5746 6363
5746 8557
5746 11046
5746 11182
5746 11226
5746 11909
5746 11943
5746 12022
5746 12230
5746 13267
5746 13842
5746 14250
5746 14991
5746 19267
5746 19326
5746 20336
5746 21448
5746 21531
5746 22963
5747 7915
5747 16722
5747 17515
5748 8681
5748 18189
5748 18674
5748 20404
5749 12597
5749 13663
5749 14177
5749 19476
5750 19576
5751 8507
5751 11846
5752 6388
5752 18998
5753 21162
5753 23509
5754 8303
5754 14187
5754 21581
5754 21591
5755 5916
5755 7535
5755 15483
5755 18006
5755 19811
5756 10128
5756 15440
5756 16516
5757 13606
5757 19940
5757 22193
5758 11661
5758 12771
5758 22157
5759 13909
5759 22288
5760 22879
5761 6052
5761 8137
5761 10650
5762 18017
5762 22701
5763 6977
5763 8160
5763 9877
5763 13407
5763 14490
5763 24109
5763 24239
5763 24269
5764 6163
5764 7439
5764 22750
5765 10325
5766 15126
5767 14185
5767 19601
5768 7188
5768 9914
5768 13082
5768 21652
5769 9394
5769 14751
5769 19224
5770 8706
5770 14998
5770 17864
5770 20996
5770 23019
5771 7237
5771 10075
5771 10196
5771 17992
5772 6435
5772 15902
5772 17136
5772 17916
5772 18137
5773 7794
5773 18077
5773 21116
5773 22992
5774 12309
5774 13387
5774 13519
5774 20642
5774 20840
5774 20950
5775 15171
5775 17449
5775 18975
5776 5794
5776 8045
5776 8876
5776 17989
5776 18364
5776 20650
5776 21681
5777 13941
5778 7401
5778 11790
5778 21507
5779 5780
5779 5782
5779 8254
5779 12908
5779 12910
5779 12911
5779 12995
5779 15249
5779 16297
5779 18355
5779 20554
5780 10067
5780 19040
5780 22672
5781 8207
5781 16406
5781 18983
5782 6897
5782 8254
5782 11739
5782 16297
5782 23036
5782 23474
5783 17142
5784 7959
5784 13724
5785 12242
5785 12691
5785 13974
5785 17798
5785 19824
5786 8959
5786 10298
5786 21610
5787 6503
5787 10002
5787 13376
5787 17774
5787 17775
5787 18788
5787 18789
5787 18892
5787 19804
5788 10935
5788 20862
5789 7972
5789 17857
5790 8358
5790 17260
5791 8957
5791 15870
5791 23316
5792 5795
5792 12047
5792 15709
5793 17763
5794 20008
5794 20650
5795 6137
5795 6474
5795 7230
5795 8170
5795 9910
5795 10737
5795 10818
5795 12049
5795 12193
5795 12209
5795 12354
5795 12414
5795 13070
5795 15201
5795 15501
5795 15709
5795 16142
5795 16356
5795 16913
5795 16925
5795 17938
5795 19219
5795 19577
5795 19627
5795 20332
5795 20728
5795 21192
5795 21588
5795 22089
5795 23023
5795 23060
5796 6166
5796 6834
5796 7972
5796 9096
5796 9326
5796 20075
5797 5915
5797 18525
5797 21356
5797 23475
5798 6930
5798 7354
5798 9129
5798 10081
5798 11003
5798 12303
5798 13402
5798 13548
5798 13611
5798 13720
5798 16521
5798 16643
5798 16906
5798 17537
5798 18734
5798 18832
5798 19550
5798 21230
5798 21692
5798 22053
5798 23272
5798 23831
5799 11550
5799 23732
5799 23921
5799 24204
5800 6565
5800 13360
5800 13534
5800 19673
5800 23240
5801 11166
5801 14504
5801 20754
5802 7346
5802 7348
5802 17351
5802 18347
5803 7373
5803 13895
5803 13913
5803 17439
5803 21817
5804 17675
5804 23219
5805 16340
5805 16998
5805 22138
5806 7931
5806 10717
5806 17530
5806 17713
5806 20282
5807 7853
5807 15491
5807 15514
5807 20458
5808 7767
5808 8369
5808 13188
5808 15245
5808 18191
5809 6329
5809 7435
5809 7443
5809 7548
5809 8138
5809 8297
5809 8463
5809 8590
5809 9366
5809 9573
5809 10049
5809 10484
5809 10899
5809 12298
5809 12612
5809 12701
5809 12736
5809 13937
5809 14085
5809 16744
5809 17731
5809 18160
5809 18360
5809 19011
5809 20126
5809 20205
5809 21322
5809 22525
5810 7664
5810 7764
5810 8888
5810 10900
5810 14047
5810 16775
5811 9741
5811 10172
5811 12763
5811 19630
5812 5970
5812 21107
5813 7165
5813 7166
5813 10460
5813 12456
5813 12841
5813 23362
5813 24293
5813 24396
5814 16433
5814 23052
5814 23306
5814 23326
5815 19515
5815 20103
5815 23045
5816 12437
5816 12438
5816 18340
5816 18341
5816 18343
5817 8857
5818 6761
5818 8628
5818 9374
5818 12043
5818 18592
5818 20725
5818 23980
5818 24059
5818 24155
5818 24253
5818 24266
5818 24270
5818 24378
5819 17075
5819 18111
5819 21207
5819 23229
5819 23578
5820 6532
5820 6698
5820 6880
5820 6999
5820 7313
5820 7811
5820 9067
5820 9260
5820 9937
5820 11925
5820 12343
5820 12431
5820 12471
5820 12493
5820 12783
5820 13248
5820 13743
5820 14924
5820 15101
5820 15711
5820 15877
5820 15878
5820 16698
5820 16730
5820 16946
5820 17390
5820 17509
5820 17627
5820 19616
5820 20144
5820 20170
5820 21640
5821 11002
5821 11930
5821 12674
5821 23196
5821 23266
5822 7107
5822 8393
5822 19266
5823 13365
5825 22892
5825 23417
5825 24024
5825 24264
5826 13011
5827 18277
5828 10918
5828 17978
5828 22780
5828 22962
5829 7026
5829 18631
5829 22365
5831 10272
5831 13959
5832 10431
5832 15035
5833 9417
5833 23330
5834 12276
5834 22597
5835 7170
5835 13592
5835 22237
5836 6446
5836 11100
5836 22979
5837 23802
5837 24279
5838 6232
5838 11324
5838 11325
5838 23856
5839 13513
5839 14979
5839 20852
5840 5897
5840 8558
5840 8984
5840 9259
5840 9625
5840 10658
5840 11881
5840 13531
5841 6832
5841 17760
5841 23772
5841 23797
5842 5918
5842 8352
5842 12374
5842 14178
5842 15897
5842 16082
5842 20182
5842 20194
5843 5917
5843 17248
5844 12303
5844 15735
5844 17498
5845 10757
5845 11585
5845 15951
5845 19826
5845 20275
5845 21235
5846 17042
5846 20985
5846 22193
5848 6254
5848 6577
5848 13920
5848 15358
5849 5984
5849 7110
5849 8470
5849 14509
5850 14642
5850 16309
5850 17268
5850 22535
5851 12571
5851 17830
5852 8857
5852 9770
5852 12776
5852 14333
5853 5918
5853 13532
5854 7597
5854 23802
5855 17112
5856 12742
5856 16394
5857 6303
5857 11139
5857 16076
5858 12726
5858 20518
5858 23452
5859 23719
5859 23999
5859 24467
5860 11092
5860 23670
5861 8846
5861 11153
5861 13400
5861 18950
5861 19784
5862 18015
5862 22856
5863 12138
5863 16020
5863 19746
5863 20230
5863 22341
5864 7186
5864 15617
5864 16290
5864 18362
5864 22027
5865 8385
5865 8438
5865 9878
5865 12745
5866 12692
5866 18702
5867 16223
5867 22676
5867 23258
5868 6812
5868 12509
5868 13900
5869 7837
5869 11959
5870 8767
5870 15624
5870 18004
5870 18534
5870 19146
5870 22154
5871 16669
5871 21508
5871 21721
5871 22499
5872 13870
5872 23200
5872 23492
5873 21181
5874 18720
5875 11704
5875 13160
5875 14253
5875 16285
5876 11986
5876 14852
5876 15734
5876 19131
5877 7552
5877 17603
5879 6112
5879 14585
5879 21650
5880 7616
5880 8674
5880 10176
5880 12994
5880 21149
5880 22100
5881 14142
5881 20121
5881 21290
5882 8968
5882 12601
5882 21476
5883 15113
5883 22739
5884 6832
5884 17760
5884 23772
5884 23797
5885 5886
5885 5887
5885 6917
5885 14472
5885 20480
5886 5887
5886 6917
5886 14472
5886 17968
5886 20480
5887 6917
5887 14472
5887 15193
5887 17968
5887 20480
5888 8427
5888 17653
5888 20545
5889 5930
5889 6815
5889 7040
5889 7050
5889 7073
5889 7356
5889 7559
5889 8056
5889 8473
5889 8576
5889 8690
5889 9008
5889 9115
5889 10321
5889 12320
5889 13427
5889 13596
5889 14541
5889 17184
5889 17640
5889 19261
5889 20744
5889 21106
5889 21232
5889 23294
5890 10987
5890 15155
5890 18471
5890 19723
5890 19891
5891 10313
5891 10316
5891 11123
5891 12588
5891 14067
5891 20256
5892 8666
5892 8667
5893 10117
5893 19041
5893 22055
5894 14590
5894 15470
5894 15624
5894 18534
5894 19674
5895 6546
5895 11228
5895 14494
5895 15093
5895 21857
5896 11010
5896 11760
5896 12135
5897 13492
5897 22988
5898 8857
5898 17163
5899 19840
5899 20625
5899 21529
5899 22082
5899 22731
5900 6633
5900 9818
5900 24005
5901 10182
5901 12457
5901 17749
5901 19625
5901 23319
5902 10318
5902 12012
5902 13189
5902 14829
5902 19930
5903 6947
5903 7437
5903 9229
5903 11443
5903 11741
5903 13075
5903 13221
5903 13753
5903 14838
5903 15875
5903 17524
5903 17601
5903 21711
5903 21908
5904 5916
5904 6515
5904 7315
5904 15483
5905 14408
5905 20969
5906 10571
5906 22904
5907 8483
5907 14438
5907 14719
5907 18853
5907 21524
5908 9875
5909 6950
5909 21269
5910 23908
5910 24160
5910 24310
5911 24160
5911 24310
5912 7000
5912 13181
5912 14657
5912 22849
5913 6920
5913 8245
5913 10387
5913 11691
5913 13948
5913 16971
5913 18896
5913 20816
5913 21010
5914 9276
5914 11514
5914 12450
5914 14167
5914 14835
5914 19603
5914 19894
5915 6550
5915 10871
5915 17650
5915 21356
5916 6515
5916 7315
5916 9750
5916 9913
5916 10614
5916 10946
5916 11677
5916 12133
5916 12339
5916 15483
5916 16633
5916 17625
5916 17855
5916 18006
5916 18821
5916 19089
5916 19533
5916 19599
5916 19811
5916 19977
5916 21731
5917 10762
5917 17248
5917 20110
5917 23157
5918 6616
5918 8352
5918 8859
5918 9128
5918 9289
5918 10299
5918 12374
5918 14178
5918 15754
5918 16815
5918 18460
5918 20557
5918 21839
5918 22393
5918 22603
5918 23285
5918 23703
5919 6254
5919 8671
5919 12109
5919 15358
5920 10820
5920 12327
5920 18745
5920 19603
5921 9402
5921 23661
5921 24257
5922 9245
5922 16985
5922 17856
5923 13601
5923 15428
5923 16737
5924 9745
5924 19061
5924 23648
5924 24159
5925 15502
5925 16245
5925 17044
5926 9325
5926 14259
5926 15350
5927 20298
5928 9364
5928 13564
5928 17812
5929 13297
5929 13922
5930 17071
5930 18298
5931 6297
5931 22164
5932 6840
5932 7429
5932 8790
5933 17207
5934 7984
5934 8788
5934 24041
5934 24152
5934 24428
5935 9962
5935 14916
5935 15764
5935 16567
5936 8797
5936 18142
5936 20879
5936 22079
5937 13788
5938 6597
5938 9027
5938 10414
5938 14037
5939 17281
5940 9548
5940 13622
5940 14254
5940 18440
5940 18665
5940 19224
5940 22340
5941 8625
5941 10452
5941 12192
5941 17738
5941 20784
5941 23441
5942 13364
5942 17860
5942 19927
5943 13555
5944 9929
5944 12951
5944 12953
5944 12955
5944 14381
5944 17250
5945 12146
5945 16053
5945 20024
5946 7995
5946 10166
5946 14479
5946 21011
5946 23459
5947 8617
5947 9196
5947 13241
5947 13279
5947 22624
5948 6081
5948 11335
5949 13334
5949 15107
5949 20652
5950 9982
5950 15631
5950 23244
5951 6281
5951 8091
5951 9331
5951 9830
5951 12707
5951 12856
5951 17605
5951 20035
5953 10167
5953 11459
5953 22680
5955 20082
5955 23056
5956 6541
5956 12596
5957 22443
5957 23627
5957 24142
5957 24163
5957 24213
5958 13199
5958 18524
5958 19661
5959 6285
5959 9188
5959 16948
5959 17248
5959 18076
5960 8721
5960 16099
5960 19066
5960 20417
5960 20982
5960 21305
5961 7993
5961 15527
5962 13175
5962 18610
5962 19154
5963 9363
5963 13334
5963 15107
5963 16976
5963 20123
5963 20652
5964 8955
5964 9492
5964 15751
5964 16397
5964 18464
5964 22124
5964 22770
5964 23198
5965 13082
5965 14128
5965 20229
5966 11435
5966 13785
5966 15431
5966 15600
5966 20771
5966 21039
5967 14981
5967 16157
5967 16495
5967 16950
5967 19963
5968 8916
5968 17768
5968 23255
5969 9369
5969 11850
5970 20658
5970 21107
5971 17730
5971 19450
5972 8290
5972 10199
5972 13122
5972 22138
5973 8403
5973 11773
5973 13209
5973 16343
5973 17384
5973 18359
5973 21474
5973 22081
5973 22938
5973 23327
5973 23524
5974 7623
5974 8069
5974 13909
5974 22288
5975 6068
5975 9265
5975 10756
5975 11736
5975 12390
5975 17881
5975 21214
5976 6793
5976 16973
5977 9519
5977 9723
5977 23756
5977 24169
5978 9723
5978 23756
5978 24076
5978 24169
5979 9979
5979 10354
5979 11243
5979 14170
5979 18315
5981 17080
5981 17081
5981 18328
5981 19086
5981 21456
5981 21699
5982 9754
5982 9755
5982 17007
5982 20427
5983 6199
5983 7265
5983 10451
5983 19444
5983 24145
5984 14509
5985 6746
5985 14251
5986 11057
5986 12290
5986 24225
5987 9087
5987 10401
5987 17188
5987 19455
5988 10804
5988 11238
5988 12358
5988 12360
5988 22126
5989 12723
5989 14706
5989 15239
5990 11169
5990 17732
5991 8493
5992 15774
5992 17702
5992 18842
5992 19167
5992 24404
5993 10905
5993 11230
5993 11665
5993 19173
5994 6076
5994 6079
5994 8507
5994 10511
5995 6516
5995 21263
5996 15653
5996 19076
5996 19078
5997 8266
5997 9206
5997 16768
5997 17447
5997 18632
5998 18918
5999 15265
5999 16414
6000 7842
6000 14954
6000 15242
6000 15757
6000 18380
6000 20177
6000 20884
6000 22571
6001 12716
6001 14110
6001 15845
6001 21782
6002 6140
6002 11841
6002 13044
6003 6092
6003 12693
6004 12740
6004 16948
6004 17248
6005 10893
6005 17992
6006 9497
6006 15828
6007 6286
6007 8400
6007 8521
6007 21844
6007 24157
6008 12616
6008 22935
6009 6785
6009 7120
6009 14782
6009 17791
6010 7013
6010 9100
6011 21713
6012 6014
6012 11531
6012 16276
6012 21551
6014 11531
6014 15590
6014 16196
6014 21060
6014 21551
6015 7154
6015 11492
6015 12725
6015 14966
6015 16839
6016 15376
6017 11492
6017 12725
6017 14699
6017 16839
6017 16840
6018 8212
6018 22764
6019 10340
6019 15348
6019 15801
6019 23410
6020 14219
6020 15055
6020 15873
6020 18746
6020 21620
6021 7684
6021 23696
6021 24168
6022 12102
6022 21640
6023 15497
6023 18255
6023 19967
6023 20093
6024 11698
6024 23709
6024 23779
6024 23907
6025 12806
6025 13289
6025 17594
6025 18622
6026 7471
6026 11242
6027 11950
6027 13430
6027 22803
6028 20943
6028 21983
6028 22349
6028 23238
6029 6248
6030 11581
6030 11582
6030 14905
6030 16683
6030 16684
6030 16685
6030 16686
6030 16693
6030 16695
6030 23134
6032 20492
6033 7450
6033 11475
6033 11681
6033 17047
6034 6465
6034 7419
6034 11295
6034 12094
6034 14032
6034 15195
6034 16191
6034 18790
6034 20465
6034 20590
6035 9115
6035 13427
6035 21106
6036 7157
6036 11433
6036 17079
6036 17243
6036 22821
6037 10678
6037 10823
6037 22894
6038 10805
6038 12731
6038 13696
6038 17345
6039 9152
6039 10499
6039 23827
6039 24248
6040 6478
6040 9254
6040 14305
6040 14661
6040 17030
6040 19563
6040 21926
6041 8413
6041 11513
6041 18870
6041 22913
6042 18846
6043 7589
6043 15889
6043 16695
6044 7272
6044 7648
6044 15918
6044 16765
6045 9044
6045 11107
6045 12435
6045 15805
6045 15830
6045 19644
6045 21398
6046 8631
6046 11593
6046 12633
6046 17028
6046 24281
6047 18782
6047 20107
6048 10399
6048 15961
6049 7369
6049 10610
6049 21981
6050 15429
6050 17637
6050 22231
6051 6566
6051 7967
6051 8259
6051 13776
6051 17272
6051 20956
6051 23179
6052 8136
6052 8293
6052 11679
6052 14995
6053 18613
6053 21169
6054 11053
6055 6236
6055 23901
6055 24055
6056 12892
6056 20479
6057 7792
6057 11689
6057 22273
6057 24414
6058 7042
6058 15182
6058 15627
6058 16069
6059 23488
6060 9361
6060 17136
6060 17916
6060 18137
6060 18859
6061 6062
6061 8316
6061 10223
6061 19968
6061 23356
6061 23364
6061 23711
6062 19968
6062 23364
6063 16076
6064 18006
6065 12735
6065 18188
6066 10665
6066 14944
6066 18453
6066 19906
6066 20653
6067 6428
6067 6602
6067 7539
6067 8290
6067 9076
6067 9543
6067 9803
6067 10199
6067 10778
6067 11868
6067 11993
6067 12131
6067 13122
6067 14453
6067 14467
6067 14547
6067 15421
6067 15799
6067 16117
6067 16448
6067 16721
6067 17342
6067 17757
6067 18743
6067 19230
6067 19300
6067 20598
6067 21331
6067 22138
6067 22468
6067 22847
6068 9694
6068 10756
6068 12390
6069 9241
6069 10575
6069 22024
6070 6862
6070 22024
6071 8931
6071 12664
6071 24382
6072 21603
6072 22033
6072 22304
6073 6314
6073 6747
6073 8026
6073 8116
6073 10164
6073 10694
6073 11339
6073 13111
6073 14205
6073 15133
6073 18019
6073 18177
6073 21614
6074 8073
6074 10464
6074 19017
6074 23065
6075 8554
6075 19318
6076 6169
6076 8507
6076 24054
6076 24392
6077 10136
6077 11748
6077 16123
6078 10136
6078 11748
6078 16123
6078 23674
6079 6169
6079 7341
6079 8507
6079 10236
6079 13355
6079 13420
6079 13421
6079 18330
6079 18415
6079 19360
6079 24054
6080 6924
6080 9219
6080 11442
6080 18700
6080 20889
6080 22554
6080 23693
6081 7075
6081 15076
6082 6160
6082 7129
6082 17465
6082 17466
6082 17467
6083 9656
6083 9703
6083 15079
6084 6374
6084 7493
6084 14359
6084 14560
6084 16959
6085 6217
6085 6662
6085 15188
6085 17307
6085 17884
6086 23762
6087 15802
6087 23067
6088 11155
6088 18447
6089 12746
6089 16931
6089 17085
6089 23508
6090 20900
6091 7480
6091 10461
6091 10732
6091 13522
6091 16306
6091 20927
6092 7204
6092 13036
6092 15337
6092 17724
6092 18699
6092 21284
6092 23290
6093 6474
6093 16468
6094 8909
6094 10236
6094 11964
6094 13073
6094 23395
6095 12612
6095 19098
6095 20113
6095 20489
6095 21564
6095 23542
6096 17741
6096 23223
6097 12565
6098 6868
6098 13882
6098 14724
6098 17200
6099 8026
6099 8800
6099 21593
6099 21614
6100 12247
6101 7430
6101 12136
6101 18044
6102 23781
6102 24196
6102 24225
6103 6122
6103 6143
6103 6676
6104 10165
6104 18300
6104 18301
6104 22836
6105 24309
6106 21660
6107 10314
6107 17133
6108 7171
6108 9314
6108 17615
6109 11968
6109 18153
6110 8853
6111 7843
6111 8735
6111 19488
6111 23791
6111 24255
6111 24276
6112 15687
6112 19939
6113 21150
6114 6505
6114 7032
6114 10419
6114 15864
6114 23837
6115 8627
6115 11105
6115 11345
6115 15030
6115 15116
6115 15127
6115 17252
6115 18068
6116 12620
6116 15991
6117 17978
6118 7002
6118 9111
6118 11554
6119 6772
6119 7002
6119 11554
6119 16951
6120 11297
6120 24016
6120 24134
6121 7823
6121 11682
6121 13440
6121 18467
6122 6676
6122 9384
6122 10214
6122 16821
6122 18849
6122 24080
6123 9703
6123 16869
6124 9558
6124 12860
6124 13225
6124 16485
6124 19104
6125 16079
6126 15271
6126 17224
6126 22072
6127 15033
6127 22868
6127 23028
6128 6169
6128 7379
6128 23825
6128 24331
6129 6493
6129 18631
6130 9576
6130 11703
6130 12935
6130 20145
6131 8916
6131 23255
6132 10088
6132 10902
6132 11969
6132 24313
6133 8265
6133 11778
6133 12084
6133 12708
6133 19511
6133 20750
6134 8228
6134 14522
6134 15537
6134 23145
6134 23607
6134 23657
6134 24068
6135 13448
6135 14010
6135 17195
6135 18197
6136 12924
6136 15803
6136 18262
6137 11056
6137 15201
6137 16925
6138 7873
6138 17460
6138 23072
6139 23952
6139 24344
6140 8088
6140 10063
6140 11329
6140 17652
6141 13318
6141 22642
6142 13784
6142 14023
6142 22263
6142 22903
6143 7681
6143 9718
6143 18217
6143 22450
6144 6825
6144 14251
6144 14257
6144 14258
6144 14578
6144 15147
6144 18158
6145 11777
6145 20717
6145 22391
6146 12317
6146 16758
6146 22395
6146 23922
6146 24348
6147 10198
6147 13846
6147 14769
6147 14840
6147 15173
6147 16879
6147 18600
6147 19179
6147 20402
6149 6934
6149 10987
6149 18740
6149 19723
6151 12897
6151 18567
6152 15351
6152 19371
6153 15997
6154 9808
6154 10469
6154 14933
6154 16324
6154 20824
6154 21654
6155 7467
6155 7469
6155 8806
6155 10615
6155 18472
6156 14102
6156 22186
6157 8030
6157 22585
6158 7221
6158 10785
6158 13855
6158 24282
6159 6378
6159 23811
6159 24451
6160 7669
6161 8252
6161 8555
6161 13926
6161 15289
6161 22348
6162 15538
6163 6816
6163 7439
6163 10061
6163 20468
6163 22479
6163 22659
6163 22733
6164 23654
6164 24324
6165 9143
6165 16892
6166 11234
6166 13707
6166 20288
6166 21321
6166 22991
6167 11851
6167 16775
6168 11223
6169 8382
6169 10236
6169 10511
6169 10862
6169 11109
6169 12317
6169 13355
6169 18330
6169 22878
6169 22898
6169 23825
6169 23846
6169 23913
6169 24024
6169 24264
6169 24331
6169 24392
6170 13295
6170 15818
6171 6234
6171 6842
6171 7750
6171 9186
6171 11102
6171 11670
6171 11945
6171 12503
6171 14677
6171 17333
6171 18852
6171 20589
6171 23826
6172 12056
6172 12731
6173 18395
6174 10364
6174 10607
6174 13807
6174 19975
6175 8064
6175 10503
6175 19824
6176 7831
6176 9503
6176 10631
6176 11551
6176 12033
6177 6827
6177 15827
6177 17593
6177 21737
6178 13990
6178 14994
6178 15810
6178 19668
6178 22439
6179 10593
6179 16788
6179 16926
6180 12890
6180 13885
6180 17993
6180 23579
6181 10385
6181 11914
6181 12444
6182 16773
6182 19554
6183 16332
6183 16603
6183 19408
6183 23959
6184 6354
6184 19687
6184 21902
6185 11690
6185 12513
6185 13571
6185 16550
6186 7543
6186 15467
6186 23029
6187 23862
6187 23953
6188 20646
6188 20843
6189 8980
6189 12955
6189 14381
6189 17613
6190 12579
6191 17541
6192 16054
6192 16115
6192 19033
6192 19670
6193 9304
6193 10440
6193 17287
6193 23368
6194 16537
6195 9288
6195 18500
6195 21072
6196 7209
6196 12739
6196 16680
6196 22597
6197 6683
6197 23229
6197 23335
6197 23578
6198 8630
6198 9285
6198 14058
6198 14690
6198 23610
6199 7265
6199 7635
6199 10455
6199 19444
6199 24145
6199 24480
6199 24488
6200 7387
6200 9694
6200 21152
6201 6351
6201 6580
6201 7858
6201 10666
6201 18976
6202 8752
6202 17305
6202 18782
6203 8735
6203 10740
6203 10934
6203 23312
6204 9043
6205 8412
6205 9292
6205 10436
6205 12645
6205 23548
6206 7270
6206 8358
6206 13550
6207 8405
6207 11404
6207 16185
6207 19367
6208 11880
6208 20162
6208 20513
6209 6719
6209 10593
6209 11934
6209 12348
6209 13346
6209 21764
6209 22592
6210 9430
6210 21090
6211 23883
6211 23912
6212 16859
6213 7450
6213 17047
6214 9320
6214 14102
6214 18888
6214 22957
6215 7952
6215 15274
6215 16101
6215 16452
6216 21415
6217 15188
6218 7675
6218 14682
6219 12182
6219 13489
6219 22478
6220 7281
6220 11366
6220 12021
6220 16450
6221 6517
6221 13025
6221 18065
6221 21217
6221 21478
6221 23360
6222 7674
6222 14554
6222 21708
6222 23092
6223 14337
6223 17405
6224 6471
6224 11987
6224 14393
6224 23558
6225 7237
6226 9785
6226 14124
6226 15142
6226 16294
6227 7707
6227 19981
6228 6973
6228 8076
6228 11781
6228 17922
6228 21947
6229 11540
6229 17626
6230 8539
6230 16283
6231 7991
6231 8647
6231 11002
6231 11970
6231 13649
6231 14717
6231 18680
6231 19420
6231 24290
6232 11324
6232 23856
6233 8652
6233 13200
6233 15351
6233 21601
6234 11670
6235 7239
6235 8214
6235 9418
6235 23827
6235 24128
6236 6237
6236 23785
6236 24234
6236 24433
6237 10141
6237 23901
6237 24433
6238 6628
6238 7232
6238 9081
6238 9854
6238 11721
6238 12469
6238 23534
6238 23767
6239 8857
6239 13870
6240 10725
6240 12344
6240 17306
6240 17868
6240 21953
6241 9035
6241 11911
6241 19318
6242 18423
6243 6245
6243 14681
6243 14685
6244 10294
6244 11634
6244 13365
6245 14681
6245 14683
6245 21395
6246 12101
6246 14364
6246 23369
6247 8387
6247 21181
6247 22885
6248 13268
6249 22714
6249 23976
6250 17950
6250 22646
6251 7649
6251 12064
6251 13010
6251 18430
6251 20104
6252 11690
6252 12513
6252 18181
6253 10026
6253 14010
6253 18857
6253 19125
6254 8671
6254 12109
6254 14346
6254 15808
6255 6458
6255 11522
6256 22120
6257 8854
6257 13453
6257 14365
6257 16214
6257 21029
6257 22365
6258 17538
6258 22915
6258 22984
6258 24066
6259 6536
6259 7604
6259 7605
6259 8951
6259 10071
6259 15160
6259 18357
6259 23036
6260 14594
6260 23376
6261 8113
6261 18165
6262 15278
6263 8155
6263 19439
6263 21197
6264 12077
6264 12078
6264 16839
6264 16841
6264 18155
6264 21302
6265 8995
6265 14204
6265 14779
6265 15136
6265 16260
6266 8451
6266 13996
6267 8238
6267 11980
6267 23920
6267 24078
6268 7340
6268 11053
6268 15482
6268 15847
6268 22800
6269 6693
6269 7250
6269 9012
6269 9140
6269 11362
6269 11698
6269 23640
6269 23779
6270 9418
6270 16758
6270 19530
6270 23827
6271 11980
6271 23809
6271 24154
6272 17006
6272 23369
6273 10883
6273 11649
6273 15664
6274 7874
6274 9632
6274 17752
6274 18449
6275 13359
6275 16084
6275 18657
6275 21077
6276 10712
6276 20696
6277 10059
6277 17457
6278 8972
6278 10217
6278 13631
6278 18393
6279 8506
6279 15121
6279 19926
6280 23720
6280 24164
6280 24272
6280 24427
6281 8091
6281 9830
6281 19136
6282 16615
6282 20845
6282 21814
6283 17992
6283 19318
6283 20107
6284 7205
6284 13129
6285 7754
6285 17248
6285 18076
6286 8400
6286 10884
6286 14061
6286 15909
6287 7155
6287 8131
6287 8629
6287 12241
6287 14404
6287 23737
6287 23943
6287 23990
6287 24397
6287 24399
6287 24420
6288 11753
6288 11754
6288 11756
6289 6735
6289 12092
6289 24069
6290 6735
6290 7542
6290 11754
6290 11756
6290 24069
6291 6735
6291 11756
6291 24069
6292 8279
6292 12874
6292 13496
6292 14762
6292 20457
6292 21660
6293 14643
6293 23843
6294 7311
6295 18028
6295 20500
6296 6863
6296 7600
6296 12014
6296 12116
6296 14759
6296 16144
6296 16408
6296 17665
6296 19340
6296 20691
6296 23188
6296 24349
6297 6392
6297 8725
6297 11562
6297 12195
6297 12490
6297 13956
6297 19311
6297 19703
6297 22164
6298 9430
6298 9892
6298 10188
6298 12379
6298 12583
6298 15282
6298 18136
6298 19809
6298 20481
6299 13570
6299 13962
6299 17464
6300 9943
6300 10811
6300 10942
6300 11893
6300 19299
6300 19382
6300 23155
6301 7227
6301 10634
6301 13832
6301 15969
6301 16384
6301 17011
6301 21461
6302 9098
6302 17178
6303 8722
6303 16405
6303 19624
6304 10108
6304 10503
6304 19824
6305 14272
6305 16662
6305 22583
6306 9618
6306 24225
6306 24391
6307 6542
6307 8032
6307 8898
6307 9922
6307 11506
6307 16756
6307 16895
6307 21277
6307 23008
6308 8026
6308 21593
6309 6425
6309 6652
6309 6768
6309 7318
6309 8038
6309 8217
6309 8548
6309 10296
6309 11306
6309 11986
6309 12504
6309 13650
6309 17619
6309 18253
6309 20044
6309 20080
6309 21041
6309 21092
6309 21146
6309 21328
6310 16662
6311 8307
6311 9731
6312 8745
6312 10933
6312 12041
6312 15477
6312 17743
6312 22144
6312 23609
6313 6621
6313 11015
6313 15849
6313 19807
6314 18177
6314 21614
6315 6659
6315 9686
6315 23706
6315 23868
6316 15872
6317 12516
6317 14670
6317 21660
6318 7495
6318 11294
6318 15007
6318 15848
6318 16085
6318 16119
6318 19409
6318 21436
6318 23741
6318 23765
6318 24152
6318 24161
6318 24374
6318 24471
6319 13567
6319 19041
6319 20734
6320 8357
6320 16190
6321 12730
6321 13603
6321 14358
6321 14953
6321 19761
6322 7210
6322 8361
6322 19185
6323 10521
6323 10736
6323 19302
6324 7384
6324 7556
6324 8048
6324 10079
6324 10781
6324 13872
6324 15953
6324 19026
6325 15033
6325 19084
6325 22868
6325 23028
6326 6758
6326 13207
6327 7742
6327 11774
6327 17758
6327 23461
6328 6795
6328 8015
6328 10159
6328 10963
6328 11221
6328 11867
6328 16611
6328 17051
6328 21026
6328 21067
6328 21633
6328 22171
6329 10049
6329 21564
6329 23542
6330 7677
6330 8348
6330 12454
6330 13464
6330 20492
6331 9035
6331 11959
6331 12501
6332 10100
6333 6884
6333 12659
6333 18495
6333 21037
6333 23116
6333 23676
6333 23995
6333 24017
6334 8365
6334 19795
6335 11676
6335 11875
6335 12478
6336 8567
6336 8568
6336 9269
6336 11813
6336 18536
6337 10470
6337 12897
6337 16945
6337 21240
6338 11528
6338 13458
6339 19405
6339 20466
6341 8314
6341 24103
6341 24266
6342 12614
6342 14546
6342 24124
6343 8413
6343 11513
6343 19988
6343 22913
6344 8829
6344 11964
6344 13073
6345 18150
6346 9535
6346 15117
6346 16092
6346 17308
6346 17309
6347 21614
6348 7428
6348 7530
6348 15605
6348 18279
6350 8584
6350 8585
6350 9535
6350 11128
6350 16092
6351 10466
6351 18976
6352 6455
6352 18214
6352 22708
6353 9077
6353 16929
6353 19361
6354 10017
6354 10267
6354 10535
6354 18646
6354 19687
6354 20741
6355 22231
6356 7281
6356 21383
6358 9085
6358 12566
6358 23617
6358 24039
6359 6547
6359 7676
6359 8052
6359 11908
6359 14942
6359 22845
6359 23829
6359 24238
6360 7138
6360 7287
6360 7977
6360 8021
6360 8253
6360 8289
6360 8795
6360 9702
6360 10800
6360 11430
6360 12542
6360 12958
6360 14749
6360 16267
6360 16307
6360 17164
6360 18972
6360 19058
6360 19545
6360 19704
6360 20133
6360 20915
6360 22295
6360 23021
6361 7693
6361 11304
6361 11832
6361 15480
6362 9058
6363 13267
6364 9098
6365 7300
6365 9295
6365 24292
6366 8932
6366 10954
6367 7843
6367 10086
6367 11470
6367 11651
6367 15592
6367 23776
6367 23944
6367 23945
6368 18148
6369 13371
6369 13536
6369 16403
6369 19355
6370 7927
6370 15155
6370 18471
6370 19891
6370 22092
6370 22134
6371 7138
6371 10262
6371 14052
6371 19713
6372 19313
6372 20767
6373 7126
6373 16575
6373 18648
6374 7493
6374 14359
6374 16959
6375 10840
6375 13958
6375 14299
6375 19392
6376 7070
6376 10406
6376 16026
6376 22248
6376 22907
6377 9416
6377 10134
6377 16880
6377 19202
6377 21455
6377 21489
6377 22073
6378 11487
6378 11546
6378 14106
6378 14299
6378 18187
6378 18495
6378 24017
6378 24179
6379 7591
6379 19452
6379 19690
6380 9623
6380 13434
6380 19348
6381 6479
6381 9174
6381 9703
6381 20772
6382 7268
6382 11129
6383 10639
6383 17838
6384 23023
6385 6489
6385 9097
6385 17053
6386 15033
6386 19084
6386 20925
6386 22868
6388 7162
6388 9578
6388 10478
6388 10594
6388 12602
6388 15551
6388 15964
6388 18998
6388 20606
6388 21421
6388 22005
6388 22116
6389 10585
6389 23915
6390 13917
6390 15993
6391 8005
6391 12043
6391 23930
6392 8962
6392 18259
6393 9697
6393 13122
6393 13631
6393 18393
6394 13504
6394 17553
6394 18973
6394 19081
6395 15324
6395 18087
6395 19641
6395 23146
6396 6527
6396 11494
6397 6398
6397 6399
6397 6518
6397 7213
6397 11684
6397 11812
6397 12415
6397 16292
6397 18883
6397 19268
6397 22678
6398 13053
6398 18698
6398 20975
6399 11684
6399 12415
6399 18698
6400 24048
6400 24154
6401 6808
6401 7647
6401 8432
6401 8834
6401 9150
6401 10964
6401 11842
6401 12277
6401 13627
6401 13943
6401 14062
6401 18122
6401 20944
6401 21919
6401 22845
6401 23241
6401 23829
6401 23960
6401 24305
6401 24425
6402 8387
6403 8930
6403 11599
6403 20867
6404 6405
6404 19190
6404 20227
6404 23678
6404 24021
6405 19190
6405 23678
6405 24021
6406 7846
6406 13965
6406 16936
6407 6554
6407 14833
6407 15350
6407 16640
6407 17456
6407 18327
6407 18422
6407 18962
6407 20399
6407 21712
6408 10042
6408 10174
6408 12219
6408 22048
6409 10848
6409 19022
6410 10429
6410 16425
6410 16782
6410 20544
6410 21076
6411 7471
6411 8588
6411 10738
6411 11242
6412 7624
6412 17373
6412 18500
6413 7066
6413 9302
6413 14415
6413 16843
6413 19615
6414 13008
6415 19403
6415 19961
6416 9734
6416 13086
6417 9553
6417 13237
6417 15402
6417 16244
6417 18575
6417 18724
6417 20272
6418 6531
6418 8189
6418 11189
6418 11927
6418 16347
6418 17498
6418 19528
6418 19880
6418 20288
6418 20568
6418 21321
6418 21979
6419 7743
6419 24254
6419 24284
6420 19608
6421 12452
6421 19735
6421 23484
6422 10120
6422 17094
6423 6647
6423 10106
6423 13604
6424 10981
6424 18687
6425 8217
6425 11986
6425 15734
6426 7507
6426 21649
6427 11868
6427 13122
6427 22138
6427 22434
6428 9543
6428 12959
6429 7595
6429 12240
6429 15234
6429 15773
6429 19192
6429 19329
6430 17339
6431 19318
6431 22025
6432 12740
6432 19722
6433 16768
6433 18632
6434 10501
6434 23932
6434 24162
6435 10273
6435 18859
6435 22840
6436 15958
6436 19022
6437 10592
6437 11520
6437 16112
6437 17232
6438 7360
6438 7739
6438 10860
6438 11129
6438 11669
6438 11763
6438 17246
6438 18178
6438 19497
6438 21031
6438 21387
6438 21515
6438 23541
6439 8452
6440 14496
6440 16024
6440 21635
6440 21661
6440 22071
6440 22315
6441 17128
6441 18465
6441 20608
6442 12155
6442 16520
6442 16614
6442 18442
6442 22844
6443 11002
6443 11930
6443 18680
6443 23196
6443 23266
6444 7624
6444 9288
6444 13779
6444 20042
6445 8019
6445 10736
6445 12280
6445 21681
6446 11100
6446 11946
6446 13242
6446 16571
6446 18679
6447 10587
6447 12934
6447 15785
6447 18912
6448 6523
6448 12049
6448 12354
6448 13070
6448 19577
6450 6845
6450 7554
6450 11680
6450 13354
6450 14295
6450 15915
6450 16377
6450 17429
6451 10690
6451 11372
6451 12320
6451 18854
6451 19843
6452 15400
6452 20785
6453 6510
6453 12129
6453 14016
6453 15023
6453 18240
6454 14935
6455 10941
6455 18214
6455 22708
6456 19844
6457 7571
6457 8695
6457 13822
6457 14799
6457 16492
6458 7187
6458 9489
6458 11522
6458 11706
6458 12875
6458 14528
6458 16276
6458 19665
6458 20662
6458 22305
6458 23027
6459 8077
6459 22749
6460 19834
6460 22221
6461 6559
6461 9858
6461 13085
6461 14385
6461 17897
6461 17977
6461 18200
6461 18889
6461 20505
6461 20795
6462 8699
6462 11827
6462 13000
6463 11861
6465 11295
6465 15196
6465 16191
6466 15077
6466 16856
6466 22088
6466 22234
6466 22692
6467 9564
6467 17942
6467 18194
6468 9142
6468 10527
6468 16732
6468 20886
6468 24482
6469 11108
6469 12266
6469 18235
6469 19269
6469 23172
6470 11143
6470 11453
6470 23835
6470 24008
6470 24375
6471 6535
6471 7296
6472 6841
6472 7049
6472 7082
6472 7990
6472 8255
6472 8857
6472 10689
6472 11891
6472 12879
6472 12998
6472 13168
6472 13867
6472 13870
6472 16160
6472 16857
6472 18917
6472 19551
6472 19912
6472 20807
6472 20906
6472 21429
6472 21815
6473 11570
6473 13781
6473 14022
6473 14565
6473 16245
6473 20452
6473 20967
6474 7976
6474 9921
6474 10737
6474 12193
6474 12354
6474 16356
6474 23060
6475 9502
6475 13580
6475 15003
6476 7867
6476 11841
6476 14053
6476 16554
6477 8019
6477 19997
6478 14661
6478 21926
6479 8743
6479 9435
6479 9703
6479 11203
6479 18164
6479 22137
6480 17411
6480 20144
6481 13731
6481 14157
6482 9707
6482 13794
6482 19523
6483 10035
6484 9819
6484 15705
6484 21611
6484 22716
6485 8177
6486 15817
6487 11036
6487 21914
6488 11139
6488 16076
6488 21443
6489 18876
6489 20265
6489 20406
6490 7859
6490 8930
6490 24083
6491 8930
6491 24083
6492 8930
6492 10839
6492 17826
6492 23658
6492 23721
6492 24380
6493 14487
6493 14950
6493 15606
6493 16158
6493 16804
6493 16957
6493 18631
6493 21675
6493 23216
6493 23549
6494 12787
6494 21500
6495 7816
6495 8558
6495 13218
6496 11519
6496 20763
6497 10770
6497 19728
6497 20254
6497 21126
6498 14057
6498 20675
6499 9638
6499 11858
6499 16940
6499 19234
6499 21113
6500 7859
6500 8930
6500 23629
6500 24083
6501 12185
6501 22732
6502 15621
6502 17032
6502 22117
6503 17776
6503 18892
6504 6623
6504 12738
6504 14563
6504 16093
6504 22701
6504 22757
6504 23237
6505 6670
6505 10419
6505 23837
6506 11790
6506 13315
6506 16067
6506 17549
6506 21944
6506 21989
6507 11852
6507 20646
6508 7561
6508 7607
6508 9301
6508 11882
6508 12817
6508 13676
6508 14225
6508 15106
6508 17685
6508 17975
6508 18731
6508 19063
6509 14226
6509 20660
6510 9467
6510 12129
6510 12592
6510 13084
6510 14016
6510 18229
6510 18280
6510 20150
6510 20859
6510 22929
6511 9323
6511 10853
6511 11569
6511 18644
6511 20660
6512 6896
6512 7301
6512 13193
6512 22405
6513 13397
6513 14244
6513 15040
6513 15356
6513 15400
6513 16259
6513 19270
6514 8720
6514 13908
6515 6892
6515 7535
6515 9750
6515 9913
6515 10614
6515 17625
6515 17855
6515 19009
6515 19089
6515 19533
6515 19599
6515 23309
6516 6719
6517 19482
6517 21217
6517 21478
6518 7213
6518 14422
6518 17749
6519 8491
6519 16587
6519 19388
6520 11127
6520 12299
6520 17105
6521 13699
6521 14191
6521 17567
6521 21358
6521 22627
6523 10737
6523 12049
6523 13070
6524 20105
6525 8528
6525 9766
6525 21034
6525 22311
6525 23138
6526 12088
6526 16733
6526 21385
6527 11494
6527 13932
6528 10477
6528 12324
6528 22336
6529 20124
6530 7999
6530 8435
6530 9212
6530 9570
6530 9602
6530 9814
6530 12989
6530 13238
6530 13825
6530 14217
6530 14252
6530 16618
6530 17562
6530 18013
6530 20444
6530 20512
6530 21881
6530 22483
6531 14895
6531 22053
6532 6575
6532 6698
6532 11095
6532 22954
6532 23236
6533 7211
6533 9349
6534 7586
6534 7937
6534 11210
6534 11376
6534 19148
6534 19697
6534 19983
6534 24479
6535 7296
6535 11987
6536 7826
6536 18357
6536 23036
6537 8366
6537 9257
6537 18692
6537 20046
6537 22231
6538 9165
6538 10605
6538 11835
6538 16348
6538 16677
6538 19049
6538 20183
6538 23517
6539 9513
6539 22807
6539 23006
6540 21378
6541 7796
6541 10222
6541 10948
6541 12113
6542 8032
6542 8033
6542 9985
6542 11506
6543 7558
6543 11951
6543 22283
6544 7837
6544 11959
6544 16867
6545 10369
6545 10370
6545 19246
6546 11228
6546 14494
6546 15093
6546 21857
6547 23960
6549 10446
6549 14640
6549 16965
6549 18818
6549 20961
6550 10871
6550 12702
6550 17033
6551 7645
6551 8253
6551 9765
6551 10635
6551 12868
6551 12982
6551 13228
6551 15089
6551 15228
6551 15842
6551 16136
6551 16680
6551 17302
6551 19752
6551 21614
6551 21972
6552 21739
6553 8413
6553 21009
6553 22040
6553 22913
6554 8017
6554 15350
6554 20704
6555 6780
6555 20219
6556 12845
6556 13702
6556 15310
6556 23282
6557 8078
6557 8878
6557 9654
6557 11863
6557 12769
6557 13028
6557 18787
6557 19382
6557 23401
6558 8137
6558 14995
6558 24429
6559 17977
6559 20795
6560 17064
6561 13892
6561 16500
6561 16854
6562 13365
6562 18334
6563 7742
6563 17576
6563 17621
6563 23461
6564 23146
6565 13534
6566 6742
6566 8259
6566 10490
6566 11068
6566 12997
6566 15140
6566 15543
6566 20164
6566 20490
6566 20958
6566 21007
6566 21770
6566 23101
6567 11362
6567 12475
6567 23640
6568 12579
6568 15588
6569 7942
6569 9074
6569 22193
6570 10469
6570 21864
6571 13910
6571 19079
6572 10526
6572 19170
6573 8040
6573 8125
6573 12411
6574 17419
6574 19913
6574 21673
6575 17411
6575 20144
6576 12393
6576 12976
6576 15201
6576 17938
6577 8671
6577 15808
6577 16415
6577 17182
6577 22148
6578 15735
6578 16275
6578 21731
6579 9659
6579 10473
6579 13571
6579 14288
6580 20408
6581 9738
6581 9865
6581 10559
6581 11317
6581 12593
6581 13608
6581 14086
6581 14999
6581 15067
6581 17170
6581 18803
6582 10764
6582 12943
6582 14168
6582 16227
6582 18886
6583 14504
6584 7795
6584 21858
6585 8455
6585 19348
6585 20600
6585 22362
6586 7527
6586 13561
6587 10679
6587 23665
6587 24414
6588 6646
6588 9524
6588 10674
6588 17340
6588 20923
6589 15295
6589 16200
6590 10093
6590 10492
6590 14507
6590 15762
6591 9110
6591 12795
6591 13425
6591 13809
6591 16197
6591 16201
6591 22760
6592 6593
6592 22367
6593 10215
6593 15295
6593 17316
6593 18820
6593 18823
6594 8026
6594 21593
6595 11035
6595 22520
6596 7711
6597 9027
6597 11117
6597 14037
6597 18488
6597 20482
6598 11759
6598 12045
6598 17379
6598 21787
6599 7076
6599 16354
6600 6917
6600 7245
6600 18256
6601 8332
6601 12681
6601 16807
6601 18773
6601 23427
6602 13122
6602 22138
6602 22434
6603 10617
6603 11320
6603 14818
6604 8513
6604 11426
6604 12097
6604 19693
6604 22206
6604 22510
6605 8208
6605 11797
6605 17404
6605 20217
6605 20218
6605 20708
6606 10051
6606 13997
6607 7047
6607 15381
6607 16443
6607 22744
6608 13457
6609 10887
6609 13995
6610 6849
6610 8246
6610 9569
6610 13972
6610 21673
6611 8857
6611 12811
6611 18209
6611 18836
6611 19801
6611 21179
6611 21487
6611 22723
6611 22948
6612 12620
6612 17096
6613 7313
6613 13634
6613 20222
6613 22279
6614 19447
6614 22755
6615 12722
6615 15868
6615 19191
6616 14178
6616 15754
6616 16815
6616 18460
6616 22603
6617 12442
6617 13358
6617 13388
6618 20725
6619 7219
6619 23819
6619 24019
6619 24189
6619 24239
6620 7115
6620 23731
6621 11015
6621 15849
6621 16884
6621 19807
6621 21494
6621 23199
6622 6637
6622 7939
6622 7960
6622 15852
6622 15853
6622 15854
6622 15855
6622 15856
6622 15858
6622 16887
6622 17032
6622 18420
6623 13845
6623 22701
6623 22757
6624 12664
6624 24244
6624 24336
6625 17305
6626 10424
6626 15333
6626 15489
6626 22054
6627 10505
6627 15521
6627 16904
6627 17694
6627 17906
6627 20788
6628 7747
6628 9854
6628 10554
6628 11721
6628 12469
6628 14183
6628 16874
6628 18146
6628 23767
6629 18286
6630 10600
6630 14320
6631 7776
6631 10536
6631 19317
6632 6935
6632 7650
6632 7861
6632 13478
6632 18631
6632 20892
6632 22365
6632 23620
6633 8556
6633 10907
6633 23850
6634 6932
6634 10907
6634 12036
6634 16451
6635 8087
6635 12860
6635 20578
6635 23593
6636 8742
6636 10793
6636 22139
6636 23575
6636 23783
6636 23814
6636 23926
6636 24151
6637 15854
6637 15858
6637 19663
6638 9569
6638 17419
6638 19913
6639 9612
6639 15412
6639 20469
6639 21096
6639 21378
6640 15412
6640 20469
6640 21378
6641 24285
6642 9409
6642 14120
6642 18568
6643 9643
6643 10032
6643 24277
6644 7719
6644 11826
6644 12560
6645 13509
6645 14318
6645 19443
6646 9524
6646 15184
6646 17340
6647 7712
6647 10106
6647 10143
6647 13604
6647 14301
6647 19514
6648 8800
6648 9711
6649 8999
6649 12189
6649 12225
6649 12758
6649 20904
6649 21644
6650 9256
6650 12716
6650 15845
6651 18282
6652 16421
6653 10671
6653 11758
6654 11757
6654 12828
6655 10245
6655 10571
6655 12038
6656 7145
6656 19032
6657 17447
6657 20125
6658 10761
6658 16412
6658 19252
6658 22415
6659 7386
6659 9358
6659 9686
6659 20981
6659 23706
6659 23808
6660 13338
6660 15416
6660 15943
6660 20091
6660 22219
6661 6865
6661 8874
6661 9933
6661 12380
6661 12416
6662 15188
6662 17437
6663 7091
6663 7717
6663 8215
6663 10416
6663 11059
6663 11151
6663 12197
6663 13035
6663 14143
6663 17001
6663 18125
6663 18669
6663 21526
6663 22886
6663 23403
6663 23560
6664 7984
6664 12167
6664 23985
6664 24041
6664 24161
6665 8756
6665 10295
6665 12200
6665 18182
6665 19069
6665 22407
6666 17055
6666 21289
6666 21720
6667 10420
6667 21186
6668 9882
6668 10593
6668 15802
6668 17116
6669 14317
6669 21459
6669 23593
6670 10419
6670 18180
6670 24286
6671 7628
6671 7629
6671 14615
6671 17921
6671 22030
6671 22031
6672 11542
6672 23786
6673 7518
6673 7678
6673 14746
6673 18633
6673 19829
6675 8923
6675 17107
6675 21296
6676 10214
6676 23937
6677 8545
6677 13675
6677 14363
6678 11827
6678 23046
6679 9700
6679 17141
6679 18307
6680 11986
6680 20503
6681 11780
6681 15660
6682 8019
6682 8615
6682 13227
6682 19997
6683 23229
6683 23578
6684 10792
6684 23734
6685 10990
6685 11763
6686 10593
6687 8673
6687 10102
6687 11930
6687 18804
6688 11717
6688 14265
6688 15630
6690 13788
6691 7111
6691 8569
6691 14164
6691 20334
6692 14068
6692 18657
6693 11698
6693 14748
6693 23709
6693 23779
6693 23907
6694 7965
6694 18035
6694 22338
6695 7283
6695 8862
6695 8987
6695 18476
6696 19181
6696 22074
6697 8673
6697 11039
6697 14104
6697 18804
6698 8101
6698 13424
6698 17411
6698 19589
6698 22203
6699 10577
6699 14204
6699 19727
6699 20769
6699 23178
6700 11100
6700 14286
6700 19428
6701 9086
6701 14566
6701 20366
6702 11619
6702 15648
6703 8496
6703 15466
6703 18681
6704 17804
6704 20526
6705 8280
6705 8746
6705 11031
6705 18769
6705 22967
6705 23443
6706 18150
6706 22628
6707 14118
6707 19555
6708 8155
6708 11467
6708 23098
6709 7359
6709 20866
6710 9859
6710 10249
6710 12990
6710 16863
6710 20866
6710 21143
6711 16021
6711 18867
6712 13557
6712 16863
6712 20866
6713 8433
6713 9691
6713 10278
6713 17687
6714 9642
6714 10382
6714 10639
6714 12586
6714 18016
6714 19365
6714 20039
6714 20346
6714 20696
6714 21301
6714 21391
6716 7043
6716 10640
6717 22985
6717 23713
6717 23758
6718 7190
6718 7311
6718 14984
6719 6856
6719 7109
6719 7131
6719 7161
6719 7884
6719 8204
6719 8467
6719 10245
6719 10571
6719 10748
6719 10923
6719 11258
6719 11543
6719 12029
6719 12348
6719 12880
6719 13834
6719 13884
6719 14794
6719 15389
6719 15591
6719 16235
6719 16277
6719 16745
6719 17867
6719 18171
6719 18707
6719 18738
6719 18756
6719 19618
6719 19702
6719 21764
6719 21884
6719 22973
6719 23313
6719 23595
6720 18848
6720 20609
6721 16357
6722 6774
6722 7142
6722 7823
6722 11398
6722 13440
6722 14368
6722 19374
6722 21272
6722 22346
6722 23597
6723 6859
6723 8016
6723 24061
6724 9780
6724 23887
6725 7175
6725 19639
6726 10696
6726 19450
6727 13264
6727 16230
6728 11583
6729 8472
6729 8900
6729 10420
6729 10931
6729 13750
6729 22972
6730 9265
6730 17881
6730 23531
6731 11881
6731 13492
6731 22988
6732 14822
6732 22537
6733 13221
6733 13529
6733 14785
6733 15599
6734 19520
6734 21620
6735 7541
6735 9462
6735 11753
6735 11754
6735 11755
6735 11756
6735 12092
6735 13337
6735 14542
6735 14985
6735 20501
6735 23742
6735 23794
6735 24069
6736 6870
6736 13584
6736 24343
6737 14229
6737 18974
6738 12842
6738 14591
6738 14596
6738 22329
6739 15178
6739 19065
6739 23874
6739 24071
6740 8816
6740 18355
6740 19040
6740 20356
6741 9035
6741 12501
6741 15216
6741 18933
6742 13752
6742 19522
6742 21425
6743 12284
6743 13835
6743 20820
6743 23621
6744 7511
6744 11583
6744 23296
6745 11575
6745 23277
6746 8717
6746 8724
6747 8116
6747 13111
6747 18177
6747 21614
6748 11610
6748 13460
6749 13038
6749 13883
6749 16993
6749 21995
6750 10314
6750 17935
6751 9009
6751 17889
6751 24390
6752 11104
6752 24357
6753 15868
6753 19151
6753 19191
6753 20341
6754 16763
6754 19600
6755 7995
6755 12861
6755 14247
6755 14519
6755 16585
6755 17082
6755 23055
6756 10560
6756 22817
6757 8109
6757 8243
6757 9205
6757 16054
6757 18147
6758 8268
6758 8612
6758 8947
6758 9262
6758 9880
6758 10145
6758 12751
6758 13207
6758 15360
6758 15927
6758 17954
6758 18868
6759 14136
6759 16398
6759 19803
6760 7332
6760 11122
6760 12250
6760 20386
6761 23863
6762 7034
6762 8662
6762 12899
6762 18554
6762 21452
6763 9280
6763 9316
6763 10302
6763 10958
6763 16027
6763 17764
6763 18215
6763 19097
6764 7267
6764 12726
6764 23452
6765 9215
6765 9530
6766 8267
6766 16452
6766 16657
6767 15612
6767 16619
6767 23450
6768 15734
6769 10125
6769 16896
6770 11514
6770 12538
6770 13314
6771 8191
6771 24103
6772 11554
6773 10377
6773 16707
6773 18961
6773 23254
6774 10328
6774 13440
6775 11823
6775 14790
6775 18809
6776 10638
6776 13653
6776 17637
6776 17883
6776 20678
6776 21999
6776 22068
6776 22231
6776 23370
6777 8218
6778 12803
6778 20897
6779 9011
6779 18053
6780 9516
6780 10426
6780 10721
6780 20219
6780 23759
6781 11359
6781 11490
6781 15255
6782 15217
6782 19947
6782 21360
6782 22009
6783 15689
6784 7585
6784 9747
6784 12897
6785 13552
6785 17791
6785 22811
6786 7000
6786 13001
6786 13378
6786 23547
6787 7552
6787 17603
6787 18400
6787 20928
6788 8152
6788 24350
6789 7919
6789 24167
6790 11750
6790 16787
6790 18497
6790 19490
6791 8380
6791 16722
6792 7394
6792 14833
6792 15350
6792 20617
6793 15354
6793 16440
6793 18297
6794 13733
6794 16240
6794 23630
6795 11624
6795 11688
6795 20812
6796 15605
6796 21317
6796 23274
6797 9868
6797 11545
6797 11977
6797 22810
6798 12120
6798 14940
6798 18680
6799 15257
6799 15876
6800 20717
6800 20732
6801 6802
6801 6807
6801 7371
6801 16862
6801 23141
6802 7371
6802 14430
6802 16862
6802 23141
6803 14888
6803 16562
6803 19221
6803 19904
6804 8551
6804 20420
6804 23258
6805 18389
6806 8217
6806 11986
6806 15734
6806 22286
6807 13249
6807 16399
6807 16862
6808 11842
6808 23735
6809 15888
6809 15891
6809 15894
6809 15895
6809 16683
6809 16685
6810 14704
6810 17134
6811 8691
6811 14783
6812 7516
6812 7538
6812 13900
6812 14880
6812 16711
6812 17040
6812 19613
6812 20967
6812 21892
6813 8782
6813 8903
6813 17211
6813 20361
6813 21791
6814 11613
6814 14858
6814 16723
6815 19460
6816 7439
6817 10684
6817 12201
6817 17928
6817 18129
6818 10630
6818 14867
6818 14869
6818 14871
6819 20820
6820 7217
6820 14867
6821 7740
6821 11181
6821 15556
6822 19318
6823 10904
6823 13699
6823 14191
6823 16924
6823 20720
6823 21358
6823 22627
6824 7281
6824 8219
6824 10926
6824 16450
6824 20078
6825 18158
6826 7352
6826 9283
6826 10187
6826 13114
6826 14071
6826 14088
6826 16508
6826 19205
6826 21961
6826 23569
6827 10149
6827 10412
6827 12046
6827 13295
6827 14149
6827 16030
6827 16755
6827 17593
6827 20534
6827 20682
6827 21737
6829 14569
6829 18453
6829 19611
6829 20653
6830 7525
6831 8799
6832 23772
6832 23797
6833 14409
6833 15444
6833 16613
6834 7715
6834 11234
6834 13381
6834 17857
6834 20528
6834 21087
6836 20771
6836 21508
6837 12146
6837 14213
6837 16206
6837 20024
6838 18306
6839 12050
6839 15044
6840 7429
6840 8504
6840 8790
6840 16064
6840 18958
6841 12998
6841 14482
6841 19912
6841 19986
6841 21815
6842 11670
6842 18852
6843 24154
6843 24325
6844 7631
6844 12886
6844 18205
6844 18208
6844 22632
6845 7554
6845 13354
6845 22296
6846 7224
6846 12488
6846 13884
6846 22904
6847 7409
6847 7733
6847 10487
6847 11504
6847 16138
6847 16578
6847 16701
6847 17566
6847 19342
6847 19483
6847 20079
6847 20507
6847 22369
6847 22454
6847 23769
6847 23866
6848 14512
6848 14758
6848 15763
6848 17572
6848 18736
6848 20811
6848 21846
6850 16545
6850 19149
6850 20142
6850 23594
6851 7078
6851 9123
6851 21826
6852 22053
6853 16147
6854 17639
6855 7366
6855 7930
6855 11693
6855 12798
6855 12945
6855 13683
6855 13791
6855 16539
6855 17027
6855 18569
6855 22275
6855 23525
6856 10923
6856 23269
6857 19827
6858 22509
6858 22989
6858 23900
6858 24361
6859 18716
6859 22855
6859 24205
6860 10628
6860 21978
6861 9703
6862 20992
6862 22178
6863 23188
6863 23311
6864 12388
6864 23786
6865 9933
6865 12416
6867 23362
6867 24050
6868 9666
6868 9667
6868 9668
6868 14724
6868 20495
6869 10762
6869 16948
6869 17248
6869 19377
6869 21279
6870 12425
6870 12427
6870 12428
6870 23819
6870 24360
6871 11432
6871 11458
6872 9249
6872 12262
6872 18843
6872 21396
6873 15521
6873 20160
6873 22274
6874 8687
6874 14723
6874 18081
6874 18659
6875 9072
6875 15751
6875 19108
6876 6914
6876 11215
6876 22183
6877 10847
6877 11980
6878 9247
6878 12316
6878 18810
6878 22034
6879 6937
6879 8043
6879 8701
6879 9145
6879 17835
6880 7811
6880 20144
6880 22361
6881 7504
6881 15293
6882 8121
6882 17073
6882 23824
6882 24236
6883 8002
6883 8022
6883 8782
6883 10523
6883 11627
6883 12062
6883 12966
6883 21791
6884 16119
6884 23625
6884 24367
6885 8306
6885 11175
6885 14270
6885 16541
6885 18820
6885 21819
6886 12666
6887 7134
6887 8028
6887 10496
6887 14693
6887 17720
6887 20155
6887 23572
6888 8309
6888 23874
6889 11513
6889 22913
6890 9171
6890 24303
6890 24339
6891 10319
6891 12217
6891 17179
6891 20540
6892 9913
6892 18006
6892 18821
6893 8158
6893 17248
6893 17495
6894 13221
6894 13529
6895 17830
6896 7301
6896 13169
6896 13193
6897 9614
6897 17160
6897 23474
6897 23705
6898 9662
6898 14278
6899 22287
6900 7647
6901 17592
6901 21141
6902 21800
6903 11125
6903 19473
6904 18844
6904 22402
6904 22701
6905 17136
6905 18859
6905 22840
6906 16722
6907 11241
6907 13345
6907 21318
6908 16509
6908 16954
6908 17548
6909 7023
6909 7509
6909 8051
6909 17406
6909 18456
6910 13318
6910 14640
6911 14932
6911 15266
6911 21264
6913 8991
6913 9990
6913 9991
6913 10013
6913 17859
6913 18619
6914 8438
6914 11999
6914 13722
6914 22183
6915 8835
6915 13436
6915 14575
6915 17305
6915 19349
6915 22640
6916 11130
6916 15615
6917 6918
6917 6919
6917 8107
6917 9994
6917 11062
6917 12694
6917 14472
6917 14501
6917 15193
6917 17499
6917 17968
6917 19121
6917 22619
6918 14472
6918 20480
6919 14472
6919 20480
6920 6949
6920 8351
6920 10387
6920 11691
6920 13316
6920 13948
6920 16971
6920 17225
6920 18545
6920 19506
6921 8019
6921 20371
6921 21820
6922 9905
6922 9984
6922 11071
6922 12679
6922 18189
6922 20404
6922 22551
6923 18984
6924 7291
6924 11442
6924 17732
6924 20514
6924 20889
6924 23693
6925 7668
6925 12047
6925 15201
6926 18026
6926 18345
6926 21560
6926 21563
6927 10529
6927 12746
6928 19601
6928 23006
6929 13299
6929 13894
6929 22738
6930 7354
6930 7943
6930 8739
6930 9129
6930 10081
6930 10309
6930 11003
6930 11263
6930 12178
6930 12303
6930 13223
6930 13402
6930 13551
6930 13618
6930 14406
6930 14486
6930 14638
6930 15229
6930 15290
6930 15992
6930 16521
6930 17144
6930 17537
6930 18010
6930 18734
6930 18832
6930 18900
6930 19461
6930 19550
6930 20968
6930 21692
6930 21738
6930 22506
6930 23272
6930 23831
6931 7733
6932 12036
6932 16451
6932 22716
6932 23850
6933 13883
6934 10383
6934 19723
6935 18631
6936 10448
6936 13320
6936 14189
6936 16221
6936 17180
6937 8701
6937 14589
6937 19714
6937 20738
6937 21151
6938 14450
6938 15400
6938 17992
6938 19318
6939 8544
6939 14093
6939 14960
6939 16023
6940 9323
6940 12717
6941 8526
6941 20695
6942 11335
6943 7891
6943 9730
6943 9999
6943 10351
6943 12283
6943 16795
6943 17663
6943 17705
6943 18593
6943 19553
6943 19617
6943 23248
6944 9394
6944 22340
6946 11935
6947 8119
6947 9229
6947 9633
6947 10317
6947 11374
6947 11741
6947 13753
6947 14194
6947 14838
6947 15875
6947 16125
6947 17524
6947 19948
6947 20582
6947 21777
6947 21908
6948 10006
6948 10809
6948 14533
6949 19506
6949 22596
6950 9066
6950 19393
6950 21269
6951 7683
6951 8613
6951 14930
6951 16327
6952 12303
6952 12735
6952 18188
6953 7657
6953 8118
6953 10649
6953 11609
6953 17628
6953 19467
6954 11033
6954 23193
6955 8800
6955 14585
6955 21593
6956 7871
6956 9626
6957 13055
6958 8055
6958 20096
6958 23539
6959 6996
6959 20137
6960 15162
6961 11870
6961 12512
6961 20243
6962 8688
6962 15589
6962 17661
6962 18982
6962 21361
6963 23765
6963 24152
6964 9596
6964 21604
6965 14438
6965 16207
6965 18853
6965 21524
6967 21677
6967 21739
6968 12897
6968 18567
6969 13221
6969 15678
6969 17305
6970 7668
6970 9607
6970 14439
6971 19096
6971 21721
6973 9148
6973 9499
6973 22706
6974 12359
6974 13786
6974 15063
6974 19929
6975 8578
6975 11790
6975 21696
6976 9300
6976 23200
6977 23637
6977 24269
6978 19031
6978 22846
6978 23917
6979 7375
6979 9686
6979 11446
6979 23868
6980 7052
6980 7264
6980 11314
6980 18447
6980 23543
6980 24007
6980 24138
6981 12205
6981 12639
6981 14133
6981 14945
6982 15190
6982 18050
6982 19972
6982 21257
6983 10578
6983 17440
6983 21072
6984 11448
6985 10431
6986 7963
6987 7281
6987 12021
6987 13142
6987 20078
6988 7014
6988 8942
6988 12203
6988 16645
6988 18109
6988 20509
6988 20654
6989 9038
6989 9866
6989 11861
6989 15944
6989 17687
6990 6991
6990 8046
6990 8986
6990 10402
6990 13615
6991 10402
6991 14535
6992 7993
6992 15527
6992 19342
6993 7772
6994 13176
6994 18938
6994 22289
6995 7977
6995 21556
6996 7098
6996 12971
6996 14281
6996 14291
6996 16372
6996 20882
6996 22993
6997 10446
6997 12112
6998 9596
6998 17009
6999 7192
6999 16698
6999 17242
6999 20144
6999 20774
7000 8474
7000 8689
7000 9000
7000 9995
7000 10835
7000 12301
7000 12752
7000 13001
7000 13378
7000 14657
7000 14806
7000 15109
7000 15359
7000 15782
7000 16704
7000 18930
7000 19273
7000 20519
7000 22849
7000 23603
7000 23898
7001 7197
7001 8812
7001 16777
7003 15976
7003 22601
7004 15158
7005 10985
7005 11556
7005 14987
7005 20826
7006 7673
7007 7599
7007 18190
7008 13394
7008 17041
7008 19157
7008 21169
7008 22198
7009 10750
7009 17384
7009 20190
7010 7596
7010 15893
7010 17915
7010 19294
7011 10420
7011 11067
7011 22972
7012 22695
7013 8177
7013 9810
7013 10205
7013 15146
7013 17038
7014 8942
7014 12203
7014 13447
7014 15604
7014 16131
7014 16645
7014 17106
7014 18109
7014 20509
7014 20654
7014 22793
7015 7461
7015 9552
7015 9762
7015 15922
7015 16763
7016 11550
7017 9064
7017 12801
7017 14043
7017 14813
7017 20946
7017 22026
7017 23206
7018 22921
7019 8062
7019 16771
7019 21688
7019 23243
7020 16173
7020 19749
7021 9821
7021 11715
7021 15839
7021 22604
7022 12656
7022 14558
7022 22153
7023 7754
7023 8051
7023 18091
7023 18456
7023 19010
7024 17847
7024 20724
7025 13489
7025 22478
7026 13524
7026 16293
7026 18737
7027 21614
7028 7464
7028 11606
7028 13335
7028 18676
7029 8988
7029 9225
7029 16543
7030 12516
7030 15982
7030 19886
7030 20717
7031 10622
7032 10419
7032 23837
7033 9266
7033 9344
7033 17431
7034 8662
7034 21452
7035 13520
7035 22120
7036 8212
7036 10227
7036 10231
7036 11319
7036 22764
7038 11318
7038 11502
7038 11505
7038 21533
7039 10420
7039 21186
7040 16088
7040 19002
7041 7816
7041 20265
7041 20406
7042 9727
7042 10155
7042 11174
7042 11200
7042 11712
7042 13890
7042 15182
7042 15627
7042 18504
7042 20043
7042 21479
7042 21698
7042 22732
7042 23207
7042 23691
7043 9009
7043 9033
7043 11179
7043 11501
7043 11839
7043 14700
7043 17644
7043 21022
7043 22476
7043 22579
7043 23983
7043 24116
7043 24176
7043 24200
7043 24225
7043 24246
7044 8706
7044 13589
7044 14998
7044 15975
7045 10238
7045 10608
7045 15933
7045 20405
7045 21483
7045 21717
7046 7192
7046 17237
7047 7985
7047 12673
7047 13637
7047 13866
7047 16443
7047 17070
7047 17114
7047 19924
7047 20401
7047 23103
7048 9238
7048 16514
7048 17802
7048 22575
7049 13870
7050 7559
7050 21106
7051 8391
7051 8445
7051 10870
7051 11836
7051 15661
7051 16710
7051 17497
7051 19836
7051 20087
7051 21351
7051 21771
7051 21784
7052 7264
7052 7487
7052 23108
7052 23671
7052 24007
7052 24139
7053 12303
7053 13294
7053 15453
7054 13158
7055 8179
7055 8811
7055 14006
7056 12247
7056 24102
7056 24344
7056 24434
7057 23921
7057 24204
7058 10245
7059 7083
7059 11425
7059 14600
7059 15619
7059 18582
7060 8312
7060 9080
7060 24215
7061 11528
7061 14471
7062 10866
7062 12662
7062 23921
7063 8292
7063 8387
7063 15584
7063 17976
7063 21440
7063 22303
7064 20976
7064 21101
7064 22236
7065 7575
7065 16481
7065 17871
7066 9302
7066 14415
7066 16843
7066 19615
7067 15615
7067 16974
7067 18271
7068 8023
7068 17923
7068 21190
7069 11013
7069 19150
7070 10965
7070 12651
7070 13004
7070 22248
7071 7823
7071 23202
7072 9007
7072 11733
7072 13055
7072 13848
7072 15900
7072 17719
7072 19911
7072 20905
7072 21441
7072 22742
7073 18298
7074 13759
7074 23684
7076 11093
7076 19319
7077 9241
7077 9351
7077 23691
7078 17016
7078 19019
7080 14848
7080 15033
7080 17578
7081 11923
7081 14952
7081 21258
7081 22864
7082 8857
7082 21085
7083 8723
7083 14600
7083 15041
7083 15619
7083 16254
7083 18582
7083 19724
7083 19763
7085 15033
7085 19084
7085 20925
7085 22868
7085 23028
7086 9308
7086 13723
7087 7987
7087 9336
7087 11063
7088 8700
7088 11264
7089 10910
7089 15812
7089 19042
7089 19544
7089 20003
7090 24335
7091 9163
7091 18125
7091 20015
7091 21526
7091 23560
7092 18193
7092 19191
7092 20341
7093 8578
7093 17549
7093 21696
7094 8203
7095 12897
7096 8026
7096 21614
7097 9826
7097 10629
7097 10936
7097 12546
7097 16173
7097 16453
7097 17153
7097 17209
7098 12971
7098 20882
7099 10963
7099 11624
7100 8721
7100 8956
7100 9077
7100 16099
7100 16395
7100 20070
7100 20417
7100 20450
7100 20982
7100 21178
7100 21305
7100 21898
7101 9038
7101 9866
7101 11861
7101 17687
7102 15726
7102 22381
7103 24183
7104 20592
7104 21863
7104 22220
7105 7311
7105 9691
7105 12810
7105 13675
7105 16764
7106 12488
7106 13567
7106 19218
7107 8393
7107 17622
7107 19266
7107 22076
7108 8390
7108 13268
7108 23329
7109 7117
7109 16745
7109 22064
7110 13011
7110 14509
7111 8680
7111 14164
7111 23384
7112 16317
7112 22775
7113 7401
7113 18991
7113 21992
7114 17920
7114 19937
7114 21997
7115 24416
7116 22006
7117 8542
7117 10245
7117 11960
7117 13975
7117 14608
7117 14671
7117 16729
7117 18715
7117 18908
7117 21973
7118 10466
7118 18976
7119 7816
7119 9616
7119 18876
7120 14782
7120 17781
7121 7920
7121 22960
7122 17520
7122 22223
7123 15125
7123 22287
7124 7517
7124 22051
7125 10447
7126 22532
7126 23460
7127 16669
7127 21508
7127 22499
7128 22576
7129 7669
7129 8345
7129 16236
7129 17465
7129 17468
7130 7313
7130 12997
7130 15140
7130 19178
7130 19344
7130 20144
7130 21393
7131 10571
7131 19227
7133 19552
7133 19735
7134 12031
7135 12007
7136 12527
7136 14834
7136 14925
7136 16262
7136 19853
7137 14013
7137 15462
7137 17021
7137 17854
7137 20241
7137 22639
7138 11214
7138 14714
7139 14237
7139 20393
7140 10285
7140 12912
7140 15590
7140 19725
7140 23383
7141 8486
7141 10456
7141 12395
7142 10142
7142 15060
7142 19374
7143 8062
7143 11795
7143 16771
7143 19015
7143 21688
7143 23243
7144 8948
7144 8949
7144 20237
7144 20266
7145 20902
7146 19515
7147 13643
7147 14886
7149 24067
7150 11910
7151 13896
7151 19211
7151 19619
7152 8356
7152 8387
7153 9064
7153 12801
7153 12937
7153 22026
7154 13682
7154 16839
7154 19263
7155 12241
7155 24231
7155 24441
7156 14989
7156 20146
7157 17243
7157 22821
7158 13572
7158 20076
7159 11026
7159 12185
7159 15182
7160 24262
7161 9815
7161 12348
7161 14480
7161 18707
7161 19702
7161 21884
7161 23269
7161 23595
7163 8594
7163 23896
7163 24028
7164 7167
7164 24262
7165 7166
7165 12841
7166 10460
7166 23958
7166 24262
7166 24396
7167 7168
7167 24262
7168 24262
7169 11911
7169 15151
7169 19318
7170 13592
7170 21879
7171 10633
7171 14776
7171 20143
7171 22119
7172 12864
7172 13864
7172 18080
7173 12393
7173 13330
7173 15201
7173 22298
7174 7440
7174 15901
7174 17924
7175 14586
7175 21626
7176 7585
7176 8978
7176 10291
7176 16623
7176 21348
7177 7200
7177 7825
7177 12516
7177 15059
7177 15982
7177 17614
7177 17693
7177 19338
7177 19886
7178 9240
7179 11303
7179 15313
7179 23663
7180 7317
7180 7470
7180 7695
7180 8168
7180 8190
7180 8618
7180 9872
7180 9874
7180 10018
7180 10358
7180 11355
7180 12485
7180 13983
7180 15115
7180 16676
7180 17629
7180 19680
7180 20706
7180 20771
7180 21339
7180 21536
7180 22719
7181 7651
7181 10233
7181 23931
7182 7651
7182 10233
7182 11383
7182 14674
7182 16096
7182 23931
7183 20985
7184 7670
7184 10510
7184 11438
7185 15764
7186 15617
7186 16290
7186 18362
7186 19443
7187 22305
7188 9561
7188 9914
7188 13082
7188 21652
7189 10644
7189 13641
7189 17096
7189 19847
7190 7311
7190 7591
7190 8456
7190 11346
7190 16014
7190 18949
7190 19452
7190 19941
7192 11925
7193 8959
7193 10298
7193 13062
7193 21610
7194 8102
7194 16845
7194 22962
7194 23473
7195 16517
7195 19318
7196 21169
7196 22833
7197 7906
7197 15280
7197 15706
7197 19074
7197 19634
7197 20535
7197 21921
7197 22205
7197 23351
7198 15350
7198 18962
7198 20770
7198 21075
7199 8245
7199 17225
7200 7825
7200 15059
7200 19886
7200 20717
7201 7312
7201 14824
7201 18805
7201 22293
7201 22515
7202 8388
7202 9878
7202 12745
7203 9375
7203 22461
7204 11785
7205 9046
7205 15756
7206 13516
7206 14251
7206 17351
7206 18158
7207 8985
7207 10063
7207 12509
7207 15747
7207 21482
7207 22922
7208 7808
7208 15659
7208 23383
7209 10438
7209 10911
7209 11737
7209 13247
7209 16680
7210 8361
7210 17715
7210 21974
7210 23324
7211 22629
7213 10526
7213 11560
7213 16292
7213 18353
7213 19268
7213 19794
7214 7215
7214 17538
7214 18133
7214 21370
7215 12086
7215 12986
7215 17538
7215 17759
7215 18133
7216 12391
7216 13166
7216 18781
7216 18861
7217 10630
7217 14869
7218 14260
7218 14707
7218 23171
7218 23802
7218 24309
7219 12043
7219 18541
7219 24219
7220 8460
7220 13035
7221 13855
7221 14915
7221 24280
7222 12488
7222 13567
7222 16334
7223 9399
7223 13935
7224 9815
7224 11089
7224 11395
7224 12029
7224 17798
7224 18942
7224 19618
7224 23313
7225 9950
7225 23619
7225 23999
7226 9131
7226 15790
7226 17428
7226 18520
7226 19171
7227 10632
7227 18484
7227 18580
7228 7876
7228 9723
7228 22379
7229 9829
7229 16133
7229 21917
7230 15201
7230 21012
7231 12652
7231 20245
7231 21353
7232 11721
7232 23767
7233 10875
7233 19721
7234 23938
7234 24101
7234 24102
7234 24427
7235 7461
7235 9762
7235 13295
7236 18543
7236 20985
7237 8164
7237 9095
7237 9572
7237 10072
7237 13023
7237 14446
7237 14491
7237 16855
7237 18404
7237 18802
7237 20472
7237 21265
7238 11209
7238 17115
7238 19066
7238 19508
7238 20417
7239 9530
7239 23753
7239 23827
7239 24025
7239 24203
7240 7597
7240 7639
7240 23876
7240 24166
7241 10462
7241 10520
7241 14994
7241 19021
7241 19668
7241 22439
7241 23690
7242 9006
7242 14068
7242 14878
7243 16557
7243 18822
7244 11495
7244 19608
7245 23720
7245 24164
7245 24272
7246 8404
7246 9871
7246 12972
7246 15549
7247 16449
7247 16953
7247 17008
7247 20060
7247 24180
7248 9395
7248 15868
7248 19151
7248 22246
7249 17049
7249 21234
7249 22353
7250 23779
7251 8082
7251 10034
7251 12364
7251 13901
7251 18211
7251 19881
7251 20499
7251 22869
7252 7329
7252 13659
7252 18214
7252 22708
7253 12654
7253 14243
7253 16713
7253 22685
7254 14362
7255 7895
7255 11535
7255 24013
7256 9942
7256 19744
7257 12403
7257 13768
7257 21707
7258 18846
7259 9083
7259 15691
7259 18947
7259 19798
7259 21727
7260 11975
7260 12265
7260 19841
7260 23018
7261 8009
7261 11829
7262 10169
7262 12640
7262 17108
7262 19953
7263 7311
7263 9062
7263 19452
7264 23543
7265 7746
7265 10519
7265 10864
7265 11307
7265 12144
7265 12844
7265 15405
7265 19444
7265 20365
7265 23976
7265 23981
7265 24145
7265 24476
7265 24488
7266 8499
7266 8959
7266 13116
7266 22628
7267 12726
7267 15503
7267 16634
7268 8374
7268 9685
7268 10390
7268 10767
7268 13678
7268 16013
7268 18021
7268 22145
7269 7459
7269 18739
7270 8358
7270 12644
7271 10356
7271 19521
7272 7648
7272 15918
7272 16765
7273 8238
7273 11980
7273 12665
7273 24154
7274 14351
7274 17556
7274 21468
7275 16398
7276 8691
7276 15786
7276 17941
7277 16073
7277 16859
7277 21841
7278 8226
7278 10126
7278 11919
7278 14077
7278 14883
7279 10761
7279 12486
7279 12965
7279 16801
7279 17413
7279 17545
7279 18429
7279 19252
7279 22415
7280 9247
7280 11474
7280 12316
7280 14887
7280 18810
7281 8219
7281 10926
7281 13727
7281 14338
7281 20078
7281 20181
7282 10373
7282 12525
7282 24258
7282 24261
7283 12634
7284 7811
7284 8672
7284 10760
7284 10794
7284 14698
7284 15519
7284 16164
7284 16654
7284 19541
7284 21052
7285 13143
7285 18098
7286 8126
7286 11255
7286 12389
7287 8795
7287 10800
7287 19058
7287 20133
7288 8185
7288 11944
7288 14006
7289 9590
7289 15623
7289 19435
7290 8602
7290 13849
7290 15956
7290 18117
7290 19525
7290 22952
7291 9924
7291 15155
7291 16163
7291 16476
7291 17732
7291 18658
7291 20889
7291 21751
7291 22134
7291 22542
7292 12391
7292 13166
7292 14874
7293 9071
7293 10449
7293 21572
7293 23142
7295 8256
7295 13921
7295 15982
7295 19691
7295 21668
7296 8248
7296 8917
7296 12668
7296 13598
7296 14017
7296 16281
7296 20200
7296 20362
7296 21359
7296 21447
7296 22631
7296 23558
7297 11787
7297 15203
7297 19139
7298 9372
7298 9484
7298 11280
7298 11862
7298 14911
7298 15220
7298 18092
7298 18139
7298 18980
7298 24137
7299 14407
7299 15274
7299 16101
7299 22927
7300 9295
7300 11332
7300 12284
7301 10593
7301 16774
7302 7757
7302 9800
7302 12791
7302 17285
7303 20298
7303 20665
7304 17541
7304 17626
7304 19772
7305 11006
7305 14122
7305 20639
7305 21013
7306 10942
7306 15500
7306 22352
7307 9276
7307 11514
7307 20224
7308 8306
7308 10244
7308 14212
7308 22990
7308 23013
7309 15804
7309 19217
7309 19600
7309 20059
7309 20684
7310 11684
7310 11812
7310 12415
7310 17749
7311 7314
7311 7630
7311 8057
7311 8456
7311 9062
7311 9329
7311 9966
7311 9987
7311 10363
7311 11346
7311 11666
7311 12522
7311 13308
7311 13675
7311 14760
7311 14984
7311 15515
7311 15991
7311 17478
7311 17797
7311 18560
7311 18793
7311 19452
7311 19941
7311 20159
7311 20638
7311 20809
7311 21514
7311 22280
7312 14824
7312 22293
7312 22515
7312 23447
7313 19344
7313 19616
7313 21970
7314 9062
7315 7535
7315 19977
7316 8597
7316 11740
7316 23626
7317 9874
7317 10018
7317 22894
7318 10151
7318 10327
7319 18458
7320 16295
7320 19027
7321 7322
7321 11572
7321 11573
7321 11574
7322 7323
7322 11572
7322 11573
7322 11574
7322 15025
7322 20118
7322 21103
7322 21104
7323 11572
7323 20118
7324 8437
7324 11978
7324 12721
7324 13094
7324 17152
7324 18250
7324 18273
7324 19255
7324 21312
7324 21528
7324 22470
7324 22753
7324 23577
7325 10358
7325 13747
7325 18967
7325 19629
7326 8543
7326 9853
7326 13112
7326 13224
7326 13840
7326 14324
7326 15392
7326 15607
7326 21567
7327 16674
7327 19181
7328 15446
7328 23328
7329 18214
7329 21527
7329 22708
7330 8314
7330 24103
7330 24266
7330 24478
7331 15812
7331 16461
7332 11122
7332 14185
7332 20386
7333 14642
7333 16309
7333 17268
7333 22535
7334 11966
7334 13916
7334 19181
7335 14594
7335 23376
7336 14362
7336 16610
7336 19358
7337 18168
7338 7457
7339 13755
7339 22075
7340 11053
7340 18684
7340 23668
7340 23925
7340 24230
7341 23913
7341 24392
7342 9458
7342 9917
7342 16921
7343 9174
7343 9703
7343 10471
7344 9921
7344 16468
7344 23023
7346 7347
7346 23166
7347 22593
7347 23166
7348 7349
7348 18347
7348 22593
7348 23166
7349 18347
7349 22593
7350 18348
7350 21544
7351 18348
7351 21642
7352 10187
7353 20955
7354 12303
7354 22053
7355 10277
7355 15680
7355 16363
7355 20894
7356 9365
7356 10690
7356 17071
7357 7764
7357 8144
7358 14372
7358 17033
7358 18696
7358 21242
7359 13259
7359 16416
7359 20866
7360 7642
7360 10990
7360 11669
7360 13558
7360 14568
7360 18178
7360 21812
7361 7462
7361 9303
7361 9540
7361 9610
7361 11167
7361 12429
7361 12753
7361 13058
7361 15099
7361 16574
7361 16978
7361 17865
7361 17891
7361 18176
7361 20099
7361 20314
7361 20381
7361 21018
7361 21271
7361 23374
7362 23881
7363 13333
7363 18967
7364 8184
7364 10077
7364 12491
7364 12761
7364 15744
7364 17442
7364 17996
7364 19505
7364 19632
7364 20771
7365 12450
7365 13314
7365 22940
7366 10827
7366 13791
7366 18569
7367 8543
7367 10362
7367 12488
7367 12984
7367 14324
7367 14480
7367 17677
7367 21472
7367 21567
7368 12516
7368 15059
7368 20717
7369 8172
7369 16699
7369 17109
7369 22785
7370 21339
7370 21384
7371 9891
7371 15221
7371 16399
7371 16862
7371 16864
7372 13330
7372 16258
7372 20320
7372 21588
7372 21599
7373 8540
7373 9101
7373 11828
7373 13913
7373 17251
7373 17439
7373 20851
7374 13214
7374 24225
7375 7608
7375 11063
7375 12624
7375 19701
7375 23706
7375 23808
7376 9024
7376 9894
7376 18922
7376 22570
7378 23970
7378 24053
7379 7382
7379 8129
7379 9344
7379 11109
7379 22508
7380 15259
7380 18445
7380 20392
7380 23925
7381 10418
7381 14727
7381 15085
7381 18184
7381 18445
7381 23671
7381 23765
7381 24043
7381 24100
7382 8092
7382 8129
7382 12883
7382 13461
7382 18069
7382 23961
7383 7738
7383 14790
7384 12227
7384 14810
7384 19026
7384 21816
7384 22680
7385 11788
7385 14791
7386 23706
7386 23868
7387 7815
7387 9694
7387 21719
7387 22291
7387 23531
7388 23674
7389 8122
7389 8632
7389 8755
7389 9070
7389 12992
7389 13543
7389 13827
7389 14083
7389 14410
7389 14737
7389 14784
7389 15447
7389 16526
7389 17110
7389 18204
7389 18841
7389 18948
7389 20385
7389 21417
7389 21460
7389 22912
7390 11869
7390 12258
7390 22278
7390 23810
7390 23877
7390 24042
7391 10504
7392 22287
7392 23552
7393 7482
7393 22633
7394 9822
7394 15350
7395 8294
7395 9917
7396 9684
7396 13283
7396 14953
7396 20344
7397 10730
7397 12438
7397 12439
7397 13985
7397 14138
7397 18341
7397 22880
7397 23264
7398 23969
7398 24339
7399 7634
7399 15517
7399 15825
7399 20692
7400 10710
7400 17639
7400 21228
7400 21231
7400 23754
7400 24295
7401 8686
7401 9419
7401 9845
7401 11790
7401 18402
7401 18991
7401 21992
7402 9339
7402 11528
7402 12858
7402 19248
7403 15047
7403 16273
7404 13602
7404 20502
7405 23778
7405 24344
7405 24370
7406 8084
7406 15350
7407 10159
7407 11624
7407 18563
7407 21026
7408 12813
7408 14558
7408 17913
7409 10532
7409 11459
7409 12578
7409 17366
7409 18586
7409 22270
7410 8651
7410 13600
7410 21469
7411 12139
7411 14782
7412 8134
7412 9626
7412 21377
7414 8729
7414 16944
7414 18436
7414 20456
7415 9352
7415 16825
7415 21704
7416 7879
7416 24322
7417 10301
7417 23379
7418 11875
7418 22933
7419 11295
7419 12094
7419 15200
7419 16191
7419 16735
7419 20590
7420 8309
7420 15178
7420 23874
7420 24071
7421 16660
7421 19318
7421 20107
7422 10337
7422 15260
7422 19779
7423 10749
7423 14842
7424 12516
7424 15982
7425 12869
7427 14380
7427 15410
7427 20436
7428 7530
7428 18279
7429 18958
7430 10426
7430 12136
7430 18044
7431 10591
7431 22007
7432 19066
7432 20417
7433 8580
7433 10266
7433 12353
7433 13525
7434 8514
7434 12502
7434 13302
7434 18415
7434 20539
7435 7548
7435 8297
7435 9366
7436 13049
7436 15997
7436 16631
7437 10893
7437 21711
7438 16858
7438 20771
7438 22894
7439 20468
7439 22659
7439 22733
7440 16391
7440 20661
7441 7886
7441 11791
7441 23675
7441 23718
7441 24092
7441 24386
7442 9082
7442 11596
7443 20636
7444 14003
7444 19299
7445 13055
7446 9421
7446 12778
7446 16001
7446 17078
7446 17247
7446 17402
7446 20247
7446 21392
7446 22885
7446 24055
7447 7538
7447 16698
7447 16711
7447 19613
7447 21336
7448 13962
7449 12015
7449 13343
7449 20382
7450 8041
7450 8362
7450 9360
7450 9485
7450 10807
7450 11475
7450 11681
7450 12272
7450 12699
7450 12809
7450 15014
7450 17047
7450 17257
7450 19596
7450 21193
7450 22548
7450 22971
7451 8688
7451 20136
7452 7961
7452 11710
7452 19423
7453 11648
7453 19294
7453 22674
7454 15972
7454 23813
7454 24388
7455 8998
7455 10257
7455 15807
7455 19965
7455 21936
7455 23012
7457 7490
7457 7502
7457 8128
7457 14377
7458 9626
7458 12551
7458 24413
7459 14282
7459 21184
7460 16851
7460 18379
7460 19367
7461 15922
7461 16763
7461 20574
7461 21872
7462 12429
7462 16978
7463 17863
7463 19787
7464 11606
7464 16697
7464 18676
7464 19689
7465 15054
7465 18970
7466 13083
7466 18323
7467 7468
7467 8806
7467 18472
7468 8622
7468 16524
7468 18470
7468 18472
7469 8622
7469 18470
7470 10358
7470 22719
7471 10738
7471 15443
7471 22202
7472 8972
7472 13122
7472 13631
7472 18393
7473 15107
7473 20123
7473 20652
7474 11591
7474 12238
7474 19756
7475 12697
7475 23392
7476 9890
7476 11393
7476 12517
7476 17908
7476 22155
7477 13289
7477 15131
7477 16982
7477 17254
7478 21269
7479 7661
7479 8471
7479 23964
7480 8731
7480 10461
7480 13522
7480 20927
7481 13199
7482 9472
7482 13363
7482 22633
7482 24482
7483 10469
7483 11405
7483 15610
7483 20653
7484 8914
7484 16146
7484 16167
7484 19819
7485 10891
7485 12256
7485 13918
7485 15736
7485 21849
7486 8717
7487 24138
7488 16469
7488 20098
7490 12521
7490 19598
7490 23284
7491 24355
7491 24447
7491 24450
7492 16438
7492 19013
7493 13151
7493 14359
7493 14560
7495 23735
7495 24161
7496 8342
7496 9910
7496 18902
7496 22267
7497 12892
7498 9045
7498 16333
7498 22349
7499 7500
7499 9460
7499 13350
7499 13351
7500 7699
7500 9460
7500 13351
7501 16474
7501 19303
7503 15199
7503 19588
7503 24482
7504 11865
7504 13641
7504 16606
7504 17130
7504 17828
7504 20391
7504 22430
7504 23852
7505 8165
7506 8301
7506 24370
7507 9908
7507 18115
7508 9842
7508 13079
7508 21298
7508 23071
7509 19010
7510 18257
7510 21575
7511 10098
7511 11583
7511 22696
7511 23296
7512 12579
7512 16481
7512 17871
7512 19347
7513 8518
7513 19060
7513 21337
7514 21713
7515 11805
7515 22777
7516 7538
7516 7780
7516 16711
7516 21336
7517 8444
7517 15413
7518 7678
7518 20773
7519 21181
7520 11403
7521 20173
7521 24073
7521 24302
7522 17839
7522 21433
7522 23276
7523 10672
7523 17890
7523 23308
7524 14557
7525 9503
7525 16531
7526 11074
7526 11516
7526 20763
7527 9193
7527 12357
7527 18192
7527 18901
7528 8512
7528 16662
7529 9381
7529 10735
7529 13059
7529 18285
7529 19921
7530 18279
7531 8441
7531 12400
7531 19156
7531 19163
7531 19164
7531 19753
7531 19854
7531 22452
7531 23705
7532 12713
7532 13299
7533 8427
7533 13623
7533 15037
7533 18234
7533 21061
7533 22527
7533 22998
7534 22704
7535 9750
7535 9913
7535 10614
7535 11677
7535 12133
7535 12786
7535 15483
7535 17625
7535 17855
7535 18821
7535 19089
7535 19533
7535 19811
7535 19977
7536 8554
7536 22025
7537 23955
7537 24279
7538 13900
7539 9543
7539 12959
7539 22138
7540 15315
7540 19227
7541 11754
7541 11756
7541 23742
7542 11337
7543 22567
7543 23687
7544 12202
7544 12687
7545 7895
7545 23929
7545 24177
7546 11947
7546 15681
7547 18286
7547 22116
7548 8463
7548 9366
7548 10484
7548 12701
7548 15175
7548 20126
7549 11722
7549 21566
7549 23169
7550 12579
7550 14630
7550 20416
7551 13262
7551 19591
7552 9491
7552 17603
7552 18032
7552 18400
7553 9010
7554 14295
7554 17429
7554 21706
7555 7737
7555 21684
7555 23740
7556 18940
7556 19026
7556 22680
7557 8890
7557 13918
7558 11951
7559 8576
7559 9115
7559 14626
7559 17184
7559 17640
7559 18561
7559 18733
7559 21232
7559 23522
7559 23532
7560 8304
7560 9957
7560 20990
7560 23624
7561 9829
7561 15106
7561 17149
7562 9350
7562 14846
7562 15197
7562 16265
7562 20333
7563 11499
7563 18644
7563 20660
7564 15988
7564 19291
7564 21925
7565 7610
7565 9237
7566 10146
7566 11674
7566 12507
7566 18376
7566 22213
7567 12372
7568 7569
7568 12017
7568 23630
7568 24192
7569 7574
7569 7848
7569 8481
7569 21416
7569 23903
7569 24121
7569 24191
7569 24192
7570 20426
7570 20427
7570 23786
7570 24369
7571 7580
7571 12672
7571 19445
7572 7914
7572 8179
7572 8811
7572 16846
7573 8930
7574 23630
7574 23903
7575 15614
7575 17871
7576 10980
7576 11913
7576 12423
7576 13662
7576 17354
7576 21064
7577 16312
7577 17094
7577 22857
7578 21792
7579 9233
7579 10096
7579 11933
7579 19567
7580 8695
7580 19445
7581 10321
7581 19460
7581 20744
7582 9300
7582 15615
7583 16199
7583 18193
7583 19151
7583 19191
7583 20846
7583 22404
7584 13031
7584 13621
7584 15772
7585 8260
7585 9747
7585 11784
7585 12897
7585 12938
7585 13556
7585 17885
7585 18919
7585 19660
7587 8951
7587 18355
7587 19040
7588 20753
7589 14449
7589 16696
7589 22563
7590 16669
7590 17409
7590 21508
7590 21721
7591 8456
7591 11346
7591 14984
7591 19452
7592 8591
7593 8392
7593 16769
7593 17713
7594 8591
7594 14412
7594 22820
7595 12240
7595 15234
7595 15773
7596 15893
7596 17915
7597 23876
7597 24166
7598 12336
7598 14570
7599 9339
7599 9562
7599 19248
7600 11738
7600 23188
7600 23311
7601 7888
7601 8156
7601 12391
7601 13166
7601 14874
7602 13015
7602 18479
7602 19949
7602 21045
7603 10593
7603 18371
7604 9571
7604 10071
7604 19180
7604 19370
7605 10004
7605 10702
7605 18357
7606 9537
7606 21603
7606 22035
7606 22304
7607 9829
7607 19063
7608 11446
7608 23868
7609 10174
7609 11782
7609 12219
7610 10724
7610 13914
7610 16703
7610 19677
7611 19171
7612 10072
7612 13023
7613 9638
7613 10784
7613 19234
7613 21113
7613 23433
7614 7736
7614 9445
7614 16009
7614 17030
7615 8656
7615 15688
7615 20690
7615 21694
7615 21955
7616 10176
7616 12589
7616 12994
7616 13664
7616 21149
7616 22100
7617 12897
7617 13295
7617 16315
7617 19439
7617 21197
7618 17274
7618 17861
7619 9284
7619 9294
7619 9406
7619 10930
7619 11804
7619 13352
7619 15365
7619 15916
7619 20283
7619 21350
7620 12454
7621 21713
7622 13638
7622 19332
7622 23683
7623 8069
7623 12549
7623 15671
7624 17326
7624 18500
7625 15825
7625 20692
7625 21537
7626 13040
7626 13597
7626 18649
7626 21672
7627 9000
7627 12579
7627 13181
7627 14657
7628 7629
7628 17921
7628 18106
7628 22030
7629 17921
7629 22031
7629 22032
7630 19452
7631 12886
7631 18208
7631 20174
7631 23347
7632 8750
7632 12700
7632 13054
7632 20666
7632 22941
7632 23260
7633 16483
7633 22885
7634 15517
7634 20094
7634 20692
7635 19444
7635 24145
7636 19625
7636 21170
7637 13748
7637 18324
7637 19561
7638 20893
7638 24279
7638 24332
7639 7640
7639 11134
7639 11940
7639 23857
7639 23876
7640 8229
7640 12165
7640 18067
7640 21212
7641 9496
7641 9887
7641 10057
7641 12649
7641 16225
7641 20893
7641 22688
7641 23923
7641 24096
7641 24150
7642 13558
7642 14568
7642 21812
7643 13941
7644 9191
7644 11968
7644 14975
7644 15557
7644 18153
7644 19183
7645 15991
7645 21556
7645 22156
7646 8422
7646 8796
7646 9709
7646 12098
7646 22320
7646 23072
7647 8834
7647 9150
7647 9938
7647 10324
7647 23812
7647 24212
7647 24337
7647 24338
7647 24445
7648 16765
7649 12064
7649 18430
7649 19554
7650 8854
7650 22365
7651 10046
7651 11383
7651 13999
7651 16473
7651 23780
7651 23878
7651 24310
7652 8006
7652 13661
7652 19655
7653 8930
7653 24083
7653 24321
7654 18656
7654 20024
7655 7876
7655 18202
7655 22379
7656 7876
7656 15938
7657 9852
7657 13673
7658 7876
7658 18203
7659 15340
7660 8777
7660 13272
7660 20248
7661 24402
7662 8986
7663 10929
7663 11412
7663 12999
7663 16316
7664 10064
7665 12479
7665 12916
7665 16762
7667 8017
7668 9607
7668 12047
7668 12976
7668 14439
7668 15118
7668 22298
7669 8345
7669 15697
7669 16236
7669 17465
7669 17466
7669 17467
7669 17468
7670 11063
7671 20941
7672 9064
7672 12801
7672 12937
7672 16025
7672 19813
7672 22026
7673 9630
7673 9921
7673 12100
7673 12688
7673 16468
7673 16941
7673 23060
7674 7944
7674 17432
7674 21708
7674 23092
7675 14682
7675 18052
7675 23494
7676 24238
7677 13464
7677 17382
7677 20492
7677 20637
7677 21743
7678 19829
7679 23528
7681 9718
7681 10043
7681 12829
7681 13744
7681 19707
7681 22450
7681 22649
7682 7984
7682 8788
7682 12622
7682 24152
7682 24428
7683 10269
7683 13426
7683 14109
7683 14930
7683 21292
7683 22227
7684 23323
7684 23696
7685 13535
7685 17741
7685 18663
7685 23223
7686 11169
7686 14247
7686 14519
7686 23369
7687 13813
7687 14282
7687 16172
7687 17141
7687 18307
7688 13364
7688 17353
7688 17860
7688 18943
7688 19927
7689 12580
7689 14373
7689 19112
7689 19842
7689 22253
7690 7977
7690 9164
7690 11924
7690 14341
7690 19184
7690 21570
7690 21781
7691 13504
7691 18631
7691 21029
7692 8808
7692 8809
7692 14681
7693 14777
7693 15480
7694 8808
7694 14550
7694 14681
7694 14798
7694 17455
7695 10678
7695 15115
7696 20660
7697 13939
7697 21082
7698 16583
7698 20271
7699 9460
7700 11318
7701 19229
7701 20237
7701 20266
7701 22589
7702 8753
7702 14363
7702 15445
7702 19022
7703 7834
7703 9483
7703 11874
7703 12288
7703 18062
7704 10041
7704 12129
7704 12710
7704 13738
7704 23639
7705 9315
7705 13344
7705 17249
7705 19455
7706 9368
7706 13834
7706 22465
7707 10881
7707 11456
7707 12499
7707 16325
7707 18143
7708 7722
7708 8821
7708 16483
7709 8954
7709 10970
7709 17969
7710 8387
7710 12897
7710 21181
7710 22885
7711 9493
7711 9769
7711 18083
7711 23005
7712 9448
7712 14301
7712 19855
7713 24154
7714 17305
7714 18782
7715 19051
7716 11610
7716 14585
7717 8215
7717 13035
7717 23403
7719 11630
7719 15788
7719 16079
7719 20321
7720 11082
7720 11672
7720 14702
7720 21303
7720 23168
7721 12016
7721 12018
7721 22794
7721 23936
7721 24120
7721 24185
7721 24193
7722 16483
7723 9545
7723 16388
7723 21466
7723 23499
7724 10432
7724 14130
7724 14474
7724 20423
7724 22244
7725 8857
7725 14877
7726 11785
7726 15127
7726 17098
7726 17252
7727 7779
7727 11422
7727 11745
7727 11770
7727 12544
7727 15960
7727 17079
7727 17873
7727 21083
7728 17379
7728 20306
7728 21787
7729 14161
7729 15934
7729 22617
7730 8318
7730 12006
7730 22209
7730 23511
7731 12994
7731 17186
7732 9203
7732 12127
7732 17052
7733 15527
7733 18584
7733 22454
7734 13405
7734 23404
7735 8317
7735 13932
7736 16009
7736 17997
7736 19005
7737 8151
7737 13872
7737 16165
7737 21684
7738 14114
7738 14790
7739 13432
7739 16253
7739 17031
7739 23220
7739 23458
7741 20824
7741 21654
7741 21927
7741 22913
7742 11774
7742 15103
7742 17758
7742 17835
7742 21248
7742 22187
7743 9896
7743 11667
7743 13149
7743 22013
7743 22014
7743 22015
7743 23633
7743 23659
7743 23738
7743 23820
7743 24254
7743 24284
7743 24365
7743 24401
7743 24487
7744 15637
7744 18474
7745 8440
7745 15986
7745 16175
7745 20584
7745 20899
7746 23981
7746 24476
7746 24488
7747 10554
7747 13076
7748 23896
7748 24148
7749 8857
7749 13870
7749 23200
7750 23326
7751 16624
7751 16768
7751 17447
7751 18632
7752 23615
7752 23700
7752 23861
7753 12462
7753 16182
7753 17527
7753 17580
7753 18616
7753 20259
7754 8051
7754 15012
7754 17406
7754 18091
7755 7859
7755 8930
7755 24083
7755 24380
7756 22119
7757 9800
7757 14188
7757 14664
7757 18292
7757 18405
7758 9819
7758 19028
7758 20549
7758 22284
7759 10854
7759 16608
7759 18559
7759 20189
7759 20441
7760 11757
7760 12828
7760 21521
7761 8857
7761 9284
7761 9294
7761 9406
7761 13352
7761 13870
7761 15365
7761 15916
7761 17777
7761 19742
7762 10719
7762 20295
7762 20604
7762 22259
7763 14018
7763 14259
7763 15350
7764 8144
7764 10064
7764 10900
7764 11851
7764 13329
7764 16775
7764 19638
7764 21266
7765 19314
7765 19954
7765 23028
7766 11394
7766 11703
7766 11944
7766 19241
7766 22264
7767 8369
7767 12244
7767 14271
7767 19200
7767 21585
7768 12590
7768 23813
7768 23912
7768 24276
7769 9604
7769 10038
7769 14837
7769 19951
7769 20400
7769 21486
7769 23056
7770 14219
7770 18746
7770 21620
7771 8777
7771 9965
7771 20248
7772 8930
7773 21713
7774 13557
7775 11291
7775 11514
7775 22940
7776 9056
7776 9457
7776 17150
7777 14158
7777 21608
7777 21750
7777 22865
7777 23079
7778 14311
7778 16506
7778 22695
7779 8430
7779 11421
7779 11770
7779 12403
7779 12544
7779 17873
7779 19054
7780 17100
7780 19379
7780 21336
7781 12403
7781 13768
7781 21605
7781 21707
7782 14688
7783 19312
7784 10391
7784 10716
7784 22376
7785 13030
7785 13481
7785 14935
7786 11625
7787 9763
7787 10928
7787 11445
7787 14814
7787 17116
7787 17604
7787 17657
7788 15542
7788 21592
7788 23520
7789 10743
7790 7909
7790 14860
7790 15957
7791 7973
7791 17866
7791 17962
7791 22692
7792 10887
7792 11689
7792 20073
7792 22273
7794 18077
7794 22992
7796 10222
7796 12113
7796 12596
7797 16951
7797 18568
7798 9834
7798 10577
7798 19727
7798 20280
7798 20345
7798 21799
7799 8646
7799 10667
7799 14126
7799 18442
7799 20914
7799 22844
7800 10596
7800 10945
7800 15080
7801 11672
7801 14702
7802 10159
7802 20812
7803 12108
7803 21455
7804 7814
7804 13763
7804 13994
7804 17056
7804 17057
7804 17474
7804 17476
7804 18059
7804 18060
7804 23226
7805 7950
7805 18343
7805 20131
7806 8511
7806 11436
7807 13298
7807 19582
7808 12912
7808 20413
7809 8433
7809 10278
7809 17687
7810 10160
7810 11467
7810 17347
7811 9260
7811 10280
7811 10760
7811 10794
7811 10885
7811 15877
7811 17411
7811 17627
7811 20144
7811 23102
7812 16624
7812 16768
7812 18632
7813 10805
7813 13696
7813 17345
7814 8586
7814 13763
7814 13764
7814 13994
7814 17056
7814 17057
7814 18060
7814 18424
7814 18483
7814 18484
7814 18485
7814 23224
7815 8639
7815 9694
7815 13471
7815 14214
7815 16772
7815 17283
7815 19899
7815 20203
7815 21152
7815 21206
7815 21719
7815 22663
7815 23051
7815 23153
7815 23531
7816 17053
7816 18876
7816 20406
7817 7818
7817 7822
7817 9202
7817 12067
7818 7822
7818 7824
7818 12067
7819 7821
7819 7822
7819 7824
7820 8072
7821 7822
7821 7824
7821 12067
7822 7824
7823 10142
7823 10328
7823 11918
7823 13440
7823 18378
7824 12067
7826 10004
7826 18357
7827 10591
7827 17560
7827 20934
7827 22555
7827 22828
7828 14708
7828 19117
7829 11958
7829 17089
7829 19394
7829 20553
7830 8497
7830 17541
7830 17626
7830 19772
7832 16425
7832 16511
7833 8027
7833 8837
7833 20165
7834 11874
7834 18062
7834 22381
7836 14921
7836 16722
7837 11959
7837 13200
7837 16867
7837 21693
7838 12129
7838 15023
7839 17043
7840 12631
7840 12680
7840 22442
7841 16537
7841 18718
7842 18380
7842 20177
7843 23791
7843 24377
7844 8753
7844 17746
7844 18642
7844 19022
7845 9568
7845 10288
7845 11552
7845 11598
7845 15686
7845 15766
7845 19555
7845 20478
7845 22873
7846 13965
7846 20936
7847 8611
7847 10567
7847 18732
7848 24469
7849 23630
7849 24118
7849 24121
7849 24192
7849 24289
7849 24327
7849 24358
7849 24417
7849 24469
7850 12518
7850 13035
7850 15016
7851 8034
7851 9687
7851 15130
7852 10868
7852 17156
7852 19739
7853 14331
7853 15514
7853 16091
7854 9888
7854 23503
7854 24382
7855 8019
7855 13227
7855 19997
7855 21199
7856 8973
7856 11368
7856 20823
7857 8276
7857 10339
7857 16106
7857 16107
7858 20408
7859 7924
7859 8637
7859 10162
7859 10367
7859 12646
7859 13612
7859 15321
7859 18652
7859 18808
7859 22699
7859 22736
7859 23658
7859 23721
7859 23818
7859 24233
7859 24274
7859 24314
7859 24380
7860 11100
7860 14286
7860 16571
7860 18679
7860 19428
7861 8144
7861 21029
7862 17473
7863 18256
7863 20820
7865 11583
7865 23587
7866 8962
7866 12994
7867 16554
7867 20498
7868 8935
7868 9083
7868 9552
7868 9762
7868 13919
7868 15804
7868 16763
7868 18100
7868 18951
7868 19217
7868 19623
7868 19798
7868 20768
7868 21678
7868 21727
7868 22495
7868 22718
7868 23744
7869 9470
7869 9799
7870 12121
7870 14715
7870 21077
7871 23713
7871 23800
7871 23815
7871 23938
7871 24278
7872 23786
7872 23999
7873 7979
7873 8824
7873 9709
7873 12930
7873 17460
7873 17584
7873 18001
7873 21534
7873 23031
7873 23072
7874 17752
7874 18910
7875 9002
7875 12470
7876 10031
7876 11901
7876 14473
7876 15939
7876 17010
7876 18202
7876 18203
7876 20198
7876 20633
7876 20634
7876 21901
7876 22380
7876 23412
7876 23528
7877 13373
7877 14154
7877 19257
7877 21154
7877 21352
7879 9272
7879 12940
7879 24081
7879 24186
7879 24268
7879 24322
7880 12850
7880 13784
7881 14462
7881 16894
7882 18375
7882 18998
7882 23100
7883 11207
7883 22503
7884 10593
7885 8979
7885 10067
7885 11340
7885 22672
7886 11791
7886 24225
7886 24386
7887 14539
7887 20670
7888 8156
7888 8354
7888 8457
7888 10070
7888 10514
7888 11566
7888 11866
7888 11921
7888 12690
7888 13166
7888 13591
7888 14256
7888 14508
7888 14874
7888 15783
7888 16709
7888 16832
7888 16848
7888 17026
7888 17789
7888 18365
7888 18556
7888 18781
7888 21159
7888 21760
7888 21866
7888 21883
7888 21900
7888 22818
7888 22978
7889 18165
7889 18840
7890 16963
7890 23078
7891 23248
7892 19287
7893 18978
7894 12399
7894 16593
7894 19554
7894 21380
7895 24013
7895 24088
7896 10671
7896 11758
7897 10174
7897 12821
7897 13145
7897 13540
7897 15742
7897 16365
7897 16751
7897 18744
7897 19825
7897 20737
7897 22048
7898 10138
7898 18847
7898 19831
7899 7900
7899 7902
7899 7904
7899 18349
7899 22355
7900 7902
7900 7904
7900 8718
7900 18349
7900 22355
7901 7904
7901 8718
7901 18349
7901 18603
7901 20122
7902 7904
7902 22355
7903 13105
7903 13196
7903 13593
7903 18537
7904 18603
7904 22355
7904 22464
7905 8907
7905 9816
7905 11481
7905 17182
7906 15538
7906 20718
7907 20376
7907 22287
7908 13965
7908 16936
7908 22152
7909 15957
7909 16894
7910 23900
7910 24067
7911 10416
7911 11059
7911 11151
7911 15665
7912 19318
7913 15287
7913 21681
7913 21820
7914 16846
7915 11310
7915 13415
7915 16722
7915 20440
7916 15704
7916 18631
7916 20718
7917 9384
7917 10214
7917 18849
7918 23920
7918 24154
7919 24167
7919 24213
7920 8281
7921 8393
7921 17622
7921 20311
7922 11551
7922 11731
7922 14833
7923 10774
7923 11417
7923 15271
7923 17224
7923 22565
7924 8930
7924 10792
7924 15580
7924 24083
7925 8551
7925 17225
7926 8497
7926 11540
7926 17626
7926 19772
7927 11085
7927 18471
7927 19891
7927 22154
7928 8637
7928 10367
7928 15580
7928 24274
7929 11058
7929 12020
7929 14786
7930 11693
7930 13683
7930 16539
7931 17669
7931 17713
7931 17846
7931 20282
7932 9789
7932 18501
7932 21162
7933 12102
7933 12620
7933 19198
7934 9478
7934 9792
7934 15452
7934 21096
7934 22316
7934 22317
7935 9976
7935 11060
7935 22660
7936 8595
7936 13257
7936 19337
7937 19148
7937 23369
7937 24479
7938 9609
7938 11334
7938 12223
7938 12325
7938 12448
7938 12487
7938 13518
7938 15541
7938 16525
7938 20560
7938 21887
7939 8996
7939 15862
7939 16889
7940 10551
7940 23653
7941 13210
7941 14940
7941 15648
7942 8142
7942 8260
7942 9747
7942 10497
7942 10707
7942 11784
7942 12897
7942 14845
7942 16016
7942 17231
7942 19715
7942 20757
7942 21392
7942 22351
7942 22436
7942 23453
7943 18900
7944 17432
7945 8372
7945 10437
7945 14059
7945 19956
7945 21676
7946 8800
7946 14585
7946 21593
7946 21614
7947 8869
7947 18772
7947 19438
7948 8290
7948 11868
7948 18747
7949 9890
7949 12517
7949 17908
7949 22155
7950 12437
7950 18340
7951 14476
7951 19040
7952 12686
7952 15274
7952 17154
7952 17517
7952 19500
7953 19968
7953 21457
7953 23356
7954 14191
7954 22627
7955 8280
7955 13917
7955 15018
7956 11465
7956 11466
7957 11401
7957 11402
7958 9510
7958 12040
7958 21164
7958 22717
7959 11465
7959 11466
7959 11877
7960 8996
7960 8997
7960 15861
7960 16889
7961 8104
7961 11710
7961 16921
7961 19423
7962 8930
7962 18396
7962 24083
7963 21203
7963 23378
7964 10469
7964 19611
7964 20461
7965 9091
7965 9655
7965 13233
7965 14922
7965 15732
7965 16435
7965 17712
7965 18735
7965 20854
7965 21653
7965 22338
7965 23730
7966 15145
7967 20164
7967 21770
7968 12043
7968 23924
7968 23930
7968 24001
7969 12533
7969 15230
7969 16076
7970 17419
7970 22006
7970 22599
7971 15351
7972 9326
7972 11683
7972 13381
7972 13707
7972 14117
7972 14601
7972 17857
7972 19051
7972 20075
7972 20528
7972 20871
7973 17962
7973 23358
7974 12388
7974 24346
7975 11651
7975 15242
7975 23317
7977 9813
7977 10053
7977 10122
7977 10240
7977 10583
7977 11725
7977 12832
7977 12918
7977 13379
7977 13777
7977 13800
7977 14162
7977 14749
7977 15427
7977 19704
7977 20668
7977 20915
7977 21424
7977 21570
7978 10992
7978 12026
7978 12481
7978 14270
7978 18568
7978 21819
7978 23047
7978 23048
7979 12930
7980 8645
7980 15134
7980 16593
7980 16897
7980 18594
7980 19554
7981 7982
7981 8528
7981 9699
7982 13697
7982 18494
7983 12842
7983 15958
7983 18510
7984 8397
7984 8788
7984 12168
7984 12622
7984 13046
7984 19936
7984 23985
7984 24041
7984 24104
7984 24152
7984 24428
7985 10636
7985 13637
7985 17070
7985 20401
7985 22858
7986 12767
7986 17531
7987 10510
7987 11839
7987 17931
7987 20036
7987 21022
7987 24177
7988 8109
7988 16054
7989 14295
7989 22296
7990 8857
7990 8977
7990 9300
7990 14335
7990 19527
7990 20206
7990 21510
7990 23091
7991 11002
7991 23213
7992 17935
7992 20527
7993 9166
7993 11387
7993 22454
7994 11699
7994 17616
7995 16426
7995 17082
7995 17608
7995 19848
7996 8798
7996 11649
7997 15957
7997 20729
7997 20964
7998 16194
7998 18391
7998 18631
7998 19564
7999 9814
7999 17162
8000 8147
8000 8819
8000 8823
8000 12214
8000 12286
8000 16446
8000 16945
8000 19416
8000 21240
8000 22547
8001 13534
8001 19673
8002 8782
8002 8857
8002 15581
8003 14178
8004 19631
8005 8350
8005 23641
8005 23924
8006 13661
8006 19655
8007 8660
8007 15813
8007 18257
8007 19642
8008 16798
8008 17735
8008 20390
8009 10488
8009 13554
8009 19233
8009 21021
8010 14600
8010 15041
8010 16651
8011 22461
8012 16780
8012 19998
8013 9072
8013 10235
8013 19108
8014 9681
8014 12934
8014 18417
8014 19032
8014 19647
8014 20902
8014 22850
8015 10159
8015 11688
8016 12581
8016 15879
8016 20907
8016 22487
8016 23777
8016 23999
8016 24052
8016 24053
8018 8265
8018 12708
8018 18782
8019 8611
8019 9817
8019 10097
8019 11316
8019 11568
8019 11728
8019 11762
8019 12147
8019 12157
8019 13060
8019 13227
8019 13356
8019 15287
8019 18086
8019 18385
8019 19144
8019 19997
8019 20371
8019 20516
8019 20804
8019 21345
8019 21681
8019 21820
8019 21963
8019 22005
8019 22494
8019 22598
8020 14412
8021 8795
8021 19058
8022 8782
8023 20956
8023 22485
8023 23179
8024 17216
8025 13024
8025 14049
8025 17686
8026 8800
8026 8853
8026 8883
8026 9456
8026 9514
8026 9765
8026 10388
8026 11007
8026 11032
8026 11571
8026 11639
8026 12111
8026 12558
8026 13319
8026 13691
8026 13831
8026 14153
8026 14469
8026 14526
8026 14585
8026 14923
8026 15083
8026 15395
8026 15541
8026 15703
8026 19292
8026 20607
8026 21177
8026 21593
8026 21614
8026 21621
8026 21887
8026 21922
8026 22020
8026 22982
8026 23456
8027 8837
8027 11406
8027 15032
8027 20165
8027 22853
8028 12132
8028 14693
8028 22518
8028 23572
8029 12540
8029 13892
8029 17261
8029 19406
8030 10025
8030 12684
8030 18911
8030 19959
8030 23387
8031 10131
8031 11937
8031 16644
8032 8033
8032 8897
8032 8898
8032 9985
8032 10675
8032 11506
8032 12853
8032 16756
8032 16895
8032 21277
8032 23007
8032 23008
8032 23152
8033 8897
8033 8898
8033 9985
8033 11506
8033 12854
8033 16756
8033 21277
8034 9687
8034 9727
8034 10408
8034 11163
8034 11200
8034 11992
8034 13108
8034 13446
8034 14651
8034 15130
8034 17905
8034 20814
8034 22165
8036 8225
8036 11478
8036 15572
8036 16066
8036 18605
8036 19767
8036 22778
8037 12802
8037 18678
8037 21868
8038 10327
8038 13790
8039 11640
8039 22644
8040 15111
8041 9360
8041 12272
8042 9169
8042 10971
8042 11160
8042 13971
8042 14236
8042 14825
8042 15682
8042 15793
8042 18682
8042 18846
8042 19586
8042 23080
8043 10769
8043 14538
8043 14589
8043 18512
8043 21088
8044 9586
8044 10010
8044 11016
8044 16903
8044 24010
8044 24287
8044 24398
8045 20650
8045 21681
8046 8475
8046 10402
8047 10402
8048 18940
8049 16545
8049 17845
8049 19149
8050 11908
8051 15012
8051 18456
8051 19010
8052 11908
8053 8647
8053 11002
8053 23196
8053 23213
8053 23266
8054 9186
8054 10927
8054 11787
8054 15308
8054 17333
8054 18852
8054 19139
8054 20281
8054 20589
8054 21147
8054 21628
8054 23326
8055 8817
8055 12319
8055 15673
8055 17648
8055 19922
8055 20096
8055 23539
8056 16143
8058 8266
8058 16768
8058 17447
8058 18632
8059 13711
8059 15329
8059 21606
8060 11558
8060 18116
8061 8857
8061 20216
8062 16672
8063 12780
8063 14687
8063 17712
8063 22981
8064 10039
8064 10485
8064 13198
8064 15306
8064 15712
8064 16883
8064 18839
8064 19824
8064 20806
8064 21129
8064 22592
8064 22904
8065 10336
8065 12576
8065 13414
8065 13480
8065 14272
8065 17556
8065 21468
8066 8965
8066 10925
8066 11883
8066 18281
8066 18412
8067 12981
8067 23431
8068 12019
8068 17598
8068 18041
8068 23210
8069 12549
8069 19970
8069 22465
8070 14847
8071 14643
8071 20813
8071 21315
8071 22151
8071 23389
8072 10776
8072 15077
8072 22088
8073 10464
8073 19017
8073 19769
8073 23537
8074 10853
8074 11499
8074 15417
8075 11899
8075 16352
8075 20128
8076 9148
8076 11781
8077 11131
8077 15492
8077 23148
8078 12769
8078 13028
8078 14728
8078 18787
8078 20731
8078 23155
8079 9743
8079 9782
8079 15612
8079 17652
8079 18881
8080 23725
8081 13398
8081 18937
8081 20163
8081 21066
8082 8287
8082 9175
8082 10034
8082 10364
8082 10909
8082 14159
8082 14182
8082 14855
8082 15374
8082 15672
8082 16551
8082 16725
8082 17575
8082 18169
8082 18211
8082 19424
8082 20448
8082 20624
8082 20989
8082 21062
8082 21988
8082 22433
8082 22620
8082 22665
8083 9486
8083 23915
8083 24243
8084 11620
8084 12967
8084 14561
8084 14718
8084 17536
8084 18230
8084 23858
8085 8975
8085 9959
8085 13455
8085 15053
8085 16015
8085 16819
8085 19052
8085 19418
8085 23424
8085 23553
8086 10584
8086 16284
8086 17670
8086 19090
8086 19578
8087 9558
8087 13225
8088 8985
8088 10063
8088 11329
8088 17119
8088 21482
8090 22056
8090 22709
8091 11555
8091 17502
8091 17605
8092 23912
8092 23969
8093 16073
8094 10527
8095 11405
8095 15610
8095 20653
8095 21671
8096 9691
8096 17687
8097 11147
8097 13353
8097 14073
8097 14074
8097 15461
8097 17772
8097 18897
8097 23906
8099 11488
8099 19430
8100 16486
8102 9349
8102 13897
8102 16464
8102 17978
8102 22780
8102 22962
8104 11710
8104 19423
8104 21593
8105 10846
8105 11936
8105 14797
8105 18078
8106 8919
8106 17970
8106 23526
8107 14472
8107 14501
8107 19121
8107 24164
8108 8286
8108 17395
8108 21530
8109 9205
8110 18188
8111 8446
8111 18819
8111 22881
8112 14833
8112 15350
8113 9960
8113 18165
8113 19554
8114 9760
8114 10974
8114 13300
8114 18031
8114 18439
8114 18875
8114 20510
8114 23493
8115 11935
8115 11986
8115 20503
8116 8853
8116 10694
8116 11339
8116 12134
8116 13222
8116 14795
8116 15133
8116 15435
8116 15552
8116 16796
8116 17689
8116 18177
8116 23381
8117 16425
8117 16511
8117 20544
8118 8608
8118 10649
8118 15510
8119 13221
8119 21711
8120 9975
8121 23735
8122 14737
8122 18841
8122 22912
8123 22653
8124 11455
8124 12851
8125 9683
8125 22568
8126 11608
8126 14147
8126 19325
8127 11911
8127 12891
8127 19318
8128 23284
8129 11253
8129 21444
8129 22508
8129 23773
8129 24301
8130 11636
8130 18399
8130 18494
8131 24397
8132 12722
8132 15868
8132 18193
8132 19191
8134 11297
8134 24134
8135 14847
8136 8137
8136 10224
8136 19282
8137 8293
8137 8629
8137 10224
8137 10650
8137 11679
8137 13191
8137 14995
8137 19282
8137 24399
8137 24429
8138 13937
8138 16744
8138 20205
8139 22757
8140 15323
8140 16373
8141 12370
8141 23568
8143 13273
8143 17039
8144 10900
8144 16566
8144 19352
8144 20949
8144 21266
8145 11483
8146 9278
8146 9660
8146 11912
8146 19552
8147 8260
8147 8823
8147 10470
8147 11784
8147 12286
8147 12897
8147 13372
8147 16446
8147 20757
8148 8962
8148 14461
8149 12675
8149 19167
8149 24352
8149 24404
8150 20100
8150 22855
8150 24061
8152 19832
8153 8804
8153 24009
8153 24158
8154 17553
8154 18631
8154 19692
8155 10741
8155 12638
8155 18100
8155 19439
8155 22192
8156 8354
8156 9132
8156 10468
8156 12391
8156 13166
8156 13591
8156 14256
8156 18418
8156 18861
8156 21866
8156 22818
8157 12345
8157 15178
8157 17808
8157 23787
8158 16257
8158 17248
8158 23551
8159 20696
8160 13407
8160 23369
8161 12045
8161 20306
8162 9225
8162 14099
8163 11785
8163 12693
8163 13131
8163 15127
8163 15337
8164 22848
8165 11613
8165 13613
8165 14612
8165 15823
8165 19898
8165 22269
8166 17893
8166 18992
8167 13916
8167 14893
8167 18959
8168 9874
8168 21339
8169 11825
8169 19103
8169 20328
8170 15201
8171 13138
8171 14535
8171 14681
8171 15331
8171 15369
8171 22050
8171 22372
8172 10610
8173 12862
8173 13565
8173 14008
8173 14119
8173 15343
8173 19837
8173 21091
8174 9509
8174 13944
8174 20537
8175 10061
8175 12196
8176 9555
8176 10951
8176 17068
8176 19574
8176 22529
8177 8901
8177 9100
8177 10205
8177 14722
8177 22950
8178 12896
8178 14267
8179 8811
8179 16846
8180 8402
8180 10894
8180 10961
8180 12413
8180 18381
8180 21411
8180 21413
8181 14827
8181 15811
8181 21724
8181 22337
8181 23233
8183 8449
8183 10765
8183 21555
8184 15744
8184 17442
8184 20771
8185 14006
8185 18041
8186 9102
8186 10213
8186 10349
8186 11429
8186 12552
8186 14585
8186 21168
8187 13422
8187 17067
8188 8199
8188 10418
8188 23966
8188 23968
8190 9874
8190 22894
8191 14540
8191 23042
8191 23845
8191 24095
8191 24103
8192 9386
8192 22170
8193 14448
8193 15426
8193 19050
8193 20952
8193 21340
8194 8278
8194 10014
8194 14877
8194 18166
8195 11439
8195 11565
8195 14100
8195 21117
8195 23970
8196 10935
8197 20767
8198 11214
8198 14562
8199 10418
8199 12883
8199 13461
8199 18069
8199 20605
8199 21904
8199 22523
8199 23698
8199 23735
8200 13042
8200 14198
8200 17547
8200 17912
8200 20190
8200 20293
8200 21061
8200 23524
8201 10810
8201 11892
8201 12782
8201 18577
8201 23195
8201 23695
8201 24353
8201 24438
8202 10955
8202 12900
8202 17259
8202 18924
8202 23182
8203 10676
8203 15455
8203 16631
8203 18513
8203 20286
8204 15392
8205 16432
8205 18535
8205 19096
8206 12290
8206 12291
8206 24360
8207 13148
8208 17404
8208 17926
8208 20217
8209 8245
8209 17566
8209 20816
8210 11320
8210 13423
8210 14818
8210 15169
8210 22762
8211 10227
8211 23204
8211 23649
8212 10227
8212 10231
8212 13528
8212 22764
8213 8306
8213 9391
8213 13516
8213 14353
8213 21262
8214 23827
8215 9628
8215 11151
8215 13035
8215 15665
8216 23346
8216 24449
8217 10296
8217 12504
8217 15734
8217 18253
8217 21092
8217 21146
8218 20049
8219 11124
8219 12021
8219 13142
8220 11415
8220 13671
8222 14243
8222 22685
8223 11805
8223 18434
8223 22777
8223 23686
8224 8748
8224 22905
8225 11478
8225 15572
8225 21102
8225 22778
8226 14883
8227 8290
8228 12382
8228 21808
8228 23814
8229 23713
8229 23752
8229 23758
8229 23815
8230 10258
8230 19652
8230 22569
8230 22916
8230 22961
8231 21117
8232 11509
8232 18578
8233 8970
8233 14455
8233 21643
8233 21916
8233 22328
8234 10260
8234 12332
8234 15540
8234 18664
8234 23286
8235 10709
8235 18686
8236 11740
8236 23626
8237 10459
8237 13032
8237 15179
8237 20752
8237 21221
8237 22946
8238 10740
8238 11434
8238 12665
8238 15006
8238 23716
8238 23920
8239 9161
8239 12562
8239 22984
8240 8241
8240 8242
8240 17218
8240 24206
8240 24277
8241 8242
8241 23890
8241 24277
8242 23889
8242 24470
8243 11072
8243 12218
8243 12594
8244 9658
8244 14583
8244 15573
8244 17304
8245 8351
8245 9230
8245 10387
8245 16882
8245 17225
8245 17566
8245 18896
8245 19506
8245 24315
8246 22599
8247 8826
8247 16394
8247 17616
8248 21359
8249 8452
8249 9355
8249 15043
8249 18645
8250 15576
8250 23326
8251 24211
8251 24298
8251 24475
8252 15289
8252 22348
8253 11610
8253 21614
8253 22445
8255 8857
8255 14877
8255 23369
8256 13921
8256 20732
8256 22391
8257 10914
8257 17302
8257 21616
8258 8857
8258 9770
8258 12776
8258 14333
8259 13365
8259 18550
8261 13114
8262 13928
8262 18704
8262 20460
8262 21703
8263 17092
8263 19659
8264 16382
8264 19554
8265 22497
8265 23440
8266 8552
8266 9206
8266 10345
8266 10624
8266 12137
8266 13328
8266 14515
8266 15692
8266 16431
8266 16768
8266 20211
8267 16452
8267 16657
8268 13487
8268 15360
8269 16810
8269 20969
8270 13232
8270 13819
8270 21987
8271 10046
8271 11005
8271 24057
8272 10422
8272 12789
8272 19308
8273 15084
8273 21664
8274 10593
8274 21740
8275 12356
8275 18375
8275 18998
8275 23100
8276 10339
8276 16107
8277 10562
8277 12321
8277 20051
8278 9569
8278 14877
8278 21673
8279 11359
8280 8746
8280 9849
8280 9911
8280 11031
8280 13952
8280 14436
8280 18769
8280 22967
8282 8850
8282 16546
8282 16611
8282 18434
8282 19014
8282 20918
8283 12227
8283 16070
8283 21816
8284 15270
8284 17206
8284 19047
8284 19666
8284 22003
8285 14475
8285 23121
8286 9967
8286 23263
8288 8864
8288 21496
8289 21556
8290 8336
8290 9076
8290 9534
8290 9543
8290 11075
8290 13122
8290 14467
8290 14547
8290 15472
8290 16340
8290 16998
8290 17342
8290 17662
8290 17757
8290 19300
8290 19453
8290 22138
8290 22468
8291 15246
8291 19496
8291 22007
8293 10650
8293 24361
8294 15048
8295 8908
8295 14634
8295 21200
8295 21201
8296 14462
8296 15789
8297 9573
8297 10049
8297 12298
8297 12612
8297 13937
8297 16744
8297 18360
8297 20126
8297 21322
8297 22525
8298 9395
8298 18193
8299 9915
8299 10565
8299 12065
8299 13054
8299 13063
8299 15263
8299 16788
8299 20552
8299 21215
8299 21382
8299 21893
8300 8655
8300 9192
8300 13130
8300 17793
8301 8409
8301 24370
8301 24384
8302 8774
8302 12232
8302 19085
8303 14187
8303 19073
8304 9957
8304 20990
8304 22597
8305 12526
8305 20237
8305 20266
8305 22589
8306 11175
8306 11176
8306 15973
8306 18538
8306 21262
8306 23467
8307 12072
8307 12073
8307 15528
8307 18572
8307 23546
8308 9807
8308 24031
8308 24439
8309 12345
8309 12804
8309 15178
8309 15698
8309 19065
8309 19493
8309 20781
8309 22122
8309 24071
8310 8312
8310 9267
8310 9723
8310 24089
8311 9080
8311 9519
8311 9723
8311 17914
8311 20832
8312 9504
8312 9723
8312 11539
8312 15088
8312 16420
8312 20532
8312 23756
8312 24089
8312 24215
8313 8549
8313 9201
8313 10544
8313 10548
8313 14926
8313 17200
8313 24342
8314 24186
8315 18846
8315 19973
8316 19968
8317 15538
8317 15704
8317 18261
8317 20718
8318 12006
8318 15554
8318 22209
8318 23511
8319 9404
8319 15165
8319 15302
8319 17029
8319 18186
8319 18857
8319 20576
8319 21251
8319 22095
8320 8563
8320 24336
8320 24382
8321 10056
8322 20396
8323 10571
8323 12029
8324 14336
8324 23454
8325 11053
8325 23668
8325 23925
8326 11212
8326 13051
8326 14233
8327 10375
8328 14057
8329 23619
8329 23913
8329 23998
8330 17522
8330 18344
8330 20213
8331 23784
8331 24068
8331 24285
8332 12681
8332 18773
8332 23427
8333 12994
8333 13664
8333 21149
8334 23230
8335 12767
8335 17280
8336 10199
8336 22138
8337 8445
8337 9220
8337 9556
8337 10870
8337 15661
8337 16710
8337 17497
8337 19687
8337 19836
8337 21771
8337 21784
8338 10065
8338 14505
8338 19985
8338 22740
8339 18409
8339 18410
8340 21710
8340 23468
8342 22222
8343 9493
8343 18039
8343 18083
8343 19539
8344 8682
8344 10066
8344 11810
8344 15508
8344 23408
8345 17466
8346 12074
8346 13451
8346 13962
8347 19108
8348 8373
8348 11045
8348 13464
8348 15896
8348 20637
8349 11523
8349 19131
8350 13742
8350 14656
8350 23924
8351 19506
8351 20816
8352 13532
8352 15754
8353 17217
8353 20617
8354 14874
8354 18781
8355 16223
8355 22493
8356 22086
8357 15775
8358 16226
8359 13211
8359 15774
8359 18842
8359 19153
8360 10495
8360 12227
8360 21816
8361 13888
8361 23297
8361 23324
8362 22548
8363 9743
8363 18881
8363 20647
8364 19361
8364 23369
8365 8649
8365 9646
8365 10229
8365 10297
8365 12655
8365 17700
8365 19795
8365 20835
8365 22029
8366 20677
8367 19670
8367 20609
8369 9513
8369 15245
8369 19200
8370 12436
8370 22765
8370 22880
8371 10168
8371 10170
8371 15390
8371 16074
8371 21252
8372 14059
8372 19956
8373 14993
8373 20637
8374 12001
8374 12161
8374 14216
8375 9163
8375 17937
8375 20003
8375 20651
8376 10180
8376 12527
8376 13731
8376 16262
8377 8752
8377 17305
8379 10433
8379 19649
8379 22788
8380 13415
8380 14921
8380 16722
8380 17358
8381 11735
8381 14417
8381 18450
8381 23481
8382 23846
8382 23913
8384 11545
8384 18984
8384 19043
8385 8388
8385 12745
8385 16831
8386 21704
8387 8697
8387 9926
8387 10218
8387 10412
8387 10969
8387 11088
8387 11255
8387 12046
8387 13295
8387 14879
8387 15449
8387 15608
8387 15818
8387 16337
8387 16479
8387 17174
8387 18023
8387 18231
8387 19003
8387 19110
8387 20559
8387 20682
8387 20935
8387 21247
8387 21568
8387 22211
8387 22885
8387 23208
8387 23355
8387 23836
8387 24140
8388 9878
8388 11659
8388 12745
8389 20660
8390 14495
8390 16536
8390 20176
8390 22184
8391 10135
8391 15661
8391 16710
8391 17497
8391 18646
8391 19687
8391 21784
8391 21902
8392 16769
8392 18547
8393 13466
8393 17622
8393 19266
8393 21375
8393 22076
8394 11063
8394 11766
8394 16393
8394 23235
8394 23325
8395 8398
8395 8399
8395 8401
8395 14862
8395 24104
8396 12167
8396 23985
8397 12173
8398 8401
8398 14862
8398 19764
8398 21844
8399 8400
8399 12167
8399 19764
8399 21844
8400 8401
8400 8521
8400 12167
8400 13046
8400 21844
8400 24152
8401 21844
8402 8603
8402 10961
8402 21413
8403 13209
8403 18359
8404 14493
8404 17687
8404 19075
8404 22004
8405 16185
8406 16382
8406 16593
8406 19537
8407 18864
8407 19237
8408 11326
8408 14937
8408 15393
8409 24384
8410 9875
8410 13291
8411 8443
8411 23449
8412 9292
8412 12645
8413 11259
8413 11464
8413 11513
8413 11547
8413 13002
8413 14371
8413 14933
8413 15345
8413 15378
8413 15463
8413 16151
8413 16899
8413 18870
8413 18944
8413 19605
8413 19988
8413 21323
8413 22449
8413 22913
8413 23840
8414 23953
8415 12867
8415 14734
8415 17643
8415 20204
8416 9284
8417 8848
8417 10329
8418 10719
8418 15550
8418 20295
8418 20604
8418 21931
8418 22259
8419 12924
8419 18262
8419 21527
8420 9300
8420 13059
8420 14877
8420 15167
8421 12482
8421 15650
8421 18633
8422 23214
8423 8429
8423 8430
8423 12163
8424 12571
8424 16865
8425 10438
8425 10831
8425 11799
8425 12102
8425 12739
8425 14026
8425 14210
8425 19198
8426 8546
8426 12818
8426 14275
8426 19517
8426 22283
8426 23147
8427 13147
8427 15971
8427 16789
8427 18390
8427 19879
8427 20367
8427 22998
8428 8429
8428 8430
8428 12163
8429 8430
8429 12163
8430 11422
8431 9989
8431 9992
8431 11341
8431 16298
8432 24305
8433 10278
8433 15991
8433 16795
8434 11602
8434 15594
8434 21293
8435 9814
8435 12989
8435 16618
8435 17162
8436 10850
8436 15100
8436 22349
8437 21528
8437 22753
8438 11215
8438 13722
8438 13981
8438 15433
8438 16831
8438 16989
8439 9192
8439 13130
8439 17793
8440 20899
8440 23131
8441 11238
8441 12400
8442 8839
8442 8840
8442 18478
8443 8596
8443 9653
8443 10488
8443 11604
8443 19233
8443 20837
8443 23496
8444 12331
8445 9220
8445 20087
8446 18819
8446 19535
8447 8771
8447 12755
8447 16997
8447 18902
8447 21182
8448 17765
8448 18846
8448 19973
8449 10765
8449 21555
8450 16407
8450 20374
8450 21834
8451 13996
8452 9355
8452 11976
8452 15043
8452 16118
8452 16987
8452 18645
8452 19902
8452 22277
8452 22401
8453 12511
8453 17890
8453 19238
8453 21267
8453 22173
8454 8638
8454 20337
8455 9707
8456 19452
8457 10468
8457 13166
8457 13591
8457 14874
8457 18781
8457 21070
8457 22818
8458 8508
8458 13879
8458 15490
8458 17887
8459 23615
8459 23839
8459 24451
8460 15016
8461 14938
8461 16519
8461 17419
8463 9366
8464 9416
8464 12108
8464 17640
8464 21455
8465 12380
8465 18083
8466 8528
8466 21234
8466 23138
8467 9815
8469 16441
8469 18954
8470 9848
8470 21511
8471 23964
8472 22972
8473 9115
8473 13427
8473 21106
8474 13181
8474 14657
8474 22849
8475 15369
8476 17405
8476 20999
8477 14311
8478 10935
8478 19454
8479 9381
8480 11057
8480 23859
8480 23952
8481 24469
8482 21133
8482 23622
8482 23673
8483 14438
8483 18853
8484 13273
8484 20347
8485 10558
8485 11514
8485 21137
8486 14738
8486 21986
8486 22965
8487 18998
8488 8501
8488 16523
8488 16727
8488 20497
8488 23010
8489 11357
8489 12356
8489 18286
8489 18998
8489 23100
8490 11766
8490 12241
8490 16393
8490 23792
8490 23953
8491 9736
8491 12232
8491 12312
8491 15232
8492 12220
8492 15276
8492 15663
8492 16746
8492 19386
8492 21033
8493 10212
8493 22711
8493 23068
8494 8916
8495 10397
8495 16364
8496 10230
8496 18681
8496 20378
8497 11540
8497 17626
8498 20537
8499 13116
8499 22628
8500 13358
8500 13388
8501 16523
8501 16727
8501 17684
8501 20497
8501 21882
8501 23010
8502 15184
8502 17414
8503 12951
8503 12952
8503 12953
8503 13579
8503 14983
8505 15567
8505 16575
8506 15121
8507 9374
8507 12401
8507 13420
8507 19360
8507 20874
8507 24054
8508 9560
8509 14877
8510 8527
8510 11966
8510 16986
8510 17768
8510 20979
8510 21134
8511 10265
8511 11436
8511 11789
8511 14925
8511 16137
8511 22697
8512 10966
8512 13590
8512 14272
8512 20136
8514 9901
8514 12502
8515 9131
8515 9637
8515 9695
8515 10044
8515 12172
8515 13032
8515 14263
8515 17370
8515 17428
8515 17611
8515 18057
8515 18373
8515 18374
8515 18591
8515 19056
8515 19057
8515 20848
8515 22118
8516 17650
8517 23966
8518 19060
8518 21644
8519 8732
8519 11262
8519 17504
8520 12105
8520 13326
8520 20849
8521 10884
8521 12171
8521 14061
8521 14843
8521 15909
8521 15910
8521 24157
8522 14531
8523 12994
8523 19849
8523 22344
8524 14193
8524 16533
8525 8526
8525 20695
8526 20695
8527 16986
8528 9001
8528 9118
8528 9454
8528 9699
8528 9766
8528 10144
8528 10480
8528 11597
8528 12216
8528 12555
8528 13987
8528 14973
8528 16231
8528 16584
8528 17655
8528 17754
8528 18061
8528 18099
8528 18562
8528 18934
8528 19399
8528 20350
8528 20801
8528 21234
8528 21463
8528 21495
8528 21612
8528 21912
8528 22311
8528 22353
8529 16471
8529 17192
8529 19235
8529 24008
8530 8908
8530 10877
8530 14631
8530 14632
8530 14635
8530 14636
8530 18196
8530 21200
8530 21201
8530 22114
8530 22374
8530 22703
8531 12575
8531 16546
8531 20918
8531 23686
8532 9732
8532 10099
8533 9902
8533 10577
8533 16424
8534 10103
8534 10572
8534 13245
8534 15872
8534 17814
8534 22477
8535 9116
8535 18631
8535 21029
8536 12553
8536 14165
8536 17792
8536 19415
8536 23504
8537 10245
8537 10571
8537 12038
8538 21069
8539 16283
8539 23317
8540 13913
8540 20851
8540 21817
8541 11420
8541 17092
8542 10245
8542 12029
8542 12348
8543 12417
8543 12973
8543 13093
8543 13395
8543 14324
8543 17155
8544 14093
8544 14545
8544 14960
8544 16023
8545 13675
8545 14363
8545 16590
8546 12818
8546 14275
8546 19517
8546 22283
8547 14101
8547 14625
8547 15098
8547 22115
8547 23162
8548 16421
8549 9201
8549 9978
8549 10547
8549 10548
8549 14926
8549 17200
8549 23571
8550 18595
8550 18902
8550 20276
8551 12107
8551 13136
8551 13595
8551 13931
8551 14913
8551 15448
8551 16012
8551 16171
8551 18545
8551 20420
8551 23258
8552 16768
8552 18632
8552 20973
8553 16237
8553 20719
8554 8669
8554 9156
8554 11148
8554 11687
8554 11911
8554 12628
8554 15524
8554 15829
8554 19318
8554 19760
8554 21709
8555 15289
8555 22008
8555 22348
8556 9818
8556 10907
8557 11182
8557 11909
8557 20644
8558 8984
8558 21734
8559 12027
8559 23396
8560 10526
8560 15587
8560 17307
8561 19323
8561 20167
8562 14532
8562 16794
8562 17340
8563 10270
8563 11771
8563 12664
8563 24244
8564 12617
8564 17804
8564 20526
8565 8749
8565 15000
8565 22484
8565 23057
8565 23221
8566 13755
8566 22075
8566 23487
8567 11814
8567 17518
8567 18536
8568 11809
8568 18536
8569 8680
8569 14164
8569 14624
8569 20334
8569 23384
8570 20875
8571 12146
8571 16206
8571 20024
8572 21093
8572 22595
8572 23390
8572 23931
8573 13973
8573 19492
8573 20112
8574 13505
8574 15044
8574 17676
8575 14738
8575 16713
8575 17824
8577 9323
8577 12717
8577 15417
8578 11790
8578 21507
8578 21944
8579 8835
8579 17305
8580 11344
8580 13525
8580 15420
8581 13119
8581 18759
8581 21364
8582 21238
8582 22481
8584 9535
8584 11128
8584 16092
8585 11128
8585 15117
8586 18059
8586 18424
8586 18484
8586 23224
8587 23501
8588 16127
8588 21638
8589 12082
8589 23896
8589 24148
8590 9366
8590 10484
8591 16579
8592 9581
8592 11864
8592 12777
8592 19324
8593 8967
8593 17003
8593 23982
8594 12082
8594 12083
8594 23896
8594 24148
8595 17714
8595 19337
8596 21021
8597 12889
8598 10622
8599 15854
8599 15856
8599 15862
8599 19663
8600 11980
8600 23203
8600 24093
8600 24154
8601 11628
8601 12826
8601 16754
8602 13849
8602 22952
8603 9843
8603 10961
8603 17068
8603 21222
8603 21911
8604 12319
8604 12584
8604 14836
8604 15673
8604 17648
8604 19227
8604 19922
8604 20096
8604 23539
8605 16388
8605 18194
8606 17054
8607 15256
8607 19478
8607 24432
8608 10405
8608 12081
8609 9190
8609 14394
8609 23336
8609 23987
8610 16021
8610 23557
8611 11316
8611 11708
8611 11728
8611 12104
8611 12799
8611 13356
8611 14223
8611 15504
8611 16828
8611 18385
8612 8947
8612 13487
8613 23422
8614 8656
8614 22179
8615 9850
8615 9964
8615 10521
8615 10736
8615 12147
8615 12157
8615 12280
8615 12305
8615 13227
8615 13417
8615 15287
8615 15935
8615 18239
8615 19012
8615 19458
8615 19512
8615 20516
8615 21963
8615 22598
8615 23009
8617 18695
8617 20815
8619 10189
8619 13997
8619 21670
8619 22814
8620 12433
8620 20597
8620 23162
8621 13503
8622 10615
8622 18472
8623 8857
8623 13870
8623 18166
8624 10678
8624 10823
8624 22894
8625 10452
8625 17738
8625 19557
8625 20784
8626 24225
8627 17252
8627 17264
8628 24059
8628 24155
8628 24270
8629 24399
8629 24420
8630 10587
8631 13324
8631 17028
8632 13827
8632 16995
8632 17110
8634 23943
8635 11008
8635 13569
8635 19632
8635 20771
8636 10245
8636 10571
8637 18808
8637 24233
8638 9353
8638 9796
8638 10434
8638 15403
8638 16569
8638 19175
8638 20337
8639 9694
8639 18918
8640 13590
8640 14272
8641 13189
8641 15604
8641 20421
8642 24012
8642 24225
8643 13273
8643 17039
8643 20347
8643 22057
8644 18945
8644 22049
8645 17565
8645 18594
8645 19554
8646 18670
8646 22844
8647 11293
8647 12674
8647 13649
8647 14717
8647 19420
8647 20515
8647 23213
8647 23419
8648 10041
8648 12710
8648 14433
8648 15471
8648 19475
8648 22059
8648 22969
8648 23628
8648 23639
8649 10229
8649 12655
8649 16232
8649 24441
8650 9620
8650 17431
8650 23652
8652 20342
8652 23440
8653 9691
8653 20101
8654 10999
8654 11816
8654 19152
8654 20960
8654 21153
8655 9192
8655 11686
8656 9011
8656 9621
8656 11009
8656 11999
8656 13498
8656 15688
8656 16708
8656 18053
8656 21955
8656 22179
8656 22228
8657 10705
8658 9836
8658 11872
8659 9484
8659 9565
8659 14911
8659 15220
8659 16915
8659 18980
8659 23280
8660 18257
8660 19642
8661 10245
8661 10571
8662 12899
8662 18554
8662 21452
8663 13469
8663 13820
8663 16213
8663 18009
8663 21967
8664 14238
8664 18217
8664 19346
8664 21548
8665 8667
8665 19383
8665 21646
8665 21648
8666 19383
8666 21647
8666 21648
8667 19383
8667 21646
8667 21647
8668 15213
8668 21636
8669 11911
8669 19318
8670 16338
8671 13512
8671 13920
8672 10760
8673 11039
8673 13687
8674 10722
8674 16767
8674 18954
8675 17305
8676 9019
8676 9026
8676 23510
8677 9011
8677 16615
8678 12863
8678 20522
8678 23567
8679 21454
8680 13320
8681 11071
8681 16759
8681 17215
8681 18189
8681 18674
8681 20404
8682 11810
8683 9285
8683 12027
8683 18916
8683 19931
8684 11078
8685 17637
8685 18455
8685 22231
8686 18402
8686 18991
8686 21992
8687 8921
8687 10639
8687 14274
8687 14290
8687 14463
8687 15494
8687 15821
8687 20696
8688 13590
8688 18982
8688 19657
8688 20136
8689 14657
8690 9115
8691 9017
8691 10209
8691 13499
8691 14783
8691 15786
8691 16949
8691 17311
8691 17935
8691 20527
8692 9627
8692 10726
8692 12224
8692 14805
8692 14811
8692 15562
8692 18397
8692 20841
8692 22622
8693 15958
8693 16567
8693 19022
8693 22388
8694 12792
8694 13181
8695 12672
8695 15450
8695 16492
8696 21556
8696 21614
8696 23489
8697 12897
8697 15818
8699 9665
8699 11827
8699 14484
8699 21445
8700 11264
8700 20059
8701 17835
8702 12639
8702 14426
8703 14178
8703 15754
8704 13938
8704 20882
8704 22993
8705 9554
8705 13339
8706 19757
8706 20996
8707 11582
8707 14898
8707 14899
8707 16684
8707 16685
8708 23720
8708 24164
8708 24427
8709 9581
8709 15156
8710 9147
8710 10056
8710 17269
8710 21140
8712 14135
8713 15975
8713 19316
8713 19757
8713 20996
8714 8896
8714 10312
8714 14696
8714 15168
8714 19442
8714 19738
8715 14653
8716 10112
8716 12776
8716 19371
8716 20610
8716 22281
8717 8724
8717 18476
8717 20254
8718 9200
8718 18603
8718 22464
8718 22570
8719 8939
8719 12621
8719 13713
8719 17401
8720 10861
8720 13908
8721 9551
8721 19066
8722 18089
8723 11425
8723 14600
8723 15619
8723 18582
8724 16665
8724 18557
8724 19609
8724 20254
8725 21629
8726 22262
8727 13750
8727 22972
8728 19428
8728 20683
8729 17513
8729 20456
8730 8978
8730 11195
8730 16623
8731 10461
8731 10732
8731 13522
8731 20927
8732 22790
8733 10032
8733 24470
8734 19733
8735 23791
8736 10753
8736 12232
8736 16314
8736 17597
8736 18722
8736 20162
8737 11747
8737 14132
8738 12335
8738 14111
8738 14190
8738 16114
8739 12303
8739 18900
8739 22053
8740 21721
8741 18631
8741 22437
8742 10793
8742 23926
8742 24151
8743 10471
8743 13265
8743 13389
8743 17570
8743 19584
8743 22137
8744 13024
8744 14049
8745 22144
8745 23609
8746 9849
8746 11031
8747 10584
8747 14754
8747 17670
8747 19090
8747 19578
8748 20513
8748 22905
8749 10398
8749 22484
8749 23057
8749 23221
8750 11611
8750 15683
8750 17415
8750 21623
8751 9306
8751 9783
8751 11871
8751 13156
8751 18368
8751 20153
8752 10688
8752 14885
8752 15678
8752 17305
8753 12819
8753 17746
8753 19022
8753 20268
8753 20945
8753 21223
8753 21685
8754 11661
8754 18694
8754 22157
8754 23187
8755 13827
8755 14737
8756 9168
8756 18623
8757 12051
8757 21050
8758 13473
8759 16576
8759 18852
8759 23326
8760 20957
8760 21996
8761 11831
8761 12941
8761 17015
8761 18606
8762 8775
8762 11887
8762 11888
8762 11889
8763 10893
8763 17305
8764 13870
8764 23200
8765 19368
8765 21249
8765 21250
8765 21540
8765 21541
8765 22600
8766 18514
8767 17112
8768 14219
8768 15575
8768 15873
8768 19520
8769 18205
8769 18208
8769 20174
8769 22661
8770 17277
8770 18383
8770 19737
8770 20755
8771 9236
8771 21182
8771 21283
8772 11888
8772 11889
8773 9487
8773 12187
8773 13957
8774 11616
8774 12312
8774 17597
8774 18709
8774 18713
8774 18722
8774 19085
8774 19285
8774 21933
8775 11887
8775 11888
8775 11889
8775 16217
8775 19863
8776 17922
8777 17930
8777 20248
8777 21095
8778 10138
8778 10812
8778 11895
8778 18847
8778 20855
8779 11347
8780 14921
8780 17649
8781 9207
8781 19640
8782 10523
8782 18728
8782 19706
8783 23784
8783 24135
8785 16818
8785 18458
8785 18658
8785 22216
8786 12056
8786 12731
8786 20710
8787 9256
8787 11711
8787 21027
8787 22666
8788 12622
8788 19936
8788 24041
8790 9909
8790 15881
8790 16064
8790 18958
8791 11996
8791 18739
8792 10308
8792 21093
8793 10829
8793 11305
8795 12542
8795 19058
8796 9159
8796 10593
8796 12098
8796 13041
8797 12764
8797 13708
8797 14289
8797 18142
8797 18665
8797 22096
8797 22101
8798 11649
8799 9115
8799 16143
8799 21106
8800 9456
8800 9711
8800 9735
8800 10896
8800 11007
8800 11032
8800 12111
8800 13331
8800 14585
8800 14859
8800 15395
8800 15622
8800 15703
8800 16556
8800 17590
8800 21593
8800 21878
8800 23030
8800 23393
8800 23456
8800 23583
8802 10866
8802 10867
8802 11550
8803 12474
8804 13219
8804 23177
8804 23724
8804 24009
8804 24030
8804 24035
8804 24086
8805 11968
8806 16524
8806 18470
8807 18199
8808 8809
8808 14550
8809 14550
8809 14607
8809 14798
8810 11977
8810 12507
8811 16846
8812 10094
8812 15280
8812 16777
8812 18686
8812 19074
8812 19634
8813 8814
8813 11087
8813 14344
8814 12259
8814 20866
8815 8816
8815 9424
8815 10071
8815 16102
8815 18355
8815 19040
8815 20355
8815 20356
8816 12995
8816 15249
8816 19040
8816 21583
8817 11703
8818 19985
8818 22843
8819 10470
8819 12897
8819 16945
8820 14169
8820 16218
8820 18588
8820 23183
8821 14962
8821 16483
8823 12897
8824 18001
8824 23031
8824 23072
8825 23588
8826 9545
8826 11699
8826 13564
8826 14628
8826 15750
8826 17812
8826 21040
8826 21466
8826 23499
8827 8861
8827 13279
8827 22416
8828 22365
8829 20004
8830 13668
8830 14895
8830 16850
8830 17189
8830 17599
8830 19173
8830 19174
8831 23717
8831 23952
8831 24181
8832 10805
8832 13696
8833 15045
8833 22342
8835 9885
8835 12293
8835 13436
8835 18015
8835 21539
8836 12028
8836 14428
8836 17766
8836 18216
8837 11406
8837 15032
8837 18387
8837 20165
8837 22424
8837 22853
8838 8839
8838 8840
8838 8844
8838 13832
8838 20040
8839 8841
8839 8844
8839 10632
8840 8844
8840 14996
8841 8844
8841 10343
8842 14541
8842 19460
8843 12524
8843 13991
8843 14996
8845 14648
8845 14649
8846 11153
8846 18950
8846 21679
8847 12139
8848 17349
8849 17305
8849 22856
8850 16546
8850 20591
8851 8857
8852 12893
8852 15064
8852 19411
8852 21372
8852 21827
8853 12134
8853 13222
8853 14795
8853 15435
8853 17955
8853 19785
8853 20164
8853 21007
8853 21177
8853 21505
8854 10005
8854 14365
8854 22365
8855 20771
8857 9139
8857 9300
8857 9309
8857 9367
8857 9569
8857 10300
8857 10980
8857 11744
8857 12222
8857 12346
8857 12676
8857 12811
8857 13497
8857 13860
8857 13867
8857 13870
8857 13925
8857 14333
8857 14482
8857 14800
8857 14809
8857 14918
8857 15065
8857 15499
8857 15615
8857 15699
8857 16160
8857 16233
8857 16475
8857 16726
8857 16964
8857 17013
8857 17163
8857 17210
8857 17329
8857 17673
8857 17742
8857 17769
8857 17967
8857 18134
8857 18209
8857 18836
8857 18871
8857 19288
8857 19527
8857 19602
8857 19726
8857 19783
8857 19801
8857 19986
8857 20243
8857 20785
8857 21179
8857 21497
8857 21516
8857 21662
8857 21673
8857 22339
8857 22373
8857 22594
8857 22901
8857 22948
8857 23091
8857 23200
8857 23232
8857 23359
8857 23492
8857 23736
8858 18065
8858 21478
8858 23360
8859 14178
8859 18460
8860 13392
8860 17753
8860 18662
8861 13279
8861 16427
8862 12634
8862 13106
8862 18476
8862 23025
8863 9737
8863 11451
8864 9927
8864 17736
8864 17737
8864 21496
8864 22098
8865 17736
8866 9490
8866 9719
8866 10090
8866 15100
8866 16333
8866 21549
8866 22349
8867 9779
8867 19731
8868 12009
8868 12947
8868 20171
8868 24222
8869 18742
8870 13870
8870 23200
8872 18704
8873 11198
8873 17462
8873 17659
8873 17660
8874 9933
8874 12380
8874 12416
8875 11017
8875 15344
8875 20742
8875 21741
8876 20650
8876 21681
8877 11985
8877 17819
8877 19669
8878 11663
8878 12087
8878 13028
8878 14728
8878 19382
8879 10817
8879 12343
8879 14015
8879 18386
8880 9563
8880 24351
8881 11891
8881 13951
8881 14000
8881 17230
8881 18917
8882 9488
8882 13568
8882 17641
8882 21163
8883 21614
8883 21635
8883 22315
8884 14745
8885 8984
8885 9625
8886 15301
8886 22365
8887 11267
8887 13965
8889 9601
8889 13675
8889 22537
8890 21849
8891 19382
8892 14287
8892 20479
8893 21916
8894 9928
8894 12474
8894 15498
8894 18526
8895 9807
8895 19559
8895 20475
8895 21829
8895 24031
8895 24439
8896 10759
8897 8898
8897 11506
8898 16895
8900 10420
8900 13750
8900 21186
8902 11870
8902 13870
8902 14513
8903 22681
8904 12079
8904 19381
8904 21437
8905 10500
8906 16541
8906 19401
8906 23048
8907 11080
8907 11481
8907 15275
8907 17182
8908 10877
8908 14631
8908 21201
8908 22375
8909 12317
8909 14388
8909 19530
8909 19920
8909 22229
8909 23451
8910 9348
8910 9587
8910 11196
8910 11214
8910 11457
8910 11497
8911 10386
8911 16304
8911 16318
8911 16740
8912 13034
8912 23813
8913 15107
8913 20652
8914 11136
8914 14134
8914 16146
8914 16167
8914 16480
8914 20616
8915 13166
8916 9539
8916 12420
8916 12873
8916 14148
8916 16350
8916 22825
8916 23255
8917 23558
8918 12326
8918 17207
8918 17417
8919 12308
8919 16490
8919 17595
8920 12549
8920 14800
8920 20045
8920 20216
8921 17620
8921 20039
8921 20696
8922 9828
8922 13959
8922 17910
8923 11526
8923 18106
8923 21255
8923 21296
8923 23332
8924 9010
8924 14274
8924 18097
8925 10590
8925 14897
8926 9491
8926 20600
8926 21312
8926 21506
8926 22362
8927 14295
8928 9107
8928 9893
8928 15064
8929 14060
8929 14620
8929 17688
8930 9974
8930 10792
8930 12175
8930 12646
8930 13612
8930 15321
8930 16731
8930 17826
8930 18652
8930 18963
8930 22299
8930 22699
8930 22736
8930 22783
8930 23629
8930 23664
8930 23721
8930 23818
8930 24034
8930 24036
8930 24083
8930 24228
8930 24314
8930 24321
8930 24362
8930 24380
8931 9442
8931 23881
8932 10573
8933 11910
8933 17305
8934 9888
8934 10379
8935 17347
8935 19600
8935 20684
8935 20768
8937 14412
8937 15398
8937 15690
8937 18604
8937 19670
8937 21174
8937 21239
8937 22078
8937 22690
8937 22820
8937 23279
8938 11580
8938 15795
8938 18831
8938 21109
8938 21427
8939 11546
8939 13713
8940 14932
8940 15266
8940 19356
8940 21264
8941 15402
8941 16244
8941 16279
8941 18246
8941 20272
8941 22163
8942 13189
8943 11318
8943 19262
8943 20122
8943 21645
8944 14450
8944 15400
8944 16243
8944 19318
8945 9815
8945 10571
8945 12029
8945 13884
8945 22904
8946 10805
8946 12056
8946 13696
8946 15090
8946 17781
8946 18904
8947 10145
8947 10333
8947 12751
8947 15360
8947 15927
8947 19168
8948 14304
8948 20237
8948 20266
8948 22589
8949 19229
8949 20237
8949 20266
8950 12519
8950 14141
8951 18355
8951 19040
8951 20554
8952 11761
8952 20721
8952 21509
8953 13466
8953 21375
8954 14539
8954 20670
8955 9492
8955 13347
8956 9551
8956 19066
8956 20417
8957 10680
8957 15870
8957 23847
8958 14585
8959 10298
8959 13062
8959 14204
8959 15136
8959 20354
8959 21610
8960 13077
8960 13582
8961 9686
8962 14530
8962 17581
8962 18599
8962 22344
8963 11143
8963 23835
8963 24375
8964 13444
8964 24161
8965 17544
8965 18281
8965 18412
8966 11382
8966 13434
8966 16928
8966 18033
8967 10435
8967 17003
8968 12459
8968 13018
8969 9895
8969 12106
8969 19327
8970 14455
8970 20412
8971 23735
8972 13039
8973 11368
8974 10932
8974 14113
8974 19815
8975 14024
8975 15027
8975 19834
8976 12053
8976 12242
8976 12691
8976 13974
8977 11685
8977 21310
8977 23492
8978 10291
8978 11195
8978 11356
8978 16623
8978 21348
8979 10067
8979 11340
8979 21558
8980 9930
8980 9931
8980 12952
8980 17613
8980 19194
8980 23082
8981 12943
8981 17183
8981 18025
8981 21119
8982 9652
8982 10880
8982 11069
8982 15251
8983 10139
8983 10959
8983 20234
8983 20861
8983 21556
8984 9625
8984 21734
8985 10063
8986 13615
8987 13106
8987 18476
8988 9225
8988 18051
8988 21674
8989 16285
8989 18178
8990 20545
8991 9991
8992 13136
8992 14913
8992 23258
8993 9210
8993 9876
8993 15390
8993 16074
8993 16075
8993 16286
8993 18577
8994 13839
8994 13841
8994 14679
8995 13376
8995 14779
8995 15136
8995 21335
8995 23477
8996 15862
8996 16889
8996 17825
8997 15861
8997 15862
8997 16889
8998 10257
8998 12541
8998 21453
8998 23012
8999 13312
8999 14875
8999 21644
8999 21948
9000 14657
9001 16584
9001 21234
9002 9031
9003 11159
9003 11769
9003 16447
9003 17818
9003 21714
9004 10465
9004 16858
9005 10539
9005 12864
9006 14068
9006 16084
9006 18657
9007 17719
9008 21106
9009 9033
9009 9961
9009 10640
9009 19743
9009 23064
9009 23113
9010 9642
9010 10775
9010 14723
9010 16785
9010 16872
9010 17620
9010 18081
9010 18659
9010 19432
9010 20696
9010 21301
9011 22179
9012 11698
9012 23709
9012 23907
9013 17287
9013 20209
9014 10030
9014 17521
9015 13065
9015 13751
9015 14520
9015 17453
9015 20583
9015 23278
9016 15246
9017 10105
9017 15786
9017 20527
9018 11583
9019 12510
9019 22010
9019 23510
9020 12440
9020 15669
9020 17387
9020 17740
9020 18173
9020 19645
9020 21890
9021 23661
9021 23816
9022 12722
9022 18193
9022 20341
9022 22246
9023 17099
9023 19626
9023 21313
9023 22156
9024 9200
9024 14031
9024 18922
9024 20395
9024 21976
9024 22570
9025 9200
9025 9894
9025 21976
9025 21977
9025 22570
9026 23510
9027 10857
9027 12929
9027 18488
9029 12290
9029 12291
9029 24176
9029 24360
9030 18631
9031 11267
9031 16001
9032 11120
9032 21735
9033 11746
9033 20036
9034 14426
9034 19400
9034 19792
9035 11014
9035 11959
9035 13362
9035 15259
9035 16867
9036 14363
9036 19954
9037 9865
9037 12593
9037 13215
9037 13608
9037 14086
9037 18803
9038 9701
9038 9866
9038 10219
9038 12126
9038 13336
9038 13404
9038 16311
9038 17470
9038 19797
9038 21004
9038 22370
9038 22796
9039 9293
9039 9640
9039 23873
9040 9452
9040 12571
9040 16301
9040 17612
9040 17830
9040 22140
9041 11020
9041 18003
9041 18426
9042 12207
9042 22852
9043 18977
9043 21213
9043 23940
9043 24060
9043 24422
9044 11107
9044 15805
9045 17546
9045 22349
9046 13129
9046 15756
9047 12052
9047 14841
9047 20077
9048 14708
9048 19117
9048 19341
9048 20711
9049 12290
9049 24176
9050 23918
9050 24216
9051 13455
9052 14833
9052 15350
9052 18962
9053 10898
9053 11187
9053 12494
9053 14108
9053 16678
9053 17361
9053 18042
9053 18113
9053 22258
9053 22968
9054 11821
9055 14066
9058 11105
9058 11345
9058 15127
9058 17252
9058 17264
9058 18068
9059 14486
9060 11037
9060 11104
9060 12418
9060 17396
9060 24208
9060 24263
9062 11861
9062 17687
9063 12326
9063 15459
9063 15944
9064 10660
9064 12801
9064 16025
9064 20946
9064 22026
9065 11618
9065 13055
9065 14969
9066 21269
9067 10817
9067 12343
9067 14015
9067 15878
9068 10869
9068 12273
9068 21379
9069 10974
9069 16054
9069 19033
9071 10449
9071 23536
9072 19108
9073 11217
9073 20016
9074 15135
9074 17984
9074 22193
9075 12711
9075 19225
9076 9543
9076 9803
9076 14453
9076 16448
9076 18747
9076 19230
9076 19300
9076 22138
9077 21178
9078 11219
9078 13626
9078 16639
9078 19376
9079 18494
9080 9337
9080 9519
9080 9520
9080 9690
9080 9907
9080 11407
9080 11635
9080 13437
9080 14055
9080 15088
9080 20832
9080 22158
9080 23756
9080 23806
9080 24419
9081 9854
9081 11721
9081 23767
9082 9144
9082 10375
9082 24037
9083 15691
9083 18947
9084 10051
9084 12410
9084 13997
9084 15921
9084 22814
9085 9271
9085 18313
9085 18541
9085 23886
9085 23975
9085 24020
9086 15187
9086 20366
9086 22721
9087 10401
9087 14821
9087 16157
9087 17187
9087 17188
9087 19455
9088 13253
9088 17277
9088 21702
9088 23088
9089 21487
9089 22723
9089 22948
9090 9713
9090 14342
9090 22006
9090 22599
9091 15063
9091 23212
9092 19318
9093 17074
9093 22220
9093 23379
9094 23160
9094 23334
9095 10196
9095 13023
9096 16561
9096 20053
9096 20075
9099 17384
9100 9691
9100 9810
9100 10205
9100 10604
9100 11424
9100 11861
9100 13530
9100 14543
9100 14722
9100 14760
9100 16842
9100 19198
9100 19802
9100 19905
9100 21418
9100 22156
9100 22280
9100 22950
9101 13913
9101 17251
9101 20851
9101 21817
9102 10213
9102 11290
9103 9868
9103 10376
9103 23482
9104 10245
9104 10571
9104 18738
9105 17794
9105 20343
9106 14932
9106 15266
9106 19356
9107 9893
9108 11347
9108 15413
9108 19155
9108 22390
9109 9110
9109 12438
9109 13955
9109 17327
9109 21730
9109 22763
9109 22765
9109 22880
9110 22760
9111 12865
9111 15651
9113 10546
9113 20781
9113 23874
9113 24071
9114 12432
9115 9635
9115 11041
9115 13341
9115 14541
9115 15181
9115 17640
9115 21106
9115 21232
9115 21287
9115 22091
9115 23522
9116 10799
9116 12864
9116 13341
9116 13478
9116 13504
9116 14218
9116 15301
9116 17441
9116 18194
9116 18212
9116 18631
9116 19847
9116 22365
9117 15925
9117 17372
9117 17799
9117 18311
9117 19998
9117 22908
9118 16584
9118 21234
9118 23138
9119 23713
9119 23758
9119 24292
9120 11097
9120 12233
9120 13491
9120 13850
9120 16375
9120 17117
9121 9461
9121 9821
9121 14908
9121 19868
9122 10503
9123 12639
9123 14945
9123 17016
9124 10260
9124 15540
9124 18664
9125 10264
9125 11583
9125 11707
9125 22696
9126 15183
9127 13171
9127 14060
9127 14710
9128 15754
9129 22053
9130 15089
9130 15842
9130 16136
9131 17428
9131 19171
9132 12391
9132 13166
9133 10655
9134 10358
9134 15119
9134 21339
9135 10486
9135 11356
9135 12483
9135 15097
9136 12455
9136 17320
9136 18072
9136 21112
9137 11610
9137 21614
9138 9346
9138 10272
9138 11623
9138 14555
9138 15244
9139 13870
9139 18166
9139 19923
9140 11362
9140 11698
9140 23709
9140 23779
9141 12237
9143 11633
9143 16892
9145 14589
9145 17835
9146 18361
9146 22701
9147 10056
9148 11781
9148 22022
9148 22706
9149 23912
9150 14062
9150 23241
9151 15858
9151 15859
9151 15862
9151 16836
9152 10499
9152 10517
9152 10905
9153 9694
9153 12948
9153 14309
9153 19899
9153 21719
9154 13964
9154 20257
9154 21397
9155 10279
9155 10450
9155 23009
9156 11911
9156 15151
9157 9367
9157 13925
9157 14755
9157 17338
9157 20216
9157 21281
9157 21423
9157 21497
9157 21624
9157 22782
9158 21893
9159 10593
9159 12098
9159 13041
9160 11441
9160 14525
9160 22368
9161 15036
9161 18014
9161 23093
9162 21241
9164 10053
9164 21556
9164 21781
9164 22254
9165 18998
9165 22005
9165 22116
9167 9310
9167 9388
9167 18498
9168 10295
9168 18623
9168 22414
9169 18846
9170 16669
9170 21721
9171 15138
9171 15656
9171 16679
9171 19107
9171 20830
9171 22331
9171 23795
9171 23796
9171 23823
9171 24303
9171 24484
9172 10269
9172 20050
9172 21292
9173 9864
9173 21167
9174 9703
9174 12661
9174 14241
9174 17077
9174 17093
9174 18164
9174 20772
9174 22422
9175 10538
9176 18293
9177 9249
9177 12262
9177 13162
9177 22816
9178 11722
9178 11860
9178 21566
9178 23169
9179 10591
9179 20764
9179 22007
9180 12174
9180 13771
9180 14454
9180 15138
9180 15656
9180 16679
9180 19107
9180 20830
9180 22884
9180 24303
9181 23706
9181 23868
9182 11980
9182 23855
9182 23920
9182 24154
9183 19031
9183 23917
9183 23939
9184 23955
9184 24279
9184 24423
9185 11595
9185 13212
9185 13954
9185 20999
9186 16824
9187 10529
9187 17085
9187 17479
9188 16948
9188 17248
9189 10046
9189 11005
9189 20834
9189 22108
9189 24443
9190 10311
9190 14394
9190 23336
9191 14975
9191 18153
9191 19867
9192 11686
9192 13130
9192 17793
9193 13561
9193 18192
9193 18901
9193 22174
9194 11493
9194 13320
9194 16083
9195 13199
9195 19661
9196 13241
9197 13054
9197 20996
9198 9335
9198 12458
9198 20445
9198 24215
9199 20445
9199 24131
9199 24215
9200 9894
9200 14031
9200 18922
9200 22570
9201 9724
9201 10544
9201 10547
9201 23571
9201 24342
9202 12878
9203 11231
9203 12127
9204 14247
9204 18278
9205 12218
9205 12594
9205 16054
9206 10624
9206 16768
9206 18632
9206 20125
9206 20973
9207 12790
9207 19640
9208 12930
9208 13418
9208 18001
9209 15841
9209 20123
9210 10995
9210 24438
9211 9473
9211 10137
9211 10171
9211 11397
9211 13229
9211 19419
9211 19893
9211 21253
9211 23293
9211 23652
9211 23734
9211 24229
9211 24297
9211 24317
9211 24319
9211 24321
9211 24457
9212 16618
9212 17162
9212 21881
9213 10383
9213 18740
9214 12804
9214 15178
9214 19065
9214 23874
9214 24071
9215 24379
9217 10918
9217 17978
9217 19562
9218 9742
9218 17978
9219 10241
9219 11442
9219 20514
9219 22554
9220 9556
9220 10396
9220 15661
9220 16710
9220 17497
9220 19687
9220 19836
9220 20087
9220 21771
9221 11477
9221 21432
9221 21778
9221 22382
9221 23017
9221 24098
9222 12287
9222 20214
9222 23886
9222 24242
9223 14573
9223 21181
9224 10039
9224 10503
9224 12156
9224 16883
9224 18839
9224 19824
9224 21043
9224 21129
9225 13014
9225 14099
9225 16543
9225 18051
9225 21674
9226 13111
9226 13460
9226 19576
9226 21593
9227 10974
9227 16054
9227 18031
9227 18516
9227 20510
9228 10843
9228 11454
9228 17699
9228 18862
9228 23270
9230 20816
9231 13419
9231 15145
9231 17773
9231 19381
9232 17369
9232 19323
9232 20167
9233 10096
9233 11479
9233 11933
9233 11989
9234 9500
9234 11061
9234 19158
9234 19631
9234 23020
9235 22238
9235 23928
9236 9343
9236 9349
9236 13897
9236 18703
9236 21283
9237 16703
9238 19997
9239 10106
9240 20336
9241 9351
9241 10575
9241 11369
9241 14613
9241 16734
9241 17226
9241 19029
9241 21044
9241 22024
9241 22178
9242 10393
9242 11069
9242 14489
9242 15251
9242 22602
9243 10114
9243 17212
9243 20086
9243 21767
9243 21768
9244 16985
9244 17690
9244 17856
9244 18988
9245 16985
9245 17856
9246 13896
9246 14541
9246 20726
9247 11474
9247 18810
9248 15440
9248 17270
9248 23067
9249 11462
9249 12352
9249 13162
9249 14355
9249 15481
9249 18843
9249 24468
9250 10589
9250 13798
9250 16607
9250 19295
9250 20542
9250 21626
9251 14872
9251 20930
9251 23634
9251 23707
9252 16576
9252 22222
9253 11456
9253 15054
9253 16595
9253 16902
9253 17381
9253 18999
9253 19181
9254 21926
9255 11957
9255 14808
9255 23497
9256 10074
9256 21027
9256 22666
9258 15486
9259 9625
9260 15877
9260 22361
9261 18379
9262 13207
9262 13487
9262 15360
9263 9582
9263 11121
9263 12191
9263 12956
9263 13272
9263 17930
9263 19610
9264 23528
9265 10596
9265 12390
9265 16401
9265 18918
9265 21214
9266 9344
9266 9620
9266 12292
9266 15319
9266 17431
9266 17888
9266 23652
9267 9723
9267 24089
9268 10593
9268 23431
9269 12901
9269 17518
9269 17917
9270 23617
9271 12566
9272 10740
9272 24225
9273 9274
9274 22693
9274 24187
9275 23667
9275 24099
9276 11514
9277 17637
9277 17883
9278 9660
9278 12452
9278 21720
9279 17226
9279 20992
9279 22024
9280 18215
9281 10428
9281 20878
9281 23411
9282 13935
9283 19205
9283 21961
9284 11804
9284 16818
9284 17786
9285 12027
9285 12152
9285 13871
9285 14058
9285 15385
9285 18206
9285 19082
9285 19781
9285 20098
9285 20292
9285 23076
9286 12406
9286 12589
9286 12994
9286 18599
9287 10526
9288 17373
9289 17072
9289 23513
9290 16561
9290 20075
9291 11175
9291 11176
9291 18827
9291 22823
9292 10436
9292 12645
9292 20278
9292 23548
9293 9640
9293 23873
9294 11804
9294 22334
9295 11332
9295 23150
9296 11214
9296 12620
9296 15293
9296 20730
9297 13663
9297 19198
9297 19491
9297 23596
9298 16247
9298 17407
9299 21995
9300 10439
9300 10555
9300 10813
9300 13059
9300 13244
9300 13860
9300 14809
9300 14877
9300 14910
9300 15205
9300 16726
9300 17138
9300 17275
9300 17963
9300 19783
9300 20377
9300 20443
9300 22809
9301 10378
9301 17685
9302 14415
9302 16843
9302 19615
9303 12037
9303 13058
9303 17865
9304 11248
9304 17287
9304 20209
9304 21415
9305 18193
9305 19191
9305 21205
9305 22246
9306 9783
9308 9403
9308 10239
9308 11193
9308 13043
9308 13795
9308 15082
9308 18046
9308 20792
9308 23083
9309 13870
9309 19923
9311 10985
9311 13694
9311 17215
9311 21198
9311 21928
9312 23123
9313 14702
9314 17615
9316 13652
9316 16027
9316 17764
9316 19097
9317 24272
9318 9626
9318 11297
9319 10576
9319 13365
9319 13468
9319 15612
9320 9498
9320 10335
9320 11917
9320 12641
9320 14102
9320 15292
9320 22734
9320 22957
9320 23130
9321 14709
9321 23281
9322 11831
9322 18606
9323 9949
9323 10746
9323 10853
9323 11499
9323 11569
9323 11765
9323 12186
9323 12408
9323 12885
9323 12906
9323 13810
9323 14226
9323 15226
9323 15248
9323 15366
9323 15417
9323 16778
9323 17879
9323 18056
9323 19048
9323 19895
9323 20660
9323 20746
9323 20759
9323 20805
9323 21876
9323 23751
9323 23764
9324 19643
9324 20489
9325 14018
9327 17817
9327 18844
9327 18866
9328 24073
9328 24200
9328 24225
9329 15991
9329 17687
9329 18949
9329 18997
9329 19700
9329 19905
9329 21579
9329 21847
9330 13392
9330 17364
9330 18704
9331 11555
9331 17605
9332 19988
9332 21009
9332 22040
9333 9796
9334 23066
9334 23097
9335 9641
9335 9723
9335 12458
9335 14386
9335 20339
9336 10292
9336 11063
9336 17931
9336 19157
9336 22419
9336 23343
9336 23746
9336 24097
9337 9518
9337 9723
9337 11635
9337 13192
9337 13437
9337 15069
9337 18941
9337 20978
9337 23107
9337 23806
9337 23902
9337 24169
9337 24419
9338 10815
9338 13665
9338 18236
9338 18924
9339 10089
9339 11301
9339 19248
9339 19281
9339 22815
9340 21556
9341 9924
9341 12879
9341 14482
9342 21181
9343 16628
9343 21283
9344 9620
9344 15319
9344 17431
9344 17888
9344 24265
9344 24267
9345 10096
9345 11715
9345 11933
9345 11989
9346 14555
9348 20341
9348 22246
9349 10834
9349 13897
9349 16997
9349 17579
9349 18703
9349 19330
9349 20267
9349 20276
9349 21283
9350 14277
9350 16265
9350 19751
9351 22024
9351 22178
9352 12447
9352 16825
9352 21704
9353 10434
9353 19175
9354 11036
9355 15043
9355 19902
9356 23100
9357 9685
9357 14641
9357 20840
9357 22442
9358 9686
9358 24170
9359 13072
9359 19037
9360 10611
9360 11681
9360 12272
9360 12809
9360 12932
9360 14361
9360 15014
9360 15881
9360 16237
9360 17257
9360 19333
9360 21193
9360 22971
9361 12771
9361 18694
9362 22128
9363 11110
9363 15107
9363 15141
9364 10237
9364 13564
9365 17071
9366 9573
9366 14085
9366 15415
9366 18360
9366 21322
9366 22525
9367 13096
9367 13870
9367 20216
9368 9474
9369 11850
9369 19991
9370 11919
9370 19995
9372 11862
9373 10977
9373 13007
9373 22848
9373 23350
9374 12043
9374 12401
9374 19360
9374 19873
9374 20147
9374 24054
9375 10830
9377 15538
9378 13675
9378 20093
9379 13765
9379 15781
9379 21795
9380 14311
9380 16506
9380 22695
9381 11592
9381 13629
9382 11198
9382 14832
9382 17462
9383 10558
9384 10214
9384 18849
9384 24080
9385 10722
9385 15590
9386 10087
9386 10858
9386 13772
9386 17505
9386 18508
9386 22170
9386 22350
9386 22496
9387 10303
9388 15841
9389 14187
9389 21581
9389 21591
9390 18984
9391 17462
9392 19907
9392 20824
9392 21927
9392 23121
9393 10152
9393 17851
9393 23189
9394 17995
9394 19224
9394 21118
9394 22340
9394 23394
9395 13934
9395 14770
9395 18193
9395 19151
9395 20139
9396 11682
9396 18467
9396 21326
9397 15351
9398 15419
9398 20650
9399 13935
9399 17568
9399 22322
9400 11619
9400 14940
9400 17642
9401 9936
9401 20800
9402 12474
9402 23661
9402 23816
9402 24334
9404 18857
9404 21251
9405 22053
9406 17786
9406 22334
9407 11629
9407 19885
9407 22194
9408 9412
9408 11999
9408 21955
9409 12878
9409 18580
9410 12598
9410 13853
9410 15638
9410 16682
9411 16681
9411 17577
9411 21403
9411 22768
9412 20690
9412 21955
9413 15735
9413 17498
9413 21731
9414 15424
9414 17469
9415 13054
9416 10134
9416 15476
9416 15495
9416 20251
9416 21455
9416 21489
9416 22073
9418 10459
9418 15179
9418 20752
9418 22946
9418 24127
9418 24128
9419 11790
9419 21507
9419 21992
9420 12838
9420 14788
9421 21929
9421 22716
9423 23727
9423 24222
9423 24224
9424 18355
9424 20355
9425 19954
9426 9502
9426 11140
9426 13580
9426 15003
9427 12102
9427 20562
9427 21311
9428 11499
9428 14226
9430 10188
9430 15282
9430 18136
9430 21090
9431 13146
9431 13575
9431 23608
9432 15958
9432 19022
9433 12058
9433 19059
9433 21759
9433 22306
9433 24476
9434 9833
9434 14325
9435 9703
9436 10751
9436 12682
9436 19470
9437 11974
9437 12598
9437 16682
9437 19841
9437 22377
9438 18289
9438 19659
9439 13391
9439 19664
9440 12587
9440 13327
9440 17819
9440 19669
9441 11090
9441 14486
9441 15516
9442 12664
9442 24040
9443 12394
9443 21691
9443 21885
9443 22830
9443 23426
9444 23176
9445 16009
9445 19005
9446 10091
9446 11648
9446 15893
9446 19294
9447 22364
9447 22367
9448 10106
9448 10143
9448 11675
9448 13604
9448 14301
9448 19514
9448 19855
9449 12430
9449 16108
9449 18528
9449 21373
9449 21374
9450 12866
9450 19413
9451 10184
9451 13069
9451 16741
9451 17750
9451 22702
9453 11049
9453 18826
9454 21234
9454 23138
9455 15811
9455 21724
9455 22966
9455 23448
9456 14585
9456 21614
9458 9917
9458 12228
9458 15198
9458 15548
9458 17953
9458 18030
9458 18899
9458 20015
9459 9494
9459 10216
9459 18198
9459 19034
9459 22251
9460 13350
9460 13351
9460 20238
9461 11715
9462 11754
9462 11756
9462 23742
9463 14833
9463 18962
9464 19485
9465 17838
9466 17785
9466 18998
9466 19318
9466 22116
9467 12129
9467 14016
9467 14616
9467 15023
9468 20093
9468 20207
9469 13102
9469 20255
9469 21666
9469 23521
9470 14125
9470 20396
9471 13870
9471 17203
9471 19315
9473 10642
9473 23753
9474 11579
9474 22465
9475 23893
9476 11420
9476 17962
9476 23358
9477 10522
9477 13731
9477 16210
9477 17347
9477 18645
9477 21356
9477 21993
9477 23475
9478 9480
9478 22242
9479 22572
9480 22242
9480 22317
9481 18044
9482 9915
9483 11874
9483 18062
9484 9565
9484 14911
9484 16915
9485 12272
9486 10585
9486 23915
9488 13568
9488 14359
9488 16959
9488 17641
9488 21163
9490 16333
9490 22349
9491 9623
9491 10852
9491 11952
9491 11978
9491 12199
9491 12721
9491 13865
9491 15929
9491 16055
9491 17377
9491 17761
9491 18032
9491 20097
9491 20186
9491 20928
9491 21312
9491 21613
9491 21835
9491 22808
9491 23435
9491 23577
9493 16269
9493 18039
9493 18083
9493 19539
9493 20954
9495 18457
9495 18531
9495 23158
9496 10109
9496 12649
9496 13202
9496 14707
9496 22408
9496 23001
9496 23559
9496 23870
9496 24096
9496 24150
9497 11959
9497 22045
9498 15292
9498 18888
9498 19571
9498 22957
9499 22022
9500 11061
9500 19158
9500 21867
9501 13620
9501 17363
9502 13580
9502 17779
9502 19485
9502 20318
9502 21542
9504 11539
9504 20445
9504 21381
9505 22023
9505 23591
9506 13936
9506 15740
9507 11610
9507 21593
9507 21614
9508 11330
9508 22743
9509 15615
9510 12040
9510 13398
9510 20672
9510 20877
9510 22717
9511 11347
9512 23915
9513 14271
9513 15096
9513 19536
9513 22807
9513 23006
9514 21614
9515 23813
9515 24078
9515 24325
9516 18157
9516 20219
9517 13439
9517 23757
9518 9723
9518 19667
9519 24169
9519 24418
9520 9723
9520 11539
9520 21381
9521 9525
9521 11572
9521 20118
9522 15382
9523 18453
9523 19611
9523 20199
9524 17340
9525 9526
9525 9527
9525 9528
9525 11573
9525 11574
9526 9528
9526 11632
9527 11572
9527 11573
9527 11574
9528 11573
9528 11574
9528 11632
9529 22445
9531 14668
9532 15527
9532 18584
9533 11084
9533 13056
9533 15846
9533 15899
9533 17511
9533 20379
9533 20579
9533 22799
9534 11965
9534 19453
9535 11128
9535 15117
9535 16092
9536 10024
9536 11023
9536 11135
9536 20060
9536 22448
9536 23391
9536 23720
9536 23979
9536 24056
9536 24272
9536 24427
9537 10844
9537 13375
9537 21603
9537 22035
9537 22279
9537 22673
9538 13025
9538 18065
9538 21478
9538 21582
9539 12420
9539 23255
9540 9610
9540 12429
9540 17865
9540 21435
9541 13623
9541 19879
9541 22998
9542 13199
9542 19661
9543 9934
9543 10778
9543 11075
9543 12131
9543 12959
9543 13122
9543 13157
9543 14467
9543 15004
9543 15421
9543 16721
9543 17342
9543 17757
9543 18743
9543 19300
9543 21331
9543 22468
9543 22847
9544 10245
9544 10571
9544 18908
9546 15475
9546 19400
9546 19792
9546 22553
9547 17096
9547 18631
9547 22365
9548 11142
9548 13622
9548 14751
9548 18440
9548 18689
9548 19224
9548 23394
9549 10723
9549 16370
9550 10706
9550 11194
9551 16395
9551 20012
9551 20070
9551 20450
9551 21305
9551 21898
9552 13295
9552 21872
9553 20272
9553 20929
9554 12463
9554 12464
9554 13339
9554 18597
9554 18598
9555 20424
9555 22529
9557 13079
9557 14659
9557 19445
9557 20263
9557 21298
9557 23170
9558 10130
9558 12860
9558 16485
9558 16983
9558 18469
9558 19104
9558 22552
9559 11704
9559 16870
9559 22330
9560 9583
9560 10683
9560 12141
9560 13879
9560 19516
9561 9914
9561 11011
9561 14128
9562 10173
9562 11528
9562 12858
9562 14345
9562 17245
9562 19248
9562 21769
9562 22573
9562 23849
9564 17942
9564 18194
9565 14911
9565 23280
9565 24137
9566 22344
9567 10846
9567 11823
9567 14797
9568 14118
9569 17301
9569 17419
9570 17162
9570 21881
9571 15160
9571 19370
9572 10072
9572 14446
9573 22525
9574 17749
9575 21366
9576 11703
9577 9982
9577 10179
9577 10729
9577 14154
9577 14909
9577 16296
9577 18272
9577 19385
9578 22116
9578 23100
9579 11908
9579 23978
9580 15802
9580 23067
9581 9733
9581 10645
9581 11864
9581 12777
9581 16666
9582 9965
9582 12191
9582 13272
9582 13635
9583 12141
9583 19516
9584 12208
9584 15451
9584 16675
9584 18666
9585 10886
9585 11983
9585 13756
9585 14230
9585 16799
9585 17300
9585 17722
9585 20474
9585 20631
9585 20858
9585 21501
9585 22188
9586 11509
9586 18578
9586 23884
9587 10053
9587 13250
9588 24351
9588 24394
9588 24466
9589 9703
9589 14241
9589 17077
9589 18135
9589 18164
9590 12139
9590 19821
9591 10861
9592 19453
9592 21498
9593 14039
9593 17978
9593 19828
9593 22962
9594 22474
9595 23729
9595 24032
9595 24328
9595 24446
9596 11223
9596 12150
9596 17009
9596 21604
9597 11830
9597 16563
9597 23054
9598 12314
9598 12653
9598 14691
9598 15942
9598 21749
9598 22999
9599 10431
9600 10417
9600 16076
9600 16300
9601 9691
9601 14363
9602 12989
9602 17162
9602 20444
9602 21881
9603 10593
9603 10814
9603 21740
9604 21486
9605 9644
9605 14721
9605 22429
9605 23478
9606 20005
9607 10818
9607 12976
9607 13330
9607 14439
9607 15201
9607 16258
9607 20320
9607 21588
9607 21599
9608 23146
9609 14526
9610 13058
9610 16978
9610 19118
9610 20314
9610 21435
9610 23374
9611 10708
9612 20469
9612 21378
9613 15412
9613 20469
9613 23385
9614 19854
9614 23474
9615 13196
9616 11885
9617 11911
9617 23459
9618 22877
9618 24391
9619 24389
9620 12292
9620 17831
9620 17889
9620 23652
9621 16615
9621 21814
9622 22695
9623 11382
9623 12199
9623 13667
9623 14082
9623 15639
9623 16007
9623 17152
9623 17761
9623 18110
9623 19773
9623 20186
9623 22312
9624 10771
9624 15086
9624 21296
9624 23565
9625 10658
9625 11881
9625 13492
9625 15662
9625 21734
9626 9679
9626 10515
9626 11297
9626 12551
9626 23938
9627 11375
9627 21937
9628 13035
9628 14143
9629 17978
9630 9921
9630 16468
9630 21278
9631 13716
9631 14776
9631 22934
9632 17752
9632 18449
9633 13221
9634 19691
9634 19886
9635 20718
9636 12095
9636 13309
9636 18846
9636 19309
9636 19973
9636 21475
9637 17189
9637 17190
9637 17428
9637 19056
9637 19057
9637 19171
9637 20848
9637 22118
9638 10604
9638 12781
9638 13669
9638 21113
9639 16934
9639 21117
9640 23873
9641 9791
9641 21381
9641 24131
9641 24215
9642 10639
9643 24206
9643 24214
9644 11206
9644 12404
9644 14004
9644 15057
9644 17491
9644 18124
9644 19037
9644 21122
9644 22429
9645 19394
9645 22162
9646 21875
9647 10471
9647 16168
9647 21211
9648 11618
9648 13055
9648 21441
9648 23551
9649 14852
9649 19128
9649 19131
9650 13838
9650 14009
9650 15019
9651 14363
9651 19776
9652 14489
9652 14564
9652 15251
9653 21021
9654 19382
9654 23401
9655 14922
9656 11873
9656 12661
9656 13989
9657 10727
9657 12075
9657 14726
9657 19180
9657 19370
9659 10473
9659 14288
9660 15129
9660 17055
9660 21720
9661 12303
9661 15735
9661 16275
9661 17498
9662 10536
9662 12884
9662 14278
9662 16268
9662 19866
9664 10550
9664 12830
9664 17383
9665 14484
9665 21445
9666 9668
9666 15565
9667 15565
9668 20495
9669 13625
9669 18921
9669 22409
9670 9738
9670 9997
9670 11317
9670 14475
9670 15423
9670 15904
9670 17880
9670 18811
9670 19988
9670 22040
9671 18193
9671 19191
9671 20341
9672 10312
9672 18954
9672 19442
9672 20531
9672 22344
9673 10673
9673 16272
9674 20940
9675 19828
9675 22962
9676 16660
9676 19318
9676 21658
9677 9749
9677 13939
9679 24452
9680 19353
9680 22798
9681 13508
9681 17649
9681 19032
9682 15677
9683 16558
9683 18012
9684 13283
9684 15908
9684 16353
9685 10390
9685 13790
9685 14160
9685 20375
9686 23706
9686 23868
9687 11163
9687 20814
9687 23307
9688 12943
9688 14168
9688 16227
9688 18886
9689 18372
9691 10695
9691 10959
9691 11666
9691 12620
9691 13361
9691 13675
9691 14391
9691 15024
9691 15293
9691 15798
9691 16764
9691 16842
9691 16905
9691 17038
9691 17687
9691 17797
9691 17853
9691 17986
9691 18949
9691 18997
9691 19198
9691 20159
9691 20672
9691 22156
9691 22460
9692 14039
9692 17978
9692 19828
9692 23473
9693 12819
9693 15445
9693 19022
9693 21834
9694 10037
9694 12948
9694 13251
9694 13471
9694 13541
9694 13599
9694 14214
9694 14309
9694 14742
9694 15965
9694 16772
9694 16972
9694 17283
9694 18918
9694 19899
9694 19934
9694 20203
9694 20403
9694 20881
9694 21015
9694 21152
9694 21206
9694 21719
9694 22233
9694 22291
9694 22663
9694 23153
9695 23515
9696 12924
9696 13928
9696 21703
9697 10217
9697 13039
9697 13631
9697 18393
9698 16441
9698 18954
9698 20473
9699 23138
9700 11996
9700 14282
9700 17141
9700 18307
9701 15944
9701 19797
9701 21004
9702 21556
9703 10471
9703 10816
9703 10994
9703 11203
9703 11873
9703 12661
9703 13269
9703 13485
9703 13989
9703 14241
9703 14261
9703 15079
9703 15185
9703 15267
9703 17093
9703 17483
9703 17570
9703 17669
9703 18135
9703 18164
9703 19584
9703 20352
9703 20772
9703 20803
9703 22137
9704 12108
9704 13453
9704 14950
9704 16804
9704 22292
9706 21556
9707 9855
9707 14268
9707 15880
9707 17232
9707 20388
9708 16230
9708 17697
9710 17520
9710 18584
9710 19498
9710 22223
9711 13047
9711 23030
9712 14961
9713 14938
9713 17419
9713 22599
9714 17911
9715 17339
9715 18708
9716 14588
9717 10500
9717 11149
9717 14735
9717 15254
9717 22285
9718 12829
9718 13744
9718 22450
9718 22649
9719 10850
9720 14513
9720 18782
9720 19923
9721 15884
9721 17161
9721 20062
9721 22352
9722 13199
9722 19661
9723 9907
9723 11407
9723 11539
9723 13437
9723 14055
9723 15088
9723 15701
9723 17914
9723 19667
9723 20339
9723 20445
9723 20532
9723 20832
9723 20978
9723 21381
9723 22158
9723 23807
9723 23902
9723 23967
9723 24089
9723 24215
9723 24418
9725 10673
9726 10246
9726 17341
9727 20043
9727 20179
9728 12303
9728 14486
9728 18900
9729 9840
9729 18851
9729 19164
9729 22774
9730 16795
9731 11657
9732 11657
9732 13514
9733 15156
9733 18377
9733 22326
9734 13086
9734 13537
9734 18238
9735 13228
9735 20588
9736 19388
9737 10622
9738 14999
9738 22913
9739 10242
9739 20890
9739 24395
9740 10796
9740 11206
9740 12190
9740 14414
9740 14585
9740 15613
9740 18468
9740 20561
9741 10172
9741 12763
9741 19630
9741 20082
9741 20794
9742 20311
9742 22951
9743 15612
9743 18881
9743 20647
9744 21029
9745 11297
9745 23968
9745 24187
9746 10643
9746 11957
9746 14808
9746 23497
9747 10973
9747 12897
9747 12938
9747 14637
9747 17885
9748 12305
9748 15400
9748 18335
9748 19602
9749 10659
9749 21082
9751 11650
9751 12533
9751 15230
9752 14457
9752 16966
9752 20179
9752 20193
9752 20926
9753 16994
9754 9756
9754 9757
9754 12996
9754 14992
9754 20426
9754 20427
9754 21726
9755 9758
9755 12993
9755 21726
9756 14992
9756 21726
9756 23786
9757 12993
9757 21726
9758 12993
9758 20426
9758 21726
9759 20376
9759 22287
9760 16054
9761 18335
9762 12198
9762 13295
9762 15804
9762 19217
9762 19600
9762 20574
9762 21872
9763 15802
9763 17657
9763 18816
9763 20541
9764 12038
9764 17204
9764 20790
9765 10240
9765 15110
9765 20735
9765 21556
9765 21614
9765 23087
9766 23138
9767 10761
9767 18388
9768 18406
9769 23005
9770 11870
9770 15615
9770 23492
9771 15482
9771 17772
9772 11120
9773 11916
9773 12671
9773 18589
9774 12359
9774 13786
9774 19929
9775 16532
9775 16868
9776 14127
9776 14481
9776 16658
9776 17336
9776 20919
9777 21492
9778 15751
9779 19731
9779 19770
9780 14978
9780 16692
9780 18333
9780 22309
9780 23887
9780 24038
9781 11125
9781 15258
9781 19473
9782 15612
9782 20647
9783 20153
9785 17148
9785 21285
9786 13617
9786 13740
9786 15569
9786 22235
9787 16824
9787 17569
9787 23052
9787 23306
9787 23326
9788 13276
9788 19635
9788 23590
9790 15351
9791 21381
9791 24215
9792 13873
9792 15452
9793 15538
9793 21894
9794 9795
9794 17356
9794 17357
9795 17355
9796 10434
9796 12680
9796 19744
9797 12561
9797 14265
9798 18515
9798 21190
9798 22485
9798 23179
9800 12627
9800 18405
9800 21225
9801 11365
9801 12463
9801 18598
9801 22491
9802 17163
9802 23200
9803 22138
9804 11176
9804 11794
9804 12181
9804 18827
9805 13261
9805 14828
9807 20475
9807 21830
9807 21831
9807 23739
9807 24094
9807 24439
9808 19611
9809 14495
9809 19593
9809 23329
9811 10420
9811 22972
9812 15096
9812 22417
9813 10053
9813 10583
9813 14162
9813 20668
9813 21556
9814 14217
9814 14252
9814 17162
9814 18163
9814 21881
9815 10052
9815 10245
9815 10571
9815 10758
9815 11089
9815 13884
9815 14592
9815 15591
9815 22904
9816 15275
9816 17182
9817 21681
9818 23850
9819 17025
9820 19096
9821 11715
9821 19567
9822 14833
9822 20617
9823 11423
9823 11705
9823 16647
9824 13992
9824 16641
9824 20050
9825 10088
9825 10902
9825 11969
9825 12115
9826 10629
9826 16173
9826 17209
9827 10108
9827 16510
9827 19215
9828 13153
9828 17910
9828 19321
9829 13676
9829 17149
9829 19063
9830 13186
9830 19136
9831 20137
9831 22993
9832 14139
9832 15375
9832 15641
9832 15644
9832 16988
9833 14325
9833 14327
9834 10577
9834 14354
9834 19727
9834 21799
9834 22791
9835 16917
9835 19729
9836 20793
9837 12334
9837 14228
9837 14277
9837 14846
9838 12950
9838 12951
9838 12952
9838 12955
9839 10700
9839 16863
9839 20020
9839 20866
9840 15425
9840 16544
9840 19072
9841 17305
9842 13689
9842 14659
9842 19328
9842 20263
9845 18402
9845 18991
9845 21992
9846 18286
9846 18375
9846 18998
9846 23100
9847 13162
9848 16746
9848 19386
9848 21511
9849 11070
9851 12095
9851 18846
9852 11609
9852 13673
9853 15607
9855 20388
9856 12989
9856 17162
9856 18138
9857 11827
9857 13354
9857 23413
9858 14385
9858 15381
9859 10249
9859 12990
9860 10962
9860 19952
9860 22386
9860 23501
9863 10828
9863 16753
9863 19046
9863 19275
9863 22648
9864 10405
9864 12773
9865 10559
9865 12593
9865 18803
9866 10219
9866 13336
9866 13404
9866 15944
9866 16311
9866 19797
9866 22370
9866 22796
9867 17992
9867 19318
9867 20107
9868 10146
9868 11545
9868 11674
9868 11977
9868 12582
9868 12969
9868 13484
9868 13693
9868 14095
9868 19043
9868 22810
9869 14092
9869 19635
9869 21105
9870 10526
9870 13448
9870 19170
9871 12972
9871 17687
9871 19075
9872 9874
9872 10358
9872 11355
9872 12485
9872 21339
9872 21536
9872 23743
9873 16615
9873 18201
9873 21814
9874 10358
9874 11355
9874 12485
9874 15119
9874 16676
9874 20706
9874 21536
9874 23470
9874 23743
9875 10798
9875 12735
9875 14572
9875 14637
9875 14653
9875 14845
9875 14941
9875 16914
9875 18188
9875 19113
9875 19715
9876 17840
9876 21252
9877 23637
9877 24044
9877 24269
9878 11659
9880 13207
9880 15360
9881 12523
9881 21942
9882 12376
9882 12559
9882 14814
9882 22465
9882 23483
9883 10977
9883 13007
9883 19992
9883 22848
9883 23350
9885 17305
9886 17583
9886 19363
9886 22890
9887 11563
9887 11607
9887 24017
9887 24123
9887 24180
9888 10379
9888 15496
9888 23722
9888 23844
9889 19248
9890 11588
9890 16812
9891 14430
9891 23141
9892 12759
9892 21090
9893 10653
9893 16256
9893 18489
9894 14031
9894 21976
9894 21977
9894 22570
9895 14914
9895 19327
9896 24284
9896 24487
9897 23979
9897 24164
9898 11705
9898 14336
9899 15612
9899 16619
9899 23450
9900 10221
9900 11183
9900 11211
9900 12313
9900 14976
9900 15959
9901 12502
9901 18415
9901 20539
9902 10154
9902 13159
9902 15737
9902 16424
9902 20880
9903 10584
9903 11938
9903 16284
9903 17671
9903 17672
9903 23649
9904 12615
9904 24257
9905 18189
9905 19350
9905 22551
9906 13503
9906 22359
9907 11407
9907 11539
9907 21381
9909 10616
9909 11152
9909 11537
9909 13092
9909 18763
9909 21376
9909 21553
9910 15201
9910 18902
9911 11031
9911 11070
9911 13917
9911 13952
9911 22967
9911 23443
9912 12303
9912 15735
9912 16275
9912 17498
9913 12786
9913 17855
9913 19811
9914 14128
9914 22112
9915 21893
9916 15351
9916 22281
9917 16921
9917 17101
9918 12585
9918 13747
9918 18967
9919 21437
9920 16366
9920 21294
9920 22364
9920 22366
9920 22367
9920 23371
9920 23491
9921 19758
9922 11971
9922 19622
9922 22425
9923 11636
9923 13697
9923 18494
9924 16163
9924 17701
9924 21429
9924 21736
9925 16612
9926 21181
9926 22885
9927 23564
9928 16532
9928 18526
9929 9931
9929 12955
9929 18568
9930 12953
9930 14381
9930 17613
9930 19194
9931 14381
9932 9962
9932 11311
9932 15764
9932 17207
9932 20106
9933 12380
9934 22138
9935 11139
9935 12533
9935 16405
9935 22097
9935 22914
9936 20800
9937 15877
9938 10324
9938 24304
9939 10346
9939 10540
9939 12830
9940 11514
9940 12538
9940 13314
9940 15074
9940 16960
9941 14612
9941 19438
9941 19898
9942 19744
9942 21439
9942 23331
9943 22352
9944 11112
9945 12897
9946 10139
9946 10959
9946 20861
9946 21556
9947 21437
9948 13155
9948 14729
9948 21975
9949 10853
9949 11569
9949 18644
9950 13706
9950 18533
9950 23838
9950 23913
9950 24347
9950 24456
9951 10825
9951 11173
9951 21813
9952 12079
9952 15145
9952 19381
9952 22290
9953 17644
9953 24246
9954 18978
9955 9956
9955 9958
9955 11042
9955 11043
9955 15391
9956 9958
9956 11042
9956 11043
9956 11044
9957 16272
9957 22597
9957 23624
9958 15391
9959 19834
9961 10171
9961 21253
9961 24203
9961 24229
9962 11244
9962 14916
9962 15764
9963 17096
9965 12413
9965 13005
9965 13272
9965 20248
9967 16379
9967 18346
9967 23276
9968 23775
9968 23871
9968 23910
9968 24287
9968 24398
9969 17471
9969 17535
9969 20676
9969 20878
9969 21385
9970 13898
9971 16781
9971 18550
9971 21556
9972 16021
9973 13620
9975 11586
9975 12895
9975 15240
9975 16139
9975 17408
9975 20473
9975 20838
9975 21195
9975 21910
9976 11060
9976 16374
9976 22660
9977 16513
9977 18290
9977 21850
9978 17200
9979 14170
9979 18315
9980 14600
9980 15041
9980 16651
9981 20537
9982 10729
9982 16296
9982 18095
9982 19385
9982 23244
9983 10324
9984 18189
9984 20404
9985 19094
9985 19242
9986 12264
9986 14408
9986 16810
9987 11861
9987 17687
9988 20032
9989 10066
9989 11810
9989 15507
9989 16298
9989 21559
9989 22616
9989 22684
9989 23408
9990 10013
9991 17859
9992 16298
9992 22616
9992 23408
9993 15797
9993 21123
9993 22008
9993 24348
9994 13835
9994 20820
9995 12792
9995 13181
9995 14657
9995 21316
9996 12897
9996 17025
9997 14999
9997 19988
9997 22913
9998 10165
9998 18300
9998 22836
9999 10351
9999 16795
9999 19553
10001 10245
10001 12029
10002 13376
10002 17774
10002 18788
10002 18892
10002 19804
10003 22231
10003 23038
10004 10702
10004 14343
10004 14344
10004 14552
10004 16102
10004 18355
10004 18358
10004 19040
10004 19120
10004 19434
10004 20857
10004 20866
10004 22075
10005 13453
10005 15945
10005 18631
10005 21675
10005 22266
10005 22365
10006 10809
10006 15053
10007 16360
10007 20729
10007 20964
10008 10409
10008 15986
10008 23911
10009 11493
10009 12237
10010 23910
10010 24010
10011 18178
10012 19923
10012 20107
10013 13015
10013 22038
10014 14877
10014 17419
10014 21673
10015 17534
10015 22046
10016 11141
10016 19606
10016 20966
10017 19687
10018 10678
10018 13061
10018 13517
10018 17900
10018 19505
10018 19680
10018 20601
10018 20771
10018 22894
10018 23841
10020 23994
10021 10211
10021 14050
10021 17069
10021 17223
10021 18767
10021 20173
10021 23726
10021 24073
10021 24302
10021 24383
10021 24409
10021 24473
10022 10485
10022 22592
10022 22904
10023 24413
10024 16953
10025 10507
10025 12630
10025 13885
10025 15587
10025 15714
10025 17993
10025 18558
10025 19959
10025 20299
10025 23579
10026 13448
10026 14010
10026 18197
10026 19125
10027 10163
10027 14817
10027 22526
10028 12120
10028 13210
10030 16229
10030 17521
10031 11902
10031 15940
10031 20634
10032 12557
10032 17691
10032 23516
10032 24122
10032 24153
10032 24206
10032 24277
10032 24470
10033 15791
10033 19196
10033 19956
10034 13901
10034 14182
10034 20448
10034 20624
10034 22433
10034 22995
10035 19789
10035 20335
10036 13334
10036 15107
10036 20123
10037 18685
10037 18918
10039 10503
10039 21129
10039 22904
10040 12452
10041 11116
10041 15471
10041 21068
10042 12974
10042 18304
10043 13744
10043 22450
10043 22649
10044 19171
10044 19173
10044 19174
10045 13803
10045 19999
10045 20771
10046 14917
10046 15776
10046 20587
10046 20834
10046 22108
10046 23878
10046 23908
10046 24057
10046 24310
10046 24443
10047 10365
10047 10371
10047 24260
10048 11114
10048 22067
10048 23277
10049 12612
10049 15175
10049 16817
10049 23542
10050 14895
10050 20568
10050 22053
10051 10189
10051 13880
10051 21670
10051 22814
10052 10571
10052 12029
10052 13884
10052 22904
10053 10122
10053 10583
10053 11457
10053 11833
10053 12183
10053 12832
10053 14162
10053 20668
10053 20915
10054 18050
10054 20717
10054 22391
10055 15145
10055 19381
10056 11391
10056 11660
10056 13833
10056 14701
10056 15233
10056 15585
10056 17573
10056 18523
10056 18524
10056 19656
10056 19661
10056 21578
10056 21689
10056 22588
10056 23186
10056 23540
10057 12615
10057 23870
10057 24096
10058 18504
10058 20694
10058 21698
10059 13052
10059 17457
10059 21073
10060 15537
10060 15769
10060 23145
10062 14694
10063 10395
10063 11329
10063 12509
10063 15747
10063 17119
10063 19547
10063 19882
10063 20135
10063 21482
10065 19985
10065 22668
10066 16549
10066 21557
10066 21559
10066 23705
10067 11340
10068 20771
10068 21508
10069 12571
10069 16865
10069 17612
10069 17830
10070 13166
10071 15326
10072 21265
10073 13885
10073 15587
10074 22666
10075 12569
10076 16122
10076 17920
10077 20771
10078 15351
10079 15953
10079 18940
10079 19633
10079 22680
10080 11157
10080 13509
10080 23126
10081 22053
10082 15583
10082 23749
10083 10647
10083 10786
10083 11976
10083 12861
10083 14247
10084 10829
10084 17681
10084 19736
10084 22214
10085 10545
10085 23821
10085 24370
10086 23776
10086 23792
10087 18508
10087 22170
10087 22496
10089 11528
10089 19248
10090 15100
10090 15725
10090 22349
10091 11648
10091 12775
10091 15792
10091 16261
10091 18260
10091 19294
10091 19483
10091 19944
10091 21522
10091 21905
10091 23137
10092 11514
10092 12450
10092 13314
10092 15074
10092 20224
10093 15033
10093 16275
10093 17484
10093 17578
10093 19084
10094 10709
10094 17418
10094 18686
10094 19634
10095 23942
10097 10567
10098 15315
10099 11657
10099 13514
10100 15717
10100 16779
10100 17675
10100 18573
10101 10762
10101 17248
10102 13210
10102 14623
10102 15268
10102 16068
10102 19456
10103 10104
10103 13245
10103 16458
10104 13245
10104 15872
10104 21470
10105 20527
10106 10143
10106 11675
10106 13604
10106 14301
10106 19514
10106 19855
10106 20949
10106 21029
10107 10841
10107 18708
10108 13118
10108 13681
10108 13815
10108 15349
10109 12613
10110 23784
10110 24285
10110 24436
10111 19197
10111 19611
10111 20461
10112 12776
10112 22281
10113 16768
10113 17447
10113 18632
10114 17212
10114 21767
10114 21768
10115 16317
10116 16763
10116 19600
10117 20645
10117 22055
10118 13126
10119 13838
10119 14009
10119 14872
10119 15019
10119 15316
10119 20930
10119 22906
10119 23634
10120 17094
10120 22857
10122 18898
10122 21556
10123 24093
10123 24154
10124 14408
10124 16810
10124 20969
10125 22824
10126 14883
10127 18846
10128 15440
10128 17270
10128 19607
10129 12333
10129 15177
10129 19601
10130 12860
10130 18469
10130 19104
10131 11937
10131 13320
10131 13690
10131 14189
10131 17180
10131 22389
10132 21929
10133 12560
10133 15320
10133 15788
10133 16079
10134 19202
10134 21455
10135 19687
10136 11748
10136 23962
10136 24366
10137 24324
10138 11895
10138 17816
10139 13197
10139 20861
10141 23785
10141 23827
10142 10328
10142 13440
10142 21272
10143 19855
10144 16584
10145 13487
10146 11977
10146 19043
10147 11233
10147 14772
10147 19035
10148 10940
10148 14567
10148 22557
10149 17593
10149 20534
10150 10999
10151 10327
10152 11512
10152 17851
10152 23189
10153 13723
10154 13159
10154 15737
10154 20880
10155 18504
10155 20694
10156 14021
10156 16288
10156 18618
10157 21426
10157 22866
10159 11221
10159 11624
10159 11688
10159 18612
10159 20812
10159 21067
10160 17347
10161 11636
10161 14460
10162 24067
10162 24321
10164 11571
10164 13190
10164 18177
10164 21614
10164 22822
10165 18301
10165 22836
10166 14432
10166 17608
10166 19214
10166 19848
10166 20980
10167 11459
10167 12578
10167 18586
10167 20363
10168 16077
10168 17842
10169 19953
10169 24436
10170 16074
10170 17841
10171 10642
10172 12763
10172 20794
10173 11528
10174 14360
10174 15383
10174 18304
10174 19946
10175 14676
10175 16809
10176 12994
10176 13664
10177 12160
10177 13317
10177 19504
10178 17736
10178 17737
10179 15123
10179 15631
10180 10691
10180 12527
10180 23243
10181 12864
10181 22365
10182 12386
10182 12457
10182 17260
10182 17617
10182 23319
10183 11648
10183 15893
10183 19294
10184 21856
10184 22702
10185 19653
10186 18396
10186 21968
10186 23677
10186 24046
10186 24129
10186 24458
10187 13044
10187 19205
10189 13880
10190 17202
10191 22701
10191 22757
10192 11378
10192 22080
10193 13921
10193 19691
10193 20717
10193 20732
10194 15087
10195 18190
10196 13023
10196 14446
10197 12405
10197 22745
10198 13846
10198 14840
10198 20402
10199 13122
10199 15457
10199 15458
10199 22138
10200 12051
10200 21050
10201 15022
10201 16031
10201 19529
10202 10203
10202 11269
10202 11270
10202 16577
10203 10204
10203 11268
10203 11270
10203 11283
10203 20984
10203 22837
10204 11270
10204 16577
10204 18011
10204 20984
10206 12381
10206 14890
10206 15583
10206 16273
10206 21896
10207 12359
10207 13786
10208 10450
10208 23009
10209 12606
10209 21853
10211 14050
10211 17069
10211 23353
10211 24073
10211 24473
10212 23952
10213 11290
10213 11429
10213 12552
10213 21168
10214 18849
10216 18198
10216 19034
10217 14409
10217 15444
10218 12897
10218 15818
10218 21181
10219 15944
10219 22796
10220 11913
10220 21064
10221 11183
10221 11211
10221 12313
10221 12340
10221 14976
10221 19006
10221 19331
10222 12113
10222 12596
10223 19968
10223 21457
10223 23356
10224 10650
10225 18038
10225 20210
10225 22500
10226 13870
10226 18166
10226 19923
10227 10232
10227 11319
10227 22764
10228 11320
10228 13423
10228 15906
10228 22762
10229 16232
10229 24441
10230 10574
10230 15466
10230 15669
10230 16094
10230 17084
10230 18681
10230 20378
10230 21130
10231 11319
10231 13528
10232 22764
10233 12247
10233 16473
10233 24402
10234 12196
10234 16609
10234 21080
10235 19108
10236 23913
10237 17812
10237 18366
10237 19878
10238 10608
10238 15933
10238 17623
10238 21717
10239 13795
10240 21556
10241 11442
10241 20889
10243 23822
10243 24190
10243 24249
10244 14212
10244 22990
10244 23013
10245 10758
10245 11150
10245 11834
10245 11960
10245 12563
10245 13399
10245 13734
10245 13884
10245 14389
10245 14529
10245 14608
10245 15157
10245 15297
10245 15591
10245 15983
10245 16465
10245 16564
10245 17489
10245 17624
10245 17867
10245 17947
10245 18171
10245 18715
10245 18756
10245 19227
10245 19618
10245 19845
10245 20410
10245 20538
10245 20697
10245 21057
10245 21078
10245 21973
10245 23313
10246 14196
10246 15111
10246 17341
10246 19272
10246 20421
10246 22772
10247 16631
10247 23488
10248 14131
10248 22681
10249 14551
10250 14496
10250 14963
10250 15917
10250 16024
10250 16805
10250 17146
10250 17472
10250 21209
10250 22315
10251 16880
10251 19202
10251 20913
10251 21489
10253 12639
10253 14133
10253 15257
10253 23434
10254 11336
10254 16122
10254 16937
10254 17920
10254 18946
10255 20966
10255 22759
10256 13653
10256 22231
10257 15807
10257 16714
10257 19965
10257 22486
10258 22569
10259 10365
10259 10369
10259 24260
10260 11500
10260 15540
10260 18664
10260 23286
10261 13759
10261 14710
10261 14713
10262 19713
10263 15792
10263 16898
10263 21905
10264 11583
10264 12473
10264 22185
10264 22696
10265 11789
10265 13066
10265 15473
10265 23304
10266 11344
10266 12353
10266 15420
10267 19687
10268 11093
10268 13666
10268 14002
10269 13426
10269 13992
10269 16861
10269 20050
10269 21292
10271 15805
10271 21398
10272 11623
10272 13959
10272 15244
10272 17717
10273 17120
10273 18859
10273 20536
10273 22840
10274 18629
10274 20635
10274 20997
10275 11237
10275 16844
10276 10764
10276 12735
10276 18886
10277 16363
10277 20894
10278 15991
10278 19338
10279 12412
10279 23009
10280 15877
10280 17411
10281 12433
10281 12929
10281 14101
10281 14625
10282 11774
10282 17758
10282 18148
10282 23461
10283 13889
10283 18228
10284 19602
10284 22599
10285 15659
10285 20413
10286 24008
10286 24176
10286 24225
10287 19535
10288 10533
10288 20743
10289 11019
10289 16635
10289 20565
10289 23415
10289 23662
10290 11318
10291 11195
10291 16623
10291 21348
10292 18432
10293 11634
10293 23387
10294 11634
10294 13365
10295 19069
10295 22414
10296 11986
10296 15734
10297 20835
10298 13062
10298 21335
10298 21610
10298 23477
10300 10506
10300 13870
10301 20592
10301 22220
10302 18215
10302 20382
10303 13656
10303 14537
10303 14562
10303 20013
10303 22842
10304 19992
10304 22848
10305 10539
10305 22046
10306 11463
10306 16121
10306 18565
10306 18926
10307 13289
10307 15131
10307 18774
10308 20970
10308 23390
10309 18900
10309 22053
10310 23067
10311 23987
10312 20531
10313 10315
10314 17133
10314 17635
10315 10316
10315 14067
10315 19989
10316 14067
10317 10893
10317 21711
10318 18282
10319 14137
10320 13463
10320 15455
10320 16631
10321 13427
10321 19460
10322 10826
10322 11467
10322 13606
10322 14089
10322 19940
10323 18040
10323 19283
10323 20486
10324 11908
10324 23812
10324 24304
10325 15564
10325 16982
10325 18514
10326 23952
10326 24344
10327 13650
10327 13790
10327 15734
10327 20080
10327 21041
10328 11398
10328 13440
10328 13906
10328 15060
10328 15176
10328 19374
10329 20586
10330 20572
10330 21074
10331 18116
10331 21954
10332 18864
10332 19237
10332 19595
10333 13487
10333 19398
10334 19973
10334 21655
10335 14102
10335 15292
10336 13414
10336 17813
10337 15260
10338 12353
10339 16107
10340 13285
10340 15801
10340 18288
10340 20437
10340 23410
10341 14285
10341 16462
10341 17767
10341 21891
10341 23411
10342 20909
10343 18478
10344 19492
10345 18632
10345 20973
10346 10540
10346 12830
10346 19481
10346 21499
10347 12752
10347 15359
10347 15782
10347 20519
10347 23603
10348 16319
10348 24319
10348 24321
10349 11290
10349 12552
10350 11911
10350 12891
10350 19318
10350 22025
10351 12283
10351 16795
10351 17663
10351 18593
10351 21286
10351 23248
10352 14071
10352 19198
10352 21725
10352 22156
10353 14284
10353 16238
10353 18477
10354 11243
10354 14170
10356 23550
10357 10735
10357 11061
10357 11592
10358 10983
10358 12485
10358 13983
10358 15119
10358 17629
10358 21191
10358 21339
10358 22719
10358 23470
10359 23331
10360 24254
10361 24316
10361 24317
10362 15607
10363 11346
10363 19452
10364 13807
10364 18671
10365 24260
10365 24334
10366 12525
10367 15580
10368 14012
10368 14261
10368 18885
10369 10371
10369 10373
10369 20810
10370 10372
10370 15081
10371 20810
10371 22779
10372 14064
10372 15081
10372 19245
10372 19246
10373 14947
10373 19245
10373 22687
10373 23679
10374 24005
10374 24111
10375 23988
10376 19043
10377 10380
10377 13787
10377 15851
10377 16707
10378 13676
10378 14125
10378 19063
10381 21415
10382 12099
10383 11260
10384 12629
10385 11914
10385 18785
10385 21595
10388 11199
10388 17687
10388 21593
10389 12227
10390 18021
10390 20375
10390 22145
10391 10716
10391 15072
10391 17649
10391 22376
10391 22630
10392 20623
10392 22867
10393 10880
10393 11780
10394 17690
10395 11610
10395 21556
10396 19687
10397 12028
10397 14428
10397 16364
10397 16717
10397 17752
10397 17766
10397 18216
10397 18597
10397 18598
10397 19549
10397 20556
10397 21598
10397 22491
10398 15000
10398 22484
10398 22781
10398 23057
10398 23221
10399 15961
10399 20122
10400 11297
10400 12551
10400 23938
10401 13344
10403 21786
10404 12557
10404 24024
10404 24147
10404 24264
10406 13004
10407 24458
10408 20043
10409 12426
10409 15768
10409 22106
10409 23911
10409 23965
10410 10734
10410 16579
10410 22820
10411 16866
10412 21181
10413 19872
10414 14037
10414 18488
10414 20482
10415 14946
10415 15009
10415 20054
10416 11151
10416 15665
10416 18779
10417 10618
10417 10754
10417 11066
10417 11178
10417 11732
10417 16300
10417 21543
10417 22591
10418 18069
10418 19023
10418 21904
10418 22522
10418 23968
10419 10654
10419 11126
10419 18180
10419 23837
10419 24136
10419 24403
10420 16617
10420 21186
10421 13453
10421 14487
10421 19564
10421 22365
10422 11567
10422 11724
10422 17167
10423 10433
10423 11561
10423 19649
10425 15415
10425 22310
10426 10721
10426 15881
10426 15898
10426 20219
10427 18363
10428 20878
10429 16425
10429 16782
10429 17748
10429 20108
10429 20544
10430 10621
10430 15987
10430 23230
10431 11364
10431 12110
10431 13775
10431 14716
10431 15535
10431 19838
10431 21960
10432 14474
10432 18884
10432 23365
10433 22788
10434 14339
10434 15403
10434 15770
10434 16569
10434 17175
10434 18783
10434 19175
10434 20337
10435 17003
10436 12579
10436 23548
10437 14034
10437 14059
10437 15791
10437 17718
10437 19956
10437 21079
10438 16307
10438 19545
10438 21556
10439 23369
10440 17287
10440 20209
10441 13289
10441 15131
10441 16982
10441 17254
10442 13623
10442 19879
10442 20545
10442 22998
10443 24097
10443 24158
10444 11428
10444 23851
10444 24248
10444 24468
10445 14071
10445 21614
10446 12112
10446 14640
10446 18701
10446 20149
10446 22400
10447 14192
10447 18475
10447 21295
10448 12326
10448 13100
10448 14330
10448 17097
10449 12366
10449 21572
10449 23142
10449 23536
10450 12412
10450 23009
10451 24145
10451 24480
10452 17738
10452 19557
10453 11120
10453 16754
10453 21735
10454 14475
10454 19042
10454 20003
10454 21009
10455 24145
10456 12395
10456 21535
10457 13940
10457 16706
10457 17679
10457 23464
10458 17006
10458 18816
10458 23483
10459 23827
10460 12456
10460 22889
10460 23362
10461 13522
10462 15810
10462 19021
10464 22356
10464 23065
10465 16858
10465 18491
10465 20639
10465 21446
10465 22928
10467 17541
10467 17626
10467 19772
10468 12391
10469 14045
10469 19197
10469 19611
10469 20461
10469 21488
10470 13182
10470 13490
10470 15241
10470 18305
10470 21680
10470 22168
10470 22547
10471 13265
10471 15062
10471 15079
10471 16168
10471 16975
10471 18141
10471 20801
10471 21211
10472 17347
10473 14288
10473 19471
10474 21711
10475 19240
10476 14621
10476 17583
10476 23002
10477 12324
10477 12365
10477 20258
10477 22336
10478 18286
10478 18998
10479 12608
10479 18777
10479 19329
10480 18061
10480 21234
10480 23138
10481 13128
10481 19486
10482 14227
10482 16089
10482 22143
10483 10805
10483 13696
10483 14782
10485 16883
10485 19824
10485 20806
10486 15097
10486 17113
10486 19660
10487 15527
10487 18584
10488 11829
10488 21021
10489 16318
10489 17959
10490 12997
10490 14135
10491 11579
10491 15802
10492 13194
10492 14507
10492 17600
10492 21861
10492 23337
10493 21359
10493 22631
10494 23509
10495 12227
10496 12031
10496 14693
10496 22518
10497 12897
10497 15818
10498 12896
10499 10543
10499 10905
10499 10908
10499 22726
10499 22727
10499 23971
10499 23976
10500 11149
10500 22285
10501 13033
10501 21133
10501 22453
10501 23622
10501 24091
10501 24216
10502 21186
10502 22972
10503 10599
10503 12053
10503 13346
10503 15306
10503 15712
10503 19210
10503 19824
10503 21764
10503 22735
10504 16791
10504 17724
10505 16904
10505 20160
10506 16233
10506 20377
10507 15587
10508 13023
10508 14446
10509 15628
10509 21256
10509 23352
10510 23503
10510 24177
10510 24299
10511 24054
10511 24392
10512 20870
10512 23638
10512 24164
10513 23667
10513 24099
10514 21760
10515 12551
10516 10518
10516 23667
10516 23973
10517 14675
10517 23655
10517 23830
10518 19990
10518 24414
10519 24014
10519 24221
10519 24468
10521 10736
10521 15935
10521 18172
10522 17697
10523 12966
10524 24446
10525 17533
10525 21212
10526 10832
10526 11484
10526 13448
10526 19170
10526 21019
10526 22099
10527 15056
10527 15199
10528 14365
10528 19959
10529 12746
10529 21854
10529 23508
10530 17037
10530 19868
10530 23197
10531 10550
10531 15539
10531 21556
10532 11648
10533 20743
10535 19687
10535 21902
10536 12884
10536 14278
10536 18925
10537 14059
10537 20517
10538 21988
10539 15971
10539 20872
10540 11385
10540 12830
10540 21499
10541 17514
10541 20473
10541 23614
10542 11021
10543 19784
10543 23996
10544 10547
10544 17200
10545 24142
10545 24456
10545 24472
10546 15178
10546 20781
10546 24071
10547 10548
10547 14926
10547 17200
10547 23571
10547 24440
10548 17200
10549 11513
10549 21009
10550 16636
10552 17750
10552 23000
10553 15538
10553 15704
10554 13076
10554 14183
10554 21903
10555 13870
10555 16233
10555 16927
10555 17992
10555 19783
10556 15812
10556 16461
10556 22662
10557 12570
10557 15415
10558 13240
10558 17392
10558 18448
10558 19068
10558 19554
10558 20119
10558 20327
10558 20496
10558 21590
10558 21957
10558 22149
10559 13608
10559 14086
10560 12954
10560 21188
10560 22817
10561 14594
10562 12321
10562 20051
10563 20967
10564 15350
10564 18962
10565 13090
10565 21893
10566 13457
10566 18851
10566 22774
10567 11728
10567 12104
10567 13356
10567 14223
10567 18086
10567 20753
10568 11649
10568 21792
10569 11685
10569 14333
10569 18271
10570 11409
10570 16152
10570 17444
10571 10873
10571 11543
10571 11720
10571 11834
10571 12038
10571 12584
10571 12591
10571 13304
10571 13358
10571 13399
10571 13947
10571 13979
10571 14529
10571 14595
10571 14794
10571 15591
10571 15983
10571 16277
10571 16564
10571 17489
10571 17624
10571 17867
10571 18171
10571 18707
10571 18715
10571 18738
10571 18838
10571 18908
10571 18942
10571 19020
10571 19227
10571 19590
10571 19618
10571 19922
10571 20538
10571 20667
10571 21764
10571 23313
10571 23314
10571 23469
10571 23576
10572 11321
10572 17493
10573 23941
10574 16094
10576 12204
10576 13468
10577 20769
10577 21799
10578 13274
10578 14195
10578 14844
10578 16006
10578 17440
10578 18162
10579 16019
10579 19092
10580 10581
10580 16019
10580 19092
10582 11966
10582 15120
10582 22074
10584 14754
10584 16284
10584 17670
10584 17671
10585 23915
10585 24243
10586 20595
10586 21578
10587 14690
10587 23610
10588 12223
10588 14526
10588 16402
10589 13178
10589 13798
10589 16607
10589 21626
10590 10892
10590 14897
10590 15885
10591 11786
10591 13098
10591 13680
10591 15740
10592 20388
10593 11169
10593 11929
10593 12065
10593 12098
10593 12219
10593 12559
10593 12712
10593 12821
10593 13145
10593 13169
10593 13193
10593 14360
10593 15144
10593 15263
10593 15383
10593 15742
10593 16235
10593 16365
10593 16774
10593 16967
10593 17045
10593 17279
10593 17875
10593 18744
10593 19825
10593 20737
10593 21382
10593 21764
10593 22070
10593 22405
10593 22451
10593 22977
10593 23459
10594 18286
10595 12971
10596 14478
10596 16011
10597 14919
10598 11665
10598 24130
10599 12242
10599 20853
10601 19427
10602 22200
10603 10669
10603 11063
10603 24159
10604 10784
10604 11007
10604 11858
10604 11861
10604 12620
10604 13669
10604 19234
10604 20487
10604 20567
10604 24455
10605 18998
10605 22005
10606 11790
10606 21507
10607 13807
10608 10978
10608 17623
10608 17632
10608 18672
10608 20405
10608 21483
10608 21717
10608 22769
10610 16162
10610 16699
10610 17109
10610 22785
10611 13207
10611 19398
10612 16597
10613 13933
10613 14577
10613 18631
10614 10946
10614 17870
10614 19009
10614 19811
10614 21886
10615 18472
10616 11537
10616 13092
10616 13408
10616 18763
10616 21376
10616 21553
10617 13442
10617 18348
10618 16076
10619 13755
10620 12321
10621 20885
10621 23230
10622 10623
10622 12496
10622 14740
10622 15243
10623 14740
10623 15955
10623 16177
10624 17447
10624 18632
10625 13933
10625 18631
10625 20618
10626 12819
10626 19022
10627 11544
10627 11638
10627 14352
10627 15408
10627 16396
10628 12497
10628 13083
10628 14273
10628 18323
10628 18519
10628 21978
10628 22141
10630 14866
10630 14868
10630 14871
10630 15843
10631 12033
10631 13170
10631 16531
10632 10634
10632 16384
10632 20040
10633 14776
10633 20143
10633 22934
10635 12864
10635 16307
10635 19002
10636 12673
10636 17070
10636 20401
10636 23103
10637 15997
10637 16631
10638 17637
10639 10712
10639 12586
10639 13924
10639 15493
10639 18016
10639 20039
10639 20696
10639 21975
10640 19810
10641 20847
10641 23851
10642 24229
10642 24454
10643 11957
10644 23532
10645 11864
10645 12777
10645 16666
10645 20017
10646 11428
10646 14675
10646 18532
10646 23655
10646 23830
10646 24248
10647 11976
10647 12861
10647 14247
10647 21688
10648 12742
10648 16328
10648 16394
10648 17616
10649 11609
10649 17628
10650 11679
10650 13191
10650 24429
10651 10908
10651 14763
10651 14764
10651 23827
10651 23942
10651 24033
10652 16734
10653 15064
10653 21827
10654 24256
10654 24318
10655 21477
10656 13317
10656 14612
10657 23267
10658 22988
10659 21405
10660 12801
10660 14813
10661 16370
10661 16538
10661 17443
10662 10853
10662 11569
10662 20660
10663 13059
10663 19631
10664 18261
10664 18631
10665 11513
10665 14569
10665 19611
10667 14126
10667 19231
10669 11063
10670 17405
10671 11758
10671 16331
10671 16943
10671 17151
10671 19152
10671 20960
10671 21161
10672 16097
10672 21267
10672 22173
10672 23308
10673 10986
10673 12864
10673 14052
10673 17072
10673 20873
10674 19427
10675 16756
10675 23008
10676 15997
10676 16631
10677 14921
10677 16722
10678 10968
10678 11949
10678 12632
10678 16858
10678 17900
10678 20601
10679 17394
10679 22986
10679 23666
10680 15869
10680 16130
10680 17539
10680 22462
10680 23316
10681 14645
10682 11575
10683 12141
10683 17887
10683 21288
10684 11255
10684 11280
10684 12389
10684 14147
10684 15288
10684 19325
10685 22914
10685 23161
10686 15351
10687 17866
10687 22692
10688 17305
10689 19912
10690 11372
10690 18854
10690 19843
10691 11795
10691 16771
10691 23243
10692 12079
10692 13419
10692 15145
10692 21437
10693 11256
10693 14783
10694 13111
10694 21614
10695 15110
10695 18234
10696 17730
10696 18452
10696 19249
10696 21742
10698 12985
10698 15406
10698 19560
10698 21626
10699 12164
10699 13658
10699 18850
10699 22181
10699 22915
10700 10701
10700 13249
10700 13323
10700 16863
10700 20020
10700 20021
10700 20866
10701 20020
10702 14344
10702 20554
10703 14606
10703 20971
10703 21341
10703 22936
10704 10845
10704 16004
10704 16734
10704 18585
10705 16700
10705 21958
10707 22193
10708 15705
10709 18686
10712 13155
10712 14383
10712 14729
10712 15493
10712 17838
10712 21975
10713 12943
10713 14168
10713 18025
10714 10715
10714 11081
10714 11796
10714 11797
10715 11081
10715 11797
10716 15072
10716 22376
10717 16769
10717 17669
10717 17846
10717 20282
10718 15889
10718 16696
10718 16912
10718 23047
10719 15550
10719 19558
10719 21931
10720 20146
10720 23895
10721 20219
10722 12912
10722 15590
10722 15691
10723 13298
10724 14423
10724 18028
10725 21953
10726 12224
10726 21937
10726 22622
10727 19370
10727 20554
10727 20866
10728 19625
10728 22678
10728 23319
10729 14909
10729 18095
10729 18272
10730 23264
10731 15802
10731 23067
10732 13522
10732 17347
10732 20927
10733 14429
10734 19670
10734 22820
10735 18285
10736 15287
10736 15935
10736 18172
10736 19302
10737 12193
10737 12209
10737 12354
10737 13070
10737 16142
10737 19577
10738 11242
10738 16127
10738 21638
10739 23132
10739 23297
10740 11980
10740 12940
10740 14232
10740 14279
10740 15978
10740 16378
10740 22197
10740 23312
10740 23919
10740 23920
10740 24400
10740 24435
10741 19439
10742 17898
10742 18678
10742 21868
10743 21498
10744 23395
10744 24075
10746 10853
10746 11765
10746 12885
10746 15248
10746 18644
10748 15392
10748 21043
10749 12258
10750 16852
10750 17384
10750 18359
10750 20190
10751 11079
10751 11354
10751 12138
10751 12682
10751 14750
10751 15335
10751 19470
10751 19746
10751 20777
10751 20839
10751 20911
10751 21930
10752 11830
10752 16563
10752 23054
10753 18709
10753 21933
10754 16300
10755 17765
10755 18846
10755 19973
10756 12390
10756 14440
10757 12044
10757 19826
10757 21235
10758 13884
10759 15168
10759 19442
10759 19738
10759 23059
10760 10794
10760 10885
10760 15519
10760 16164
10760 16418
10760 16654
10760 19541
10760 21052
10761 11662
10761 12486
10761 12965
10761 16412
10761 16702
10761 17545
10761 18388
10761 19372
10761 21422
10761 22276
10761 22415
10761 23062
10762 12568
10762 16948
10762 17248
10763 11424
10763 17375
10763 20101
10764 18886
10765 12629
10766 12337
10766 18461
10766 20898
10767 21387
10768 14672
10768 21800
10768 22521
10768 22607
10769 14589
10769 15990
10769 21151
10770 18103
10770 19728
10770 21126
10771 10819
10771 11519
10771 15086
10771 17400
10773 11717
10773 15630
10774 15271
10774 15968
10774 22565
10775 15727
10776 16856
10777 18782
10778 22138
10779 18982
10779 19465
10780 11131
10780 19225
10780 22891
10781 18940
10781 19633
10782 14901
10782 17681
10782 22214
10783 13034
10783 15972
10783 23813
10784 19234
10784 21113
10785 13855
10785 14915
10785 24280
10785 24282
10786 14247
10786 14519
10786 23055
10787 11830
10787 11939
10787 14315
10787 16563
10787 20991
10787 23054
10788 10853
10788 11569
10788 20746
10790 20835
10790 21875
10791 23778
10792 11926
10792 23734
10793 23575
10793 23783
10793 23926
10794 15519
10795 18631
10795 23344
10796 11206
10796 12190
10796 14261
10796 14293
10796 14414
10796 15613
10796 18468
10796 20561
10797 12460
10797 15667
10797 17339
10797 18708
10797 20252
10797 23023
10799 18631
10800 12542
10800 12958
10800 18972
10800 20133
10800 23021
10801 16017
10802 18717
10802 22469
10803 14498
10804 12358
10804 22126
10805 11250
10805 13677
10805 15090
10805 15386
10805 17385
10805 18795
10805 21233
10806 13008
10806 13609
10806 16621
10806 21763
10808 20100
10808 22392
10808 24061
10808 24205
10809 14533
10809 23339
10811 14804
10813 13870
10813 16927
10814 11929
10814 17875
10815 17259
10816 18098
10817 12343
10817 14015
10817 15878
10817 16987
10817 17374
10817 18386
10817 19774
10817 20000
10817 20117
10818 15201
10819 15086
10819 20239
10819 21296
10820 14104
10821 15733
10821 17877
10821 18364
10821 18909
10821 20540
10821 21449
10822 13870
10822 16927
10822 17992
10823 12632
10823 16608
10823 17233
10823 19628
10823 20506
10823 22921
10823 23466
10823 23563
10824 12303
10824 12735
10824 12897
10825 11173
10825 13091
10826 22193
10827 18569
10827 22002
10828 18647
10829 17546
10829 17681
10830 18627
10830 22461
10831 17847
10831 20724
10832 13448
10832 14316
10832 21019
10833 14833
10833 15350
10833 18962
10834 21283
10835 17871
10836 17712
10836 18035
10837 15868
10837 19151
10837 19191
10837 20341
10838 11486
10838 17935
10841 10972
10842 13750
10842 19032
10842 19143
10842 20902
10843 13125
10843 13413
10843 18862
10844 20092
10844 22035
10844 22279
10845 16004
10846 11936
10846 14797
10848 19022
10848 21685
10849 15500
10849 21334
10849 22352
10851 12019
10851 18717
10851 21218
10852 16007
10853 11765
10853 12186
10853 12408
10853 12432
10853 12885
10853 12906
10853 13679
10853 13858
10853 14226
10853 15226
10853 15520
10853 15570
10853 15693
10853 16778
10853 17879
10853 18056
10853 18644
10853 19048
10853 19895
10853 20621
10853 20746
10853 20805
10853 21876
10854 16608
10854 20189
10854 20771
10855 12225
10855 13312
10855 20904
10856 19318
10857 18488
10858 17505
10858 18508
10858 22170
10859 15123
10861 15506
10861 17228
10861 19820
10861 22895
10862 23825
10863 13386
10863 19070
10864 11109
10864 24117
10864 24465
10864 24476
10865 12607
10865 12610
10865 17129
10865 18294
10866 10924
10866 12662
10866 19375
10866 23689
10866 23974
10866 24204
10867 11550
10867 12245
10867 23921
10867 24204
10868 13539
10868 13808
10868 17788
10868 21757
10868 23763
10869 18791
10870 19687
10870 20087
10871 18525
10872 12646
10872 18496
10872 24129
10872 24156
10872 24458
10873 13884
10873 22904
10874 11448
10875 11488
10875 19721
10876 12142
10876 16627
10876 18638
10876 20517
10877 13428
10877 14633
10878 18992
10878 20380
10879 11173
10879 21813
10880 11069
10880 22602
10881 12499
10881 16782
10881 19181
10881 20108
10882 11752
10883 14851
10883 19427
10884 21844
10885 15519
10886 20474
10887 11689
10887 13995
10887 20073
10888 14186
10888 17999
10889 14997
10889 21529
10890 16095
10891 13918
10891 21849
10893 11653
10893 11741
10893 11779
10893 12683
10893 12696
10893 13221
10893 13566
10893 14115
10893 14200
10893 14319
10893 14598
10893 14838
10893 15332
10893 15394
10893 15875
10893 16553
10893 17135
10893 17321
10893 17601
10893 19948
10893 20061
10893 20184
10893 20376
10893 20582
10893 20863
10893 21028
10893 22287
10893 22549
10894 18381
10894 21222
10894 21911
10895 17042
10895 18543
10895 20419
10895 20985
10895 22193
10895 23098
10896 21593
10896 21614
10897 22055
10898 12926
10899 20636
10899 22525
10900 13329
10901 13910
10901 14732
10901 16877
10901 19079
10902 12115
10902 24444
10903 15323
10903 16373
10903 17343
10904 11697
10904 14191
10904 16638
10904 16924
10905 10908
10905 13203
10905 23901
10905 24234
10906 11162
10906 24465
10907 12036
10907 16451
10907 23850
10909 19330
10909 19424
10910 17756
10910 21273
10912 19441
10913 13055
10913 17719
10914 13441
10914 13545
10914 15228
10914 16136
10914 17272
10914 17488
10914 21333
10914 23101
10915 14877
10916 12731
10918 22962
10919 20755
10920 16271
10920 17237
10920 17784
10920 23098
10921 13317
10921 13685
10921 16876
10921 22268
10922 15324
10922 16909
10922 18087
10922 19641
10923 12348
10923 21764
10923 22592
10924 11550
10924 24204
10925 11883
10925 18281
10926 20078
10926 20181
10926 21383
10927 20281
10927 23326
10928 11107
10928 16552
10928 16967
10928 23459
10929 11412
10929 12999
10929 16316
10930 12000
10930 12898
10930 17786
10930 18754
10930 19310
10930 22218
10930 23163
10931 21186
10931 22972
10932 13306
10932 15149
10932 16881
10932 18894
10932 19814
10933 15558
10934 23312
10934 24400
10935 13660
10935 19454
10935 19852
10935 20862
10936 19749
10937 15184
10939 11656
10939 19862
10939 20689
10940 15679
10941 21527
10941 22708
10942 13284
10942 15718
10942 19109
10942 19382
10942 22352
10942 22657
10943 15581
10943 23438
10944 16086
10944 19835
10945 13854
10947 17710
10947 21793
10948 12113
10948 12494
10948 13221
10948 23507
10949 13278
10949 16557
10949 18823
10950 13231
10950 18028
10951 20424
10951 22529
10952 11449
10952 18213
10953 15752
10955 12900
10955 13665
10955 17259
10955 18236
10956 11827
10956 14484
10956 23046
10957 19178
10957 22401
10958 13652
10958 19097
10959 15427
10959 20861
10960 16853
10961 17068
10961 21222
10961 21911
10961 22529
10963 11624
10963 18612
10963 22171
10964 11842
10964 23735
10965 14933
10965 16423
10966 21361
10967 16166
10967 20533
10968 12632
10969 13295
10970 13449
10970 14539
10970 17969
10971 12095
10971 18846
10972 18708
10972 20252
10973 14653
10974 12963
10974 15039
10974 16054
10974 16115
10974 17297
10974 20510
10975 14609
10975 22786
10976 17332
10976 20758
10976 21170
10977 22848
10978 22769
10979 17577
10979 21403
10979 23133
10980 17354
10980 21064
10980 21310
10981 18190
10981 18687
10982 11057
10982 12252
10982 23859
10982 23952
10983 21191
10983 23755
10984 11980
10984 23809
10985 11556
10985 14987
10985 15224
10985 17215
10985 19698
10985 20826
10987 13227
10987 18740
10987 19723
10988 23912
10988 24070
10989 11347
10989 13645
10989 20236
10990 11669
10990 13558
10990 21969
10991 12260
10991 19386
10992 18568
10992 20370
10992 23047
10993 13507
10993 13939
10993 22680
10994 17077
10994 17570
10994 17669
10995 12782
10995 17842
10995 18577
10995 19710
10995 23109
10995 23195
10995 23695
10995 24353
10995 24438
10996 18453
10997 11141
10997 11718
10998 21505
10999 11816
10999 17380
10999 19152
10999 21153
11000 11513
11000 14933
11000 21009
11000 22913
11001 17334
11001 20210
11002 11293
11002 11970
11002 12674
11002 14717
11002 18316
11002 19456
11002 23213
11002 23266
11002 24290
11005 20587
11005 22108
11005 24057
11005 24443
11006 14122
11006 21446
11006 22928
11007 11861
11008 17996
11008 20771
11009 17165
11009 18053
11009 22228
11010 11941
11011 14128
11011 22112
11012 15178
11012 23874
11012 24071
11013 19150
11014 11959
11014 13107
11014 14967
11014 15094
11014 15216
11014 18319
11014 18933
11014 19526
11014 20310
11014 21259
11014 23122
11015 15849
11015 16884
11015 18626
11015 19806
11015 19807
11015 23199
11016 21204
11016 23910
11016 24143
11017 15344
11018 15178
11018 23787
11018 24071
11019 19479
11019 20565
11019 23662
11020 11021
11020 14145
11020 18003
11020 18426
11020 20393
11021 11022
11021 13572
11021 15442
11021 15800
11021 20289
11022 14145
11022 18426
11024 12434
11024 19259
11024 19878
11025 23139
11026 22732
11027 13133
11027 13449
11027 13630
11027 15163
11027 20422
11028 19675
11028 23912
11028 24070
11028 24477
11029 12746
11029 21854
11030 13111
11030 21614
11031 13917
11031 18769
11031 23443
11032 21614
11033 11678
11033 17490
11033 23193
11034 12095
11034 18846
11036 13154
11036 21914
11036 22520
11037 24263
11037 24357
11039 16835
11039 22357
11040 12303
11041 13427
11041 21106
11042 11043
11042 11044
11042 15391
11043 11044
11043 15391
11044 22324
11045 17847
11045 20492
11046 13842
11047 13456
11047 15987
11047 16488
11047 20819
11047 23230
11047 23263
11047 23276
11048 16109
11048 16178
11048 17940
11050 18782
11052 18692
11052 21254
11053 11054
11053 15847
11053 17772
11053 18655
11053 23099
11053 23151
11054 18655
11054 22773
11055 13692
11055 14819
11055 16871
11055 21918
11056 12047
11056 14348
11056 15501
11056 16913
11056 19397
11056 21192
11057 12291
11057 16603
11057 23660
11057 23867
11057 24225
11058 13520
11058 14786
11058 18815
11058 18845
11058 20260
11059 12667
11059 18669
11060 22660
11061 13059
11061 17963
11061 19631
11061 20703
11061 22634
11061 22809
11061 23020
11063 17931
11063 21063
11063 23325
11064 11425
11064 15041
11064 16254
11065 12326
11065 17097
11065 17180
11066 16076
11066 16300
11067 22972
11068 14135
11068 20164
11069 11780
11069 18370
11071 18189
11072 12218
11072 12594
11072 13300
11072 16054
11072 18031
11072 19106
11073 11870
11073 21673
11074 11517
11075 11868
11076 14902
11076 14903
11076 20517
11077 11634
11077 14075
11077 23242
11079 12138
11079 20230
11079 22341
11080 11481
11080 19227
11080 19654
11081 11796
11081 11797
11083 15009
11083 20054
11084 12328
11084 13644
11084 15038
11084 16833
11084 18552
11084 18830
11084 21420
11084 22459
11085 19891
11085 22134
11085 22154
11086 13893
11086 14875
11086 21644
11087 19040
11087 20866
11088 22885
11089 12591
11089 14592
11090 14486
11090 15318
11091 15865
11092 23094
11093 13666
11093 18350
11093 19319
11094 15400
11094 17992
11094 19318
11096 12019
11096 18717
11096 22469
11097 12233
11097 12926
11097 14464
11097 17117
11098 14160
11098 14641
11099 12010
11099 24202
11099 24340
11099 24464
11100 11946
11100 13242
11100 14286
11100 18679
11100 22979
11101 14973
11101 16231
11101 20801
11101 23138
11102 16705
11102 18852
11103 18964
11103 21140
11104 24207
11104 24373
11105 11345
11106 18901
11107 12435
11107 15805
11107 15830
11107 16967
11107 19644
11107 21398
11108 14742
11108 16663
11109 24331
11110 15107
11110 16976
11111 14558
11111 17913
11111 22153
11112 14300
11113 14855
11113 22166
11114 14027
11114 14614
11114 15015
11114 18131
11114 23277
11114 23301
11116 14433
11116 15471
11116 21091
11116 22059
11116 23628
11117 18488
11117 20482
11118 12620
11119 12642
11119 24414
11120 11948
11120 12285
11120 13043
11120 14094
11120 15082
11120 15174
11120 16754
11120 17397
11120 20547
11120 21735
11120 23083
11122 20386
11123 20256
11124 14416
11124 19540
11125 23201
11126 24158
11127 17105
11128 17309
11129 11763
11129 13678
11129 18178
11129 21387
11129 21515
11130 11870
11130 14333
11130 20785
11131 12600
11131 15492
11131 23148
11132 19586
11133 16315
11133 17418
11133 21197
11134 11325
11134 11388
11134 12515
11134 13325
11134 14849
11134 20736
11134 20828
11134 22441
11134 23479
11134 23854
11134 23856
11134 23857
11134 23954
11134 23991
11134 24107
11134 24424
11134 24426
11135 23720
11135 23922
11135 24164
11136 21001
11137 12465
11137 14081
11139 12533
11139 16076
11139 17086
11139 17127
11139 18089
11139 20168
11139 20418
11139 20431
11139 21443
11140 13580
11140 15003
11141 11718
11141 19606
11141 20966
11143 18167
11143 23835
11143 24375
11144 15086
11144 15087
11144 20763
11145 15374
11145 16979
11145 21062
11145 22034
11145 22428
11146 12330
11146 14609
11146 19111
11146 21144
11147 14072
11147 18897
11147 22800
11147 23905
11148 11911
11149 22285
11150 12029
11150 12348
11151 15665
11151 18779
11152 11537
11152 13092
11153 18950
11153 19784
11153 21679
11154 16269
11154 18083
11154 19782
11155 12975
11156 16896
11157 11716
11157 13509
11157 23126
11159 16447
11159 17818
11159 21714
11160 14236
11160 23080
11161 16820
11161 17033
11162 24320
11162 24465
11163 13446
11163 17905
11163 23307
11164 11523
11164 12519
11164 20503
11165 13019
11165 15534
11165 17412
11165 22831
11165 23192
11166 18406
11167 12429
11167 13058
11167 21018
11167 21435
11168 12511
11168 16097
11168 20134
11168 22173
11170 18474
11170 21909
11171 17305
11172 13019
11172 14245
11172 17412
11174 12185
11174 15182
11175 11793
11175 12181
11175 12741
11175 15396
11175 18538
11175 18827
11176 11793
11176 11794
11176 12181
11176 15396
11176 18820
11176 19807
11178 16076
11178 16300
11179 20442
11179 24073
11179 24225
11180 11696
11180 22433
11180 23589
11181 20342
11182 19297
11182 21531
11183 12313
11183 14277
11183 14846
11183 14976
11183 15959
11183 19331
11183 21035
11184 23816
11185 22287
11185 23552
11186 18302
11187 23358
11188 11889
11188 13761
11188 15525
11188 15526
11188 18891
11188 23486
11189 11234
11189 13707
11189 14117
11189 20288
11189 21321
11190 13856
11190 14450
11190 22039
11190 22420
11190 22471
11191 12850
11191 18653
11191 19138
11192 17646
11193 13795
11194 22283
11195 17220
11196 11214
11196 23011
11197 15432
11197 20009
11198 15122
11198 17461
11198 17462
11198 17659
11198 21756
11199 14469
11199 17369
11199 23832
11200 15182
11200 19067
11200 19510
11200 20179
11201 11510
11201 19244
11201 23869
11202 13605
11202 18714
11203 13389
11204 16174
11204 21554
11205 12247
11205 23952
11205 24344
11206 17077
11206 18468
11207 11482
11207 12323
11208 12790
11209 16183
11209 17115
11209 18813
11209 20417
11209 21419
11210 11541
11211 12340
11211 15959
11211 19006
11211 19331
11211 20333
11211 20550
11211 21035
11212 13051
11213 11699
11213 12742
11213 17616
11214 11861
11214 12620
11214 13361
11214 13704
11214 14391
11214 14562
11214 15293
11214 15779
11214 18753
11214 20730
11214 23011
11214 24455
11215 11999
11215 13722
11215 22183
11216 18900
11216 22056
11217 12357
11217 17680
11218 16669
11218 17409
11218 21508
11218 21721
11218 22499
11219 13626
11219 19376
11220 14245
11220 15534
11221 11624
11222 12978
11222 12980
11222 14681
11223 12150
11223 17009
11224 15152
11224 18494
11225 13747
11225 15207
11225 18967
11226 13267
11227 16381
11227 18193
11227 21205
11228 21857
11229 13765
11229 16919
11229 21795
11229 22307
11231 12127
11231 18858
11232 17369
11233 12564
11233 16947
11233 23402
11234 13707
11234 21321
11235 16022
11235 24190
11236 20865
11237 20484
11238 12358
11238 22126
11238 22774
11239 19747
11240 18631
11240 21029
11242 15443
11242 22202
11243 18315
11245 11389
11245 14014
11245 17037
11246 13314
11246 16960
11246 19045
11247 12333
11247 14185
11247 20093
11248 17287
11248 22384
11249 12488
11249 16334
11250 12056
11251 12005
11251 12344
11251 17868
11251 18800
11251 21953
11252 15052
11252 18570
11253 11575
11253 23961
11254 16317
11255 12389
11255 14879
11255 16599
11255 17768
11255 19583
11255 20979
11256 14783
11256 17935
11257 13921
11258 12029
11258 12591
11258 14592
11259 11513
11259 14933
11259 21009
11261 14773
11261 15898
11261 21145
11262 15657
11262 22790
11263 18900
11265 11370
11265 12405
11265 14036
11265 23423
11266 13986
11266 14523
11266 16663
11267 13965
11267 16591
11267 22152
11268 11270
11268 16577
11268 20984
11269 11270
11269 11279
11269 11282
11269 11284
11269 11285
11269 11286
11269 16577
11269 20984
11269 20993
11269 22837
11270 11271
11270 11272
11270 11281
11270 11282
11270 11284
11270 11285
11270 11287
11270 14042
11270 16036
11270 16037
11270 16042
11270 16050
11270 16058
11270 16059
11270 16065
11270 16577
11270 17350
11270 18007
11270 20984
11270 22837
11271 11272
11271 20984
11271 22837
11272 11283
11272 11285
11273 11274
11273 11283
11273 11284
11273 11285
11273 11286
11273 11287
11273 11288
11273 16038
11273 16048
11273 16062
11273 20993
11274 11275
11274 11276
11274 16033
11274 16039
11274 16043
11274 16046
11274 16057
11274 16060
11275 11276
11275 11277
11275 16057
11275 16062
11276 11277
11276 16048
11276 16060
11276 16062
11277 16061
11277 16065
11278 11279
11278 14041
11278 16058
11278 20993
11279 14041
11281 11284
11281 16058
11282 22837
11283 11288
11283 22837
11284 11287
11284 16050
11285 11288
11285 16038
11285 16039
11285 16040
11285 16050
11286 11287
11287 20993
11288 16058
11289 11467
11289 18168
11291 12863
11291 23262
11292 16369
11292 23765
11292 24298
11293 23266
11293 23699
11294 23108
11295 12094
11295 15200
11295 16735
11295 20465
11295 20590
11295 21465
11296 24475
11297 20712
11297 24187
11297 24486
11298 17305
11299 13419
11299 15145
11299 17773
11299 21437
11300 12300
11300 15298
11300 16847
11300 17017
11301 13458
11301 19248
11302 14116
11302 15232
11302 18325
11302 22333
11302 23712
11303 12302
11303 12377
11303 13730
11303 14745
11303 17346
11303 18270
11303 18833
11303 20121
11303 21490
11303 22710
11304 15478
11304 15480
11304 19958
11305 17546
11305 17681
11306 11986
11306 16421
11307 12058
11307 12595
11307 19059
11307 21759
11307 22306
11308 13584
11308 16216
11308 20010
11308 23782
11308 24046
11308 24048
11308 24256
11309 16317
11310 16722
11312 16865
11312 17830
11313 15812
11314 24100
11315 23942
11316 18732
11317 14475
11317 14999
11317 15904
11317 19988
11317 22913
11318 20122
11319 22764
11320 11878
11320 13423
11320 14818
11320 15169
11320 15906
11321 17493
11322 23679
11323 11324
11323 11325
11323 24241
11325 23856
11325 24241
11326 14937
11326 15393
11326 15410
11327 11583
11327 15315
11327 19824
11328 15828
11329 20135
11329 21482
11329 22922
11330 22743
11331 18742
11331 20261
11332 23150
11332 24292
11333 20445
11333 24215
11334 12223
11334 24491
11336 11886
11336 16122
11336 17920
11336 18946
11336 21997
11337 11754
11337 11755
11337 14985
11338 23820
11338 24254
11339 13111
11339 21614
11340 22672
11341 22616
11342 12470
11342 13429
11342 17402
11343 11974
11343 11975
11343 12265
11343 19841
11343 20312
11344 13525
11345 15116
11345 15127
11345 17098
11346 18793
11346 19452
11346 19941
11346 21514
11347 11559
11347 13645
11347 14646
11347 18303
11347 19155
11347 20236
11347 22343
11347 22390
11348 15257
11348 21906
11348 23434
11349 23099
11349 23968
11351 17005
11351 18247
11352 14747
11352 16223
11352 19506
11352 22676
11353 22281
11354 14750
11354 20839
11355 21339
11356 12483
11356 15097
11357 13647
11357 13968
11357 16387
11357 18286
11357 18375
11357 18979
11357 18998
11357 22060
11357 22084
11357 22177
11357 23100
11358 16346
11358 23156
11359 12211
11359 15255
11359 16808
11359 16893
11359 19220
11359 21257
11360 15344
11360 21618
11361 12052
11361 14841
11361 20077
11361 22058
11361 22107
11362 12475
11362 13101
11362 13586
11362 23709
11362 23907
11363 12192
11364 14716
11364 15035
11365 12463
11365 22491
11366 13050
11367 19050
11367 20952
11369 21044
11369 22024
11371 12279
11371 12470
11372 12320
11373 13232
11373 21342
11373 21987
11374 13221
11374 23405
11375 12008
11375 15562
11375 18397
11375 19422
11375 20841
11375 22622
11376 23369
11377 15256
11377 18243
11377 19247
11377 19478
11378 14518
11378 22080
11378 22770
11380 11437
11380 21700
11380 22752
11381 13189
11381 15604
11381 20896
11382 12199
11382 13434
11382 16007
11382 16752
11382 17377
11382 18792
11382 19348
11382 20353
11382 22312
11382 23218
11383 23780
11383 23878
11385 12830
11385 21499
11386 18054
11386 23497
11388 20392
11388 23954
11389 15021
11389 17037
11390 12924
11390 15803
11390 17048
11391 16003
11392 11922
11392 15191
11392 19523
11392 20588
11393 22155
11394 22264
11395 12591
11396 15584
11396 17909
11396 17976
11398 11918
11399 17978
11399 22962
11400 18302
11401 21115
11402 18224
11402 18225
11402 18226
11403 11986
11403 16421
11404 16185
11405 20653
11405 21671
11406 20165
11406 22853
11407 21381
11408 14213
11408 16152
11408 16204
11408 16206
11408 17444
11408 17446
11409 11719
11409 16140
11410 13032
11410 23515
11410 23827
11411 20137
11412 12999
11413 12531
11414 13143
11414 18098
11415 13671
11415 15674
11415 22611
11416 12537
11416 16390
11416 18416
11417 14582
11417 15271
11417 15968
11417 17224
11417 17721
11417 22565
11418 23882
11418 23937
11418 24080
11418 24296
11419 16747
11419 18070
11419 19503
11419 20701
11419 24400
11420 18289
11420 19382
11421 11422
11421 11770
11421 12544
11421 15960
11421 19054
11422 11770
11422 15960
11422 19054
11423 14336
11423 16647
11423 18761
11423 23454
11424 13291
11425 13573
11425 13739
11425 14600
11425 19763
11425 22956
11426 12097
11426 19258
11427 13778
11427 15713
11428 24421
11429 12552
11430 11610
11430 21614
11430 22445
11431 22668
11432 23811
11432 23989
11433 17243
11433 22821
11434 11980
11434 23920
11434 24154
11435 18363
11435 21039
11436 11789
11436 22697
11437 22752
11438 23115
11438 24411
11440 18372
11441 19160
11441 22829
11442 20889
11442 23693
11443 21711
11444 14666
11444 16250
11444 16918
11444 23128
11444 23251
11444 23999
11444 24467
11445 17657
11446 20931
11446 22498
11446 23747
11446 24436
11447 14556
11447 20940
11448 17558
11448 20749
11448 23439
11449 20446
11450 17347
11451 12787
11451 18384
11451 21462
11452 12551
11453 24478
11454 14500
11454 17689
11454 19220
11455 12851
11456 11966
11456 15120
11456 16595
11456 17292
11456 18970
11456 19181
11456 19981
11457 13250
11458 23618
11459 16368
11460 18286
11461 11968
11461 15064
11461 15522
11462 13162
11462 18843
11462 22816
11463 12556
11463 21609
11463 22196
11464 14933
11464 19988
11464 21790
11464 22913
11467 16673
11467 18960
11467 21306
11467 23098
11468 12746
11468 18088
11468 23508
11470 11766
11470 23792
11470 23992
11471 24067
11471 24291
11471 24321
11472 14992
11472 17007
11473 16469
11474 12316
11474 14887
11475 12272
11477 18445
11477 24345
11478 21102
11478 22138
11479 11933
11479 15303
11479 16503
11480 17305
11481 17182
11482 12323
11482 20397
11483 19298
11484 19366
11485 16996
11485 17236
11486 18034
11486 19748
11486 23600
11487 23116
11487 23870
11488 11798
11490 13830
11490 18766
11490 20223
11490 21002
11491 11492
11491 14326
11491 14327
11491 16667
11491 16668
11491 19730
11491 19861
11491 23377
11492 13682
11492 14323
11492 14966
11492 16667
11492 16839
11492 19861
11493 13905
11493 14949
11497 19151
11497 20341
11498 12637
11498 13559
11498 23810
11498 24331
11499 13810
11499 15226
11499 15417
11499 16778
11499 17879
11499 18056
11499 20660
11499 21876
11499 22446
11499 23764
11500 23286
11501 24012
11501 24032
11501 24225
11501 24312
11502 11503
11502 11505
11502 19262
11502 19264
11503 21533
11504 18584
11504 23245
11507 15278
11508 23696
11508 24168
11509 18578
11509 23884
11509 24412
11510 19244
11510 22396
11510 23869
11511 16019
11511 18778
11511 19123
11511 19993
11511 20122
11511 21645
11511 22720
11512 15068
11513 13002
11513 14045
11513 14371
11513 14569
11513 14944
11513 15345
11513 15463
11513 16151
11513 17367
11513 17666
11513 18102
11513 18453
11513 18643
11513 18726
11513 18870
11513 18944
11513 19605
11513 19611
11513 19906
11513 20563
11513 21009
11513 21098
11513 21323
11513 21790
11513 22040
11513 22913
11513 24165
11514 12450
11514 13240
11514 13695
11514 14835
11514 15074
11514 16409
11514 16960
11514 17392
11514 19894
11514 20224
11514 20327
11514 21590
11514 22940
11515 11516
11515 11517
11515 11518
11515 11519
11515 20239
11516 11518
11516 19812
11516 20602
11516 20763
11517 11519
11517 17827
11517 20763
11518 15086
11518 20763
11519 14211
11519 14689
11519 15086
11519 15285
11519 17827
11519 20763
11521 11628
11521 13723
11521 16380
11521 16754
11522 12834
11522 19665
11522 22305
11523 11935
11523 12519
11523 14603
11523 15676
11523 16932
11523 17911
11523 21512
11523 21669
11523 23592
11524 11525
11524 11527
11525 11526
11525 11527
11525 23332
11526 11527
11528 12858
11528 17245
11528 18687
11528 21769
11528 22573
11528 22815
11528 23310
11529 13910
11529 14732
11529 16877
11529 19079
11530 12597
11530 13623
11530 14584
11530 15017
11530 18628
11530 20545
11530 21847
11530 22998
11531 16276
11532 14570
11532 16628
11533 23638
11533 24164
11534 17447
11534 18632
11534 20125
11535 12239
11535 12255
11535 23995
11536 18166
11537 13408
11538 12296
11538 24318
11539 16420
11540 17541
11540 17626
11540 19772
11540 22398
11542 22536
11542 23897
11542 23913
11542 24062
11543 15315
11544 11638
11544 15408
11544 19987
11545 14095
11545 18984
11545 19043
11545 19711
11546 16321
11546 19984
11547 22913
11548 14643
11548 20095
11548 21315
11549 12678
11549 15284
11549 22758
11549 22945
11549 22962
11550 12245
11550 23921
11550 24197
11551 15977
11551 17833
11552 14118
11552 15981
11553 17863
11555 17502
11555 17605
11555 23207
11556 14844
11556 14987
11556 17440
11556 19698
11557 12891
11557 19318
11557 19918
11558 12520
11559 18303
11559 21871
11560 14422
11560 17749
11561 19649
11562 19737
11562 21702
11563 23752
11563 24123
11563 24125
11564 20549
11565 14100
11565 21117
11565 23970
11566 12391
11566 18781
11567 17167
11569 12885
11569 12906
11569 15693
11569 18644
11569 20621
11569 20660
11569 20746
11570 14565
11570 20738
11570 23852
11571 13111
11571 21614
11572 11573
11572 15025
11572 20118
11573 11574
11573 15025
11574 11632
11574 15025
11574 20118
11574 21103
11574 21104
11575 14027
11575 17952
11575 23301
11575 23842
11576 13324
11576 17747
11576 20831
11576 22887
11577 14951
11578 16683
11578 16684
11578 16695
11579 15802
11580 15670
11580 18831
11580 19636
11581 14444
11581 16689
11581 16690
11582 14442
11582 14444
11582 14445
11582 14449
11582 14898
11582 15888
11582 16686
11582 16689
11582 16690
11582 16691
11582 16693
11582 16694
11582 16695
11582 17330
11583 11707
11583 11760
11583 12473
11583 15533
11583 20410
11583 20538
11583 22696
11583 23296
11584 12896
11585 15530
11585 20275
11586 16441
11586 18954
11587 17227
11587 17612
11587 20081
11587 21616
11588 17908
11589 18846
11589 19586
11590 15625
11590 17621
11590 18148
11590 19620
11590 23461
11592 18285
11593 24117
11594 21029
11594 22365
11595 11701
11595 17378
11595 20999
11597 18061
11597 21234
11597 23138
11598 16858
11598 20771
11598 22240
11598 22894
11600 16248
11600 24306
11601 21614
11601 21635
11602 14647
11602 14650
11602 15452
11602 15594
11602 16280
11602 21293
11602 22316
11602 22317
11602 22512
11602 22524
11603 11922
11603 13794
11603 15191
11603 19095
11603 19523
11604 12569
11604 18704
11605 23329
11606 17987
11607 23752
11607 24180
11608 12389
11608 14147
11608 19325
11609 13673
11609 17628
11609 21167
11610 12847
11610 14052
11610 14812
11610 14923
11610 19752
11610 19882
11610 19939
11610 21614
11610 23250
11611 22941
11612 23899
11612 24067
11613 16876
11613 19978
11614 11806
11614 17866
11614 19932
11614 21410
11615 15252
11615 15577
11615 22110
11616 12232
11616 20162
11617 12864
11617 20724
11618 13055
11618 14969
11618 15465
11618 20169
11618 21349
11618 21441
11618 23551
11619 11668
11619 13210
11619 13636
11619 15126
11619 15923
11619 16176
11619 16212
11619 18145
11619 18936
11619 21189
11619 22130
11619 22208
11620 14561
11620 15350
11620 18962
11621 14577
11621 23344
11623 14555
11624 11688
11624 20812
11624 21026
11624 21067
11625 13343
11626 21667
11627 13227
11627 15540
11627 19144
11628 15996
11629 18985
11629 19885
11629 20614
11630 12560
11630 15320
11631 15761
11631 17020
11631 19196
11634 12964
11634 13365
11634 23242
11634 23387
11636 13697
11636 14460
11636 16757
11636 18494
11636 19464
11636 20564
11636 22911
11637 13392
11637 17753
11637 18662
11638 12214
11638 15408
11638 21467
11639 13412
11640 14668
11640 15042
11640 22644
11640 22653
11641 24158
11642 14130
11642 23365
11643 12252
11643 23750
11644 13024
11644 14049
11645 14450
11645 15400
11645 16243
11645 19318
11646 23661
11647 24067
11647 24129
11647 24458
11648 12775
11648 14209
11648 15527
11648 16261
11648 18260
11648 19294
11648 20940
11648 21522
11648 21836
11648 22674
11648 23137
11649 15555
11649 15664
11649 18249
11649 19427
11649 21792
11650 15932
11650 16076
11650 20285
11651 20435
11651 23929
11652 14577
11652 17553
11652 18631
11652 21803
11653 17305
11653 17992
11654 12482
11654 15650
11654 18433
11655 12512
11656 20689
11657 13514
11658 17459
11658 23306
11659 16831
11660 23186
11662 18388
11662 19252
11662 19372
11662 22415
11663 23401
11664 11980
11664 24154
11666 15991
11667 24284
11667 24365
11669 20558
11670 12503
11670 16705
11670 18555
11670 21628
11670 23826
11671 23234
11672 14702
11673 12551
11673 24134
11673 24414
11674 13484
11675 13604
11675 19855
11676 15796
11676 20246
11676 22933
11677 21886
11678 17490
11680 14295
11682 18467
11683 19051
11683 22391
11684 17749
11684 18698
11684 19206
11685 12222
11685 16974
11685 17013
11685 17210
11685 17673
11686 13130
11686 17793
11687 11911
11687 22025
11689 24414
11690 11876
11690 12513
11690 14343
11690 16548
11690 16550
11690 18463
11690 22670
11691 19506
11692 19844
11693 16539
11693 17027
11696 23589
11697 12863
11697 13699
11697 17236
11698 13736
11698 14748
11698 22581
11698 23907
11699 12742
11699 14663
11699 16328
11699 17616
11699 18710
11699 21966
11700 23893
11701 12714
11701 13212
11701 13954
11701 20999
11702 13903
11702 17365
11703 12935
11703 19241
11703 20145
11704 13160
11704 14253
11704 15746
11704 17017
11704 21260
11704 22330
11705 16647
11706 12834
11706 19665
11708 13670
11708 22064
11709 15470
11710 19423
11711 12716
11711 17215
11711 21027
11712 20043
11712 20179
11713 13609
11713 15596
11713 16291
11713 16621
11714 14514
11714 14934
11714 15743
11715 14908
11716 14318
11717 14265
11719 16153
11719 17445
11720 12838
11721 23534
11722 20747
11723 12831
11723 20864
11723 21780
11724 17167
11724 19308
11725 13715
11726 13870
11726 18166
11726 19923
11727 17992
11727 19318
11728 18732
11729 13813
11729 14943
11729 15723
11729 16172
11731 15977
11731 17833
11731 22519
11733 14969
11734 17877
11734 18364
11734 18909
11734 20540
11734 21449
11735 14417
11735 17682
11735 18450
11736 11852
11736 17881
11736 21214
11737 15539
11737 21556
11738 12014
11738 12116
11738 16144
11738 16408
11738 23709
11738 23907
11738 24349
11740 12889
11741 21711
11743 12657
11743 17024
11745 13759
11745 14710
11745 23684
11746 12557
11746 16670
11747 14132
11747 19995
11748 23962
11748 24366
11749 21551
11750 16786
11750 16787
11750 18333
11750 18497
11750 19490
11750 20702
11750 23227
11752 19685
11753 24069
11754 11755
11754 11756
11754 12092
11754 13337
11754 14985
11754 23742
11754 23794
11756 14542
11756 14985
11756 23794
11756 24069
11756 24342
11756 24440
11757 12828
11759 16834
11759 17379
11759 17512
11761 12188
11761 14990
11761 19077
11761 20721
11761 21430
11761 21509
11761 21776
11762 15287
11762 21820
11763 18178
11763 19497
11763 23541
11764 12894
11764 15498
11764 15819
11764 18207
11764 18275
11764 19278
11766 14404
11766 14435
11766 17952
11766 23945
11766 23992
11767 15351
11768 11961
11768 16748
11769 16447
11769 21722
11770 17873
11770 19054
11771 23503
11771 23881
11772 17467
11773 16852
11773 17384
11773 18359
11774 15103
11774 15625
11774 17576
11774 17621
11774 17758
11774 18148
11774 19620
11774 21088
11774 21110
11774 23461
11775 12569
11775 12872
11775 13554
11775 15708
11775 20483
11776 14721
11776 19037
11776 23478
11777 18050
11777 20732
11777 20817
11778 15615
11778 21601
11778 23440
11779 22287
11779 23552
11780 11890
11780 14986
11780 18370
11780 20231
11780 20955
11780 22602
11781 22022
11781 22706
11782 18304
11782 22048
11783 15246
11783 15409
11783 18764
11785 12693
11785 14537
11785 21284
11785 22842
11786 15409
11786 15579
11786 18764
11787 14865
11787 17102
11789 13066
11789 14925
11789 22697
11790 13315
11790 17549
11790 18688
11790 21507
11790 21696
11790 21944
11790 21965
11790 21989
11791 23718
11791 24092
11792 13299
11792 22738
11793 15849
11793 19807
11794 15396
11794 18084
11794 22823
11795 16672
11795 16771
11795 19015
11795 23243
11796 11797
11796 20218
11797 15597
11797 17404
11797 17926
11797 20708
11798 13624
11798 20887
11798 24090
11799 14173
11799 16506
11799 22597
11800 18257
11800 19642
11800 21575
11800 22488
11801 17305
11801 22856
11802 14894
11802 23231
11802 23520
11803 14765
11804 13352
11804 15365
11804 17777
11805 22777
11806 19932
11806 22692
11807 14594
11808 16639
11809 11814
11809 12901
11809 12902
11809 12905
11809 15026
11809 17516
11809 18536
11811 13221
11811 14785
11811 16161
11812 19206
11813 12903
11813 18536
11813 22860
11814 12902
11814 17516
11815 12579
11815 14630
11815 20416
11815 20778
11816 19152
11817 17025
11817 22716
11818 18283
11818 18299
11818 18771
11818 20215
11818 21663
11819 12914
11819 18961
11820 19284
11820 21330
11821 19903
11822 13935
11822 17568
11823 13511
11823 14103
11823 15984
11823 17134
11823 18437
11823 18809
11823 22925
11824 15610
11824 20653
11826 20321
11827 13912
11827 21445
11828 13913
11828 21817
11830 11939
11830 16563
11830 23054
11831 12941
11832 14485
11832 14777
11833 21556
11834 12591
11834 13884
11834 22904
11835 18998
11835 22005
11835 22116
11836 21351
11837 16624
11837 16768
11837 17447
11837 18632
11838 12828
11838 21519
11839 12349
11839 22476
11839 23983
11839 24105
11839 24170
11839 24441
11840 12985
11840 13349
11840 15905
11840 19560
11841 16554
11842 18122
11842 24015
11843 11844
11843 13386
11843 23716
11844 13386
11844 19070
11844 20523
11844 23716
11844 24329
11845 16547
11845 16937
11845 18946
11846 13420
11846 19360
11846 24054
11847 12897
11848 12985
11848 13178
11848 13349
11848 17934
11849 13054
11849 17864
11849 19757
11850 19991
11851 14047
11852 20843
11853 12045
11853 16834
11853 21787
11853 22759
11854 12251
11854 24408
11855 21378
11855 23222
11857 13870
11857 16535
11857 20107
11858 16940
11858 19234
11858 21113
11859 23312
11859 24246
11859 24256
11860 21566
11860 22613
11861 11905
11861 12620
11861 12633
11861 12781
11861 13530
11861 14308
11861 14760
11861 15933
11861 18507
11861 18560
11861 19802
11861 20487
11861 20567
11861 20809
11861 21004
11861 21593
11861 22129
11861 22370
11861 23322
11861 24455
11862 18092
11863 19382
11864 17041
11865 16606
11865 17130
11865 19683
11865 20391
11866 11921
11866 21760
11868 13122
11868 15421
11868 16117
11868 16340
11868 16721
11868 16998
11869 24042
11870 12766
11870 13870
11870 14703
11870 15400
11870 18566
11870 18729
11871 13156
11871 20309
11872 15976
11873 13989
11873 18164
11873 19584
11874 12288
11875 13911
11875 22933
11876 19433
11876 23228
11878 14818
11878 16582
11878 22762
11879 15059
11879 19886
11879 20717
11881 22988
11882 13676
11882 14225
11882 15106
11882 19063
11882 20049
11883 18281
11883 18412
11884 13260
11884 20866
11886 19937
11886 20959
11886 21997
11887 11889
11887 15970
11887 16217
11888 11889
11888 19863
11889 16217
11889 19863
11889 23378
11890 15660
11890 20231
11891 13951
11891 14000
11892 23695
11892 24353
11892 24438
11893 13284
11893 15718
11893 19109
11893 22352
11894 18895
11895 17816
11895 18847
11896 13055
11896 14969
11897 13296
11897 20503
11898 13022
11898 16352
11898 18002
11899 23372
11900 17804
11901 18202
11902 15183
11902 15938
11903 11904
11903 20146
11903 21048
11904 23094
11905 23322
11906 19201
11906 20002
11906 21108
11907 23871
11907 24287
11908 16588
11908 23960
11908 24238
11909 13267
11910 12548
11910 13654
11910 20409
11911 12891
11911 13583
11911 14056
11911 14627
11911 14673
11911 14757
11911 15211
11911 15336
11911 15760
11911 16552
11911 17241
11911 18673
11911 19318
11911 19682
11911 20387
11911 21185
11911 21840
11911 22025
11911 22064
11911 22507
11911 22651
11912 19552
11912 19735
11913 12423
11913 21064
11914 18785
11914 21595
11915 17305
11915 18782
11915 19923
11916 12671
11916 18589
11917 14102
11917 14524
11917 15292
11917 22186
11918 13906
11920 18844
11920 22701
11920 22757
11921 17026
11921 21760
11922 15191
11922 19523
11923 21258
11923 22864
11924 14341
11924 18898
11924 21570
11925 16698
11926 23734
11927 14895
11927 20568
11927 22053
11928 18481
11928 20493
11928 20616
11928 21001
11929 21740
11930 12120
11930 13210
11930 14623
11930 15436
11930 16068
11930 19280
11930 23213
11931 12177
11931 22517
11931 23803
11931 23927
11932 17749
11933 11989
11933 15303
11934 22904
11935 12350
11935 14141
11935 15611
11935 21669
11935 23592
11936 14797
11936 18078
11937 16644
11938 17671
11938 17672
11938 23649
11939 16563
11940 23854
11940 23856
11941 12135
11942 20951
11943 12022
11943 13267
11944 19241
11944 22264
11945 23326
11946 13242
11946 14286
11946 16571
11947 13959
11947 17910
11948 17646
11949 22894
11950 13383
11950 17679
11950 17716
11950 23464
11951 22283
11952 15639
11952 16007
11952 17761
11952 19348
11953 18977
11953 21213
11953 24060
11953 24354
11954 13453
11954 18631
11954 22365
11955 15238
11955 17560
11955 22555
11956 18442
11956 18670
11957 14808
11957 18054
11957 22044
11957 22577
11957 23497
11958 15063
11958 21828
11959 13362
11959 15216
11959 18933
11959 19526
11959 19800
11959 20525
11959 21259
11959 21693
11959 22612
11960 12029
11960 12348
11961 13970
11961 15135
11961 23098
11962 13078
11963 17428
11963 19171
11965 17662
11965 21498
11966 14234
11966 14313
11966 16674
11966 17292
11966 17381
11966 18018
11966 18635
11966 20883
11966 21247
11966 22074
11967 14234
11968 15522
11968 16589
11968 17334
11968 19183
11968 19867
11968 20001
11969 12115
11969 24444
11970 23699
11971 12489
11971 14676
11971 16627
11973 15070
11974 11975
11974 15638
11974 16682
11974 17929
11974 20312
11975 15235
11975 15237
11975 16169
11975 22377
11975 23018
11976 15305
11976 16118
11976 23415
11977 19043
11979 22331
11979 23823
11980 12665
11980 14279
11980 15006
11980 22238
11980 23119
11980 23203
11980 23406
11980 23421
11980 23636
11980 23809
11980 24154
11980 24481
11981 13314
11981 19045
11982 15351
11982 19371
11983 22188
11984 16269
11984 18083
11985 17783
11985 18987
11985 24441
11986 12154
11986 12306
11986 12350
11986 13475
11986 14736
11986 15380
11986 15611
11986 15734
11986 15749
11986 16421
11986 18253
11986 20080
11986 21041
11986 21092
11986 21146
11986 22286
11987 12668
11987 16800
11987 20734
11987 21517
11987 23398
11988 12121
11988 14715
11988 21077
11990 14004
11990 15057
11990 16910
11990 21772
11991 17841
11991 21252
11992 13446
11992 14651
11992 15130
11993 18443
11993 22138
11993 22434
11994 17447
11994 18632
11995 23786
11995 24369
11996 14282
11996 18739
11996 19574
11997 20550
11997 20716
11999 22183
12000 12898
12000 17861
12000 19310
12000 21350
12000 23215
12001 14192
12002 13961
12004 15338
12005 12344
12005 18800
12005 21953
12006 22209
12007 23778
12007 23946
12009 15312
12009 16323
12009 23727
12010 12011
12010 17907
12010 24201
12010 24340
12010 24341
12011 13521
12011 24201
12011 24202
12011 24340
12012 13189
12012 15604
12013 13226
12013 17650
12013 19367
12014 23188
12016 12017
12016 23904
12016 24185
12016 24194
12017 12018
12017 23904
12017 23936
12017 24193
12017 24194
12018 23904
12018 24118
12018 24120
12018 24192
12018 24193
12018 24194
12018 24327
12019 13213
12019 14176
12019 17420
12019 18717
12020 13520
12021 13050
12021 14429
12021 16450
12021 17780
12021 20078
12021 20818
12021 21409
12022 13267
12023 16086
12023 17711
12023 18242
12023 19073
12023 20148
12023 20815
12024 18367
12025 20571
12025 20747
12027 12152
12027 14058
12027 14611
12027 15385
12027 17519
12027 18916
12027 19781
12027 19931
12027 20292
12027 21291
12027 22252
12028 18910
12029 14529
12029 14595
12029 16564
12029 18707
12029 22973
12029 23595
12030 14003
12030 19299
12030 20052
12031 12132
12031 13126
12031 14693
12031 17720
12031 20155
12031 22560
12032 12199
12032 13434
12032 19348
12034 13311
12035 18222
12036 22716
12037 12429
12037 13058
12037 15058
12038 15297
12038 19845
12038 20790
12038 22513
12039 15734
12039 18253
12039 22286
12040 15991
12040 16307
12040 20877
12041 14204
12041 15477
12041 15558
12041 17743
12042 22443
12042 24122
12042 24213
12042 24225
12043 19135
12043 20109
12043 23928
12043 24001
12043 24022
12043 24350
12044 14048
12044 15951
12044 21235
12045 21787
12045 22759
12046 21181
12047 12393
12047 15118
12047 15201
12047 15602
12047 16913
12047 19397
12047 21192
12047 21599
12048 13278
12048 16557
12048 18824
12049 13070
12049 16142
12049 19577
12049 19627
12050 12318
12050 15615
12052 20077
12052 22058
12052 22107
12053 12242
12053 13974
12054 12858
12055 12161
12055 14192
12055 18475
12055 21295
12056 18222
12056 20710
12058 12595
12058 24476
12059 15240
12059 20665
12060 24079
12061 15620
12061 19851
12061 19976
12061 23259
12062 18728
12062 20361
12063 19115
12063 19502
12064 13010
12064 19554
12064 20104
12065 13054
12068 12071
12068 15281
12068 15283
12068 17289
12068 23159
12069 12071
12069 15283
12069 23159
12070 14120
12070 18568
12071 13769
12071 15281
12071 15283
12071 17288
12071 18213
12071 19871
12071 20446
12072 12073
12072 23546
12073 15528
12074 13962
12075 14726
12075 19180
12075 19370
12076 23873
12077 12724
12077 12725
12077 16839
12077 21302
12078 12724
12078 13682
12078 16839
12079 12297
12079 13348
12079 13419
12079 13978
12079 14366
12079 14972
12079 15355
12079 16349
12079 16797
12079 19745
12079 19750
12079 19938
12079 20063
12079 20187
12079 21437
12079 22290
12079 22550
12079 22932
12079 23239
12079 23586
12080 13708
12080 20879
12080 22101
12081 12773
12081 20476
12082 23896
12082 24028
12082 24148
12083 23896
12083 24028
12083 24148
12084 16518
12084 22497
12085 12086
12085 12986
12085 17759
12085 18133
12086 12977
12086 17538
12086 21370
12087 19382
12087 23401
12088 16341
12088 16733
12089 19670
12089 20609
12090 12735
12090 18188
12091 15252
12091 15577
12091 22110
12093 18379
12093 19367
12095 13971
12095 17765
12095 19973
12096 14587
12096 19901
12097 19258
12098 13041
12098 17692
12099 14274
12099 14723
12099 15494
12099 18097
12099 18659
12099 19432
12099 20346
12099 23194
12100 23023
12101 12931
12101 13494
12101 16816
12101 18223
12101 20111
12102 12620
12102 17096
12102 17986
12102 18127
12102 18631
12102 19081
12102 20718
12103 18338
12103 19520
12103 21620
12104 18732
12105 13326
12105 20849
12106 14914
12106 19327
12107 20976
12109 17182
12111 14585
12111 21614
12112 16965
12112 18701
12112 18818
12112 20961
12114 12260
12114 14830
12114 19386
12116 23311
12117 15637
12117 18474
12117 19850
12117 21909
12119 18387
12119 20165
12119 22559
12120 14623
12120 15268
12120 15436
12120 15648
12120 16068
12120 17642
12120 19145
12120 19280
12120 21325
12121 14065
12121 14220
12121 14715
12121 15049
12122 12124
12122 12125
12122 22250
12122 22871
12123 12124
12123 22249
12123 22250
12123 22871
12125 22249
12126 19797
12126 21004
12126 22796
12127 18858
12128 14201
12128 15485
12128 17208
12128 19166
12129 12592
12129 14016
12129 16716
12129 19780
12129 19919
12129 20150
12129 21068
12129 21571
12130 19406
12131 12959
12131 21331
12132 20155
12132 22314
12132 23572
12133 18821
12134 13111
12136 18044
12137 17447
12137 18632
12138 15335
12138 16020
12138 19470
12138 20230
12138 20777
12138 22341
12138 23181
12139 17248
12139 19821
12140 13696
12140 20921
12141 17887
12142 19956
12142 20517
12143 15351
12144 12595
12144 24220
12145 13701
12145 13816
12145 16970
12145 18413
12146 14213
12146 15806
12146 16204
12146 16205
12146 16206
12146 18557
12146 20024
12147 19997
12147 21199
12148 21987
12149 13643
12149 17935
12149 21853
12150 17009
12151 12355
12151 13486
12152 17519
12153 22613
12153 22622
12154 15734
12154 18253
12155 16520
12155 18442
12155 22844
12156 21129
12156 22904
12157 21199
12158 22707
12159 14349
12160 13692
12160 14819
12160 17704
12160 18574
12160 21918
12161 18475
12162 22682
12162 23875
12162 23914
12162 23984
12164 22181
12164 22915
12165 24079
12166 16747
12166 24400
12167 12169
12167 12170
12167 12171
12167 13046
12167 14843
12167 14862
12167 24104
12167 24152
12168 12173
12168 24428
12169 12170
12169 23985
12170 12171
12170 12173
12170 23985
12172 23515
12172 23851
12173 23985
12174 23796
12174 24303
12175 18652
12175 23721
12175 24034
12175 24083
12176 20524
12176 23770
12176 23972
12176 23986
12177 17218
12177 20524
12177 22517
12177 23803
12178 12303
12178 18900
12178 22053
12180 12361
12180 13964
12180 21586
12180 22440
12181 22823
12182 12219
12182 15093
12183 21556
12184 22097
12184 22914
12185 12729
12185 12882
12185 15182
12185 20035
12185 22732
12186 20660
12186 20746
12187 13957
12188 12604
12188 21509
12188 22882
12190 14293
12190 14585
12191 14451
12191 14774
12191 17545
12191 19610
12192 13271
12192 22323
12193 15201
12193 20728
12194 16873
12194 18844
12195 13956
12195 22164
12196 21855
12197 12667
12197 15665
12197 18669
12198 22193
12199 13094
12199 17377
12199 22470
12200 13366
12200 22407
12201 12389
12201 14879
12201 18129
12202 17823
12202 21641
12202 22215
12202 23970
12203 13447
12203 16131
12203 16645
12203 17106
12203 18109
12203 20509
12203 20654
12203 22793
12204 13715
12204 15112
12204 17607
12204 18929
12204 22257
12204 22458
12205 12639
12205 20034
12207 18548
12208 15635
12208 16675
12208 18666
12210 16076
12210 16300
12211 12620
12211 18973
12211 19081
12211 23164
12212 14534
12212 17278
12212 21023
12213 14778
12213 15141
12213 16632
12213 19181
12213 22751
12214 13490
12214 19416
12214 19987
12214 21467
12215 13963
12215 16170
12215 21090
12216 13515
12216 14783
12217 14137
12217 17179
12217 21078
12218 13300
12218 15039
12218 16054
12218 17063
12219 12981
12219 18304
12219 18371
12219 19946
12220 15276
12220 15663
12220 16746
12220 19386
12221 20554
12221 22672
12222 21256
12223 12325
12223 12410
12223 12487
12223 13412
12223 14399
12223 16402
12223 17087
12223 17221
12223 20560
12223 24491
12224 14805
12224 15562
12224 22613
12225 14101
12225 14625
12225 14875
12225 15098
12225 20615
12225 21644
12226 17207
12226 17417
12227 14810
12228 16921
12229 12554
12229 13071
12229 14302
12229 19226
12230 22963
12231 12232
12231 18722
12231 22905
12232 13115
12232 15468
12232 16314
12232 18722
12232 19085
12232 19285
12232 21933
12233 16375
12233 17205
12233 19741
12234 21614
12235 16429
12235 21824
12236 12713
12236 13299
12236 13894
12236 18481
12236 20493
12236 20663
12236 21059
12236 22738
12237 12848
12237 15166
12237 15414
12237 16460
12237 17426
12237 21042
12239 13403
12239 23726
12239 23848
12239 24199
12240 15234
12240 15773
12241 23792
12241 24397
12243 21309
12243 23556
12244 16351
12244 18191
12246 16647
12246 23454
12247 13020
12247 14666
12247 14674
12247 16096
12247 16918
12247 18408
12247 19754
12247 20898
12247 23618
12247 23719
12247 23859
12247 24249
12247 24344
12247 24384
12247 24402
12247 24467
12248 13026
12248 13027
12248 20395
12250 14185
12251 23305
12251 24408
12252 23750
12253 12740
12253 17248
12254 22400
12256 12387
12256 13918
12257 15151
12257 19318
12257 22025
12258 23810
12258 23877
12258 23911
12259 12398
12259 18356
12259 18357
12259 18358
12259 19038
12259 19040
12259 20554
12259 21583
12259 22075
12259 23498
12260 14830
12260 18798
12261 18782
12262 12352
12262 13162
12262 14355
12262 22816
12262 24468
12263 19997
12264 14408
12264 16810
12264 20969
12265 15235
12265 22377
12265 23018
12266 21132
12267 15223
12267 18994
12267 20124
12268 17003
12268 19604
12268 23982
12269 12512
12269 15654
12270 12637
12270 15741
12270 15848
12270 15989
12270 23872
12270 23970
12270 24053
12271 23816
12272 14361
12272 15014
12272 17047
12272 17157
12272 22548
12272 23428
12273 20546
12274 20477
12274 23426
12275 22597
12276 21874
12278 15091
12278 17933
12278 23705
12279 15066
12279 17402
12280 20411
12280 21407
12281 19787
12281 24414
12283 18593
12283 19553
12284 22870
12284 23150
12285 21216
12286 12897
12286 21240
12287 23774
12287 24227
12287 24242
12288 18062
12289 12290
12289 12291
12289 23660
12289 24084
12289 24196
12289 24225
12290 12291
12290 14700
12290 23660
12290 23708
12290 23867
12290 24176
12290 24196
12291 14700
12291 24225
12292 24225
12293 17305
12293 22856
12294 17591
12294 21437
12295 17412
12295 20995
12295 22831
12296 18639
12296 23357
12296 23805
12296 23952
12296 24181
12296 24318
12297 15145
12297 17322
12297 18210
12298 20205
12298 23542
12299 13581
12299 17105
12299 21112
12300 15298
12300 18040
12300 20486
12301 13001
12301 21316
12302 15001
12302 21290
12303 12808
12303 12897
12303 13113
12303 13223
12303 13402
12303 13548
12303 13618
12303 13712
12303 13720
12303 14638
12303 15229
12303 15545
12303 16521
12303 16643
12303 16906
12303 17143
12303 17144
12303 17537
12303 17745
12303 18010
12303 18749
12303 18832
12303 18900
12303 19550
12303 20064
12303 20700
12303 21065
12303 21136
12303 21230
12303 21692
12303 22053
12303 22615
12303 22714
12303 22868
12303 23692
12303 24018
12304 15672
12304 18169
12304 20989
12305 21673
12305 22381
12306 15734
12306 18253
12307 17332
12308 14229
12308 16490
12308 17595
12308 19204
12309 13387
12309 13519
12309 20950
12310 15452
12310 17737
12310 21496
12311 14038
12312 16502
12313 14976
12313 15959
12313 19006
12313 20333
12314 15311
12315 23988
12315 24037
12316 14887
12316 18810
12318 15400
12319 23539
12320 17071
12320 18298
12320 18854
12320 19843
12321 14767
12321 20051
12322 15351
12323 18183
12324 12365
12324 20593
12324 22336
12325 16402
12326 14330
12326 17180
12326 22997
12327 21402
12328 20379
12328 22799
12329 24009
12329 24030
12329 24086
12329 24158
12330 19111
12330 22036
12331 13585
12331 13792
12332 15540
12333 14185
12333 19601
12334 14846
12334 15197
12334 20520
12335 14111
12335 14190
12335 20172
12336 16628
12336 17000
12337 18461
12337 20898
12338 24216
12339 18006
12339 19009
12340 20333
12341 23661
12341 23816
12342 20617
12343 14015
12343 15878
12343 18386
12343 20117
12344 18800
12345 12804
12345 15178
12345 23874
12345 24071
12346 19986
12347 13513
12347 20594
12347 20852
12348 12880
12348 14480
12348 14529
12348 14608
12348 14794
12348 18715
12348 20667
12348 23269
12349 12567
12349 24019
12349 24081
12350 20503
12350 21512
12352 21396
12354 12688
12354 13070
12354 20332
12356 12747
12356 13647
12356 13968
12356 18286
12356 18375
12356 18998
12356 21932
12356 22177
12356 23100
12357 17680
12357 18901
12357 20016
12358 22126
12359 15063
12359 20470
12359 22321
12359 22541
12360 22126
12361 13495
12361 21586
12361 22440
12363 12978
12363 12979
12363 14681
12364 14855
12365 20258
12366 21572
12366 23536
12367 18900
12367 22709
12368 21824
12368 22359
12369 12914
12369 15598
12369 17762
12369 22406
12370 23568
12371 12639
12371 14945
12371 15413
12371 22704
12372 12601
12372 21476
12373 14877
12375 21257
12376 14814
12376 15771
12377 21921
12377 23663
12378 13132
12378 17483
12379 12759
12379 19809
12381 19562
12382 23784
12382 24135
12383 19319
12384 22342
12385 23323
12385 23696
12386 12457
12386 14422
12386 23319
12387 13918
12388 13144
12388 23723
12388 23789
12388 24063
12389 14147
12389 14879
12389 15288
12389 17928
12389 23175
12390 17881
12390 21214
12391 12690
12391 13433
12391 14256
12391 14456
12391 14874
12391 17789
12391 18291
12391 18398
12391 18861
12391 21866
12391 22818
12393 12976
12393 15118
12394 20477
12394 22830
12394 23426
12395 14243
12395 22685
12396 14380
12396 23041
12397 15326
12397 18357
12397 20554
12398 15326
12398 18355
12398 18357
12399 19772
12399 22398
12400 18851
12400 19163
12402 15605
12402 23217
12402 24407
12403 12543
12403 13768
12403 21605
12403 21707
12404 17202
12404 18124
12405 13993
12406 14530
12407 13889
12408 15417
12409 22769
12409 23322
12410 17221
12411 22568
12412 23009
12413 18381
12413 21413
12415 13053
12415 18698
12417 13112
12417 15392
12418 24263
12419 16280
12420 12765
12420 16350
12421 12707
12421 16653
12421 20372
12423 17354
12423 21064
12424 15724
12424 15739
12424 18337
12425 24085
12425 24226
12426 22106
12426 23965
12427 24085
12427 24226
12428 24085
12428 24226
12429 12753
12429 14744
12429 15058
12429 16574
12429 16978
12429 18176
12429 21018
12429 21435
12429 23374
12430 16108
12430 21373
12430 21374
12431 20144
12432 15366
12432 20660
12433 12929
12433 20597
12434 19878
12436 22763
12436 22765
12437 12439
12437 18341
12437 21730
12437 22880
12438 21729
12438 21730
12438 22880
12439 15377
12439 18341
12439 18343
12439 21125
12439 21730
12439 22760
12439 22880
12440 17387
12440 21785
12440 21890
12441 13439
12441 23757
12442 16008
12442 22679
12442 23828
12443 17305
12444 14356
12444 14574
12444 17004
12444 18785
12444 21595
12445 17992
12445 19318
12446 24260
12447 21704
12449 19973
12450 21402
12450 22940
12452 13029
12452 13326
12452 15129
12452 17800
12452 19189
12452 21124
12452 23298
12454 14993
12454 15124
12454 15896
12454 17847
12454 18590
12454 18758
12454 19548
12454 20492
12454 21743
12454 21833
12454 23545
12455 13581
12455 17320
12455 21112
12456 22985
12456 23361
12458 20445
12458 24131
12458 24215
12459 21030
12460 18352
12460 18708
12461 19709
12461 22757
12462 16182
12462 17527
12462 17580
12462 18616
12462 18955
12462 20259
12463 13339
12463 17752
12464 17752
12465 22775
12466 16466
12466 23784
12466 24135
12467 24174
12468 16824
12468 21484
12470 15066
12470 16001
12470 17796
12470 17810
12471 15877
12472 15002
12472 16109
12472 17046
12474 18275
12474 18526
12474 23661
12475 23709
12476 17235
12476 18780
12476 22701
12477 20721
12477 21509
12477 21776
12478 12480
12478 13911
12479 12480
12479 12916
12479 14222
12479 16762
12480 14222
12481 16761
12481 16762
12482 15650
12482 16586
12483 15097
12483 17113
12484 18369
12485 21339
12486 18388
12486 19372
12487 14526
12488 14592
12488 16334
12488 17677
12488 18942
12488 19218
12488 19236
12488 21043
12489 14676
12489 16809
12490 16220
12491 17996
12491 20771
12492 17369
12492 19323
12492 22230
12492 23460
12493 13097
12493 14698
12493 23380
12494 14513
12495 12671
12495 18589
12496 14740
12496 16177
12497 18519
12498 18543
12498 20985
12498 22193
12499 20108
12500 16076
12500 16300
12501 13362
12501 18933
12501 19318
12502 13302
12502 18415
12502 20539
12503 17333
12503 18852
12503 21484
12505 16288
12505 21054
12505 21600
12506 20635
12509 13900
12509 22922
12510 22010
12511 16097
12511 20134
12512 13670
12512 13732
12512 13793
12512 14703
12512 15654
12512 18219
12512 21056
12514 14299
12515 20392
12515 23857
12515 23954
12516 13782
12516 14670
12516 15399
12516 16198
12516 18258
12516 18512
12516 19338
12516 21257
12516 21660
12517 22155
12518 15016
12519 14141
12519 14307
12519 17911
12519 18392
12519 20503
12519 21512
12519 21669
12519 23592
12522 14984
12522 19452
12523 17183
12523 18886
12523 21942
12523 24453
12524 13991
12524 14996
12524 18478
12525 15153
12525 16215
12525 16498
12525 23679
12525 23725
12525 24261
12527 16262
12527 19853
12528 14978
12528 18333
12528 23400
12528 24087
12529 19361
12529 23369
12530 16573
12530 18320
12530 19966
12530 21917
12530 22501
12531 18371
12531 20566
12532 19699
12532 20802
12533 15932
12533 16076
12533 20285
12534 17198
12534 22980
12534 23180
12535 12536
12535 12539
12535 21951
12535 22700
12536 20903
12536 21952
12536 22700
12537 16390
12537 17422
12538 13314
12538 13695
12538 14431
12538 14835
12538 15074
12538 16300
12538 16960
12538 19045
12539 21950
12539 22700
12540 13803
12540 16854
12540 17261
12540 19406
12540 19999
12541 15807
12541 16714
12541 19965
12541 22486
12542 12958
12542 19058
12542 23021
12543 13768
12544 17873
12545 15702
12545 18828
12546 16173
12546 16869
12546 17153
12546 17209
12546 19749
12547 13286
12548 17305
12549 14755
12549 17338
12549 19970
12549 20045
12549 21423
12549 22782
12550 13697
12550 15784
12550 16757
12550 18494
12551 14007
12551 21841
12551 23348
12551 24134
12551 24278
12551 24413
12551 24486
12552 21168
12553 12892
12553 17792
12553 23504
12554 13071
12554 14302
12554 19226
12554 20058
12555 18061
12555 23138
12556 18565
12556 21609
12557 17691
12557 22476
12557 23124
12557 23627
12557 23983
12557 24390
12558 16402
12559 14479
12559 15802
12559 20151
12560 15700
12560 16079
12560 20178
12561 17900
12561 18864
12562 18014
12562 22984
12564 16159
12564 23402
12565 15818
12567 24086
12567 24105
12567 24299
12567 24411
12568 13078
12568 17248
12568 20110
12568 21889
12568 23457
12568 23480
12569 13554
12570 15874
12570 16234
12570 16738
12570 17683
12570 21367
12571 15777
12571 15814
12571 16032
12571 16301
12571 16865
12571 17830
12571 18199
12571 18856
12571 23191
12571 23602
12572 13870
12572 16535
12573 14504
12574 15686
12574 22873
12574 23601
12575 18036
12575 20340
12576 13480
12576 14272
12576 21468
12577 13680
12577 15246
12577 19428
12577 20683
12578 16368
12579 15588
12579 15614
12579 16661
12579 17871
12579 17878
12579 18306
12579 20416
12579 21485
12580 19842
12581 23999
12581 24051
12581 24052
12584 19227
12585 15207
12585 18967
12587 13327
12587 17819
12587 19669
12588 14067
12589 18954
12590 23912
12590 24078
12591 13884
12591 14389
12591 14592
12591 18942
12591 20105
12591 22904
12592 14616
12593 13608
12593 14086
12593 17170
12594 16054
12594 17063
12594 18147
12595 19059
12595 21759
12595 22306
12597 20545
12598 13853
12598 15638
12598 16682
12599 14695
12599 14929
12599 15912
12599 16202
12599 20085
12599 21196
12599 22169
12599 22923
12599 23287
12599 23414
12600 14599
12600 23148
12602 18286
12602 22116
12602 23100
12604 14990
12604 19077
12604 19417
12604 22206
12606 17935
12606 21853
12607 17129
12607 17139
12607 18294
12609 12988
12610 12611
12610 17129
12610 17139
12610 18295
12610 18296
12610 20821
12611 20821
12613 13202
12613 20994
12613 21099
12613 23802
12615 22201
12615 23923
12616 16593
12616 18594
12616 21137
12616 22935
12620 12774
12620 13367
12620 13530
12620 14391
12620 14543
12620 14665
12620 15024
12620 15293
12620 16078
12620 17173
12620 17687
12620 18507
12620 20567
12620 21418
12620 22129
12620 22656
12620 23011
12620 23490
12621 21639
12622 24152
12623 18635
12623 23355
12623 24140
12624 22419
12625 13540
12625 17992
12626 22532
12627 17285
12627 19198
12630 13885
12630 19129
12630 20299
12631 19378
12632 17900
12632 22894
12634 18476
12635 21158
12635 22942
12636 13915
12636 14016
12636 14892
12636 15023
12636 17169
12637 23247
12638 13295
12638 19600
12639 14544
12639 14945
12639 20762
12639 21625
12640 24436
12641 14102
12641 15292
12642 22139
12642 24002
12643 13076
12643 18290
12643 19289
12643 19502
12643 21397
12643 21850
12644 17260
12644 19182
12646 24228
12647 15087
12647 20763
12647 22431
12648 24010
12648 24287
12648 24398
12649 23870
12650 23921
12650 24204
12651 17666
12651 22913
12652 13185
12652 15028
12652 16010
12652 21353
12653 15311
12654 16713
12656 22153
12657 20319
12657 20612
12657 21972
12658 12989
12659 23625
12659 24257
12659 24367
12660 21162
12661 17077
12662 20407
12662 23921
12662 24204
12663 23042
12663 23845
12663 23879
12664 24336
12664 24382
12665 23646
12665 24074
12666 13279
12666 16427
12666 17510
12666 22624
12667 15198
12667 18669
12667 18779
12667 19317
12667 20015
12669 17096
12669 18631
12669 19564
12669 22365
12671 18589
12672 19445
12672 20467
12673 13637
12673 16383
12673 17070
12673 20401
12674 18316
12674 20515
12674 23196
12674 23213
12674 23266
12674 23699
12674 24290
12675 17702
12675 18074
12675 24404
12676 22948
12677 14591
12677 14596
12677 15958
12678 15284
12678 20628
12679 18189
12679 18674
12681 16807
12681 18773
12681 23427
12682 15740
12683 20107
12684 14376
12684 19209
12684 23387
12685 12842
12685 14596
12685 18510
12685 22329
12686 20866
12687 16934
12687 19542
12687 23970
12689 16002
12689 17773
12690 13166
12692 16776
12692 18702
12692 20006
12692 20680
12693 13131
12693 15337
12694 17968
12694 20480
12695 16438
12695 19013
12696 17305
12697 17815
12698 13532
12699 12809
12699 15014
12699 17257
12699 19333
12701 22525
12702 17697
12703 23775
12703 24287
12703 24398
12704 14933
12704 21927
12706 19318
12707 12856
12707 19136
12707 20372
12707 21754
12709 13294
12709 14215
12709 14573
12709 14669
12710 15471
12710 23628
12711 22891
12712 20667
12713 13299
12713 15484
12713 18481
12714 13954
12714 17378
12715 22499
12716 15513
12716 15845
12716 20228
12716 21782
12717 13679
12717 14226
12717 15417
12718 18846
12719 14787
12719 18861
12720 23158
12721 13434
12721 19348
12722 13467
12722 14025
12722 14605
12722 15868
12722 17561
12722 17727
12722 18193
12722 19191
12722 19980
12722 20846
12722 20965
12722 21084
12722 22085
12723 14706
12723 15239
12723 20459
12724 16839
12724 21302
12725 13682
12725 16839
12725 16841
12725 18155
12725 21302
12726 15503
12726 20518
12726 23004
12726 23452
12727 18967
12727 19629
12728 23133
12729 20035
12729 22732
12730 13603
12731 13594
12731 16560
12731 17345
12731 18245
12732 14280
12732 17185
12732 19733
12732 20196
12732 20433
12733 13519
12734 16053
12734 20025
12734 20028
12734 20029
12735 13113
12735 14845
12735 16227
12735 16419
12735 18090
12735 18749
12735 19715
12735 21065
12735 21136
12735 23692
12737 12892
12737 19122
12738 22701
12738 22757
12739 14173
12739 14960
12739 22597
12740 16981
12740 17248
12741 18827
12741 19807
12742 14853
12742 16328
12742 16394
12742 17616
12742 21966
12743 17752
12744 13454
12744 18174
12744 20761
12745 16831
12746 16931
12746 17085
12746 21854
12746 23508
12747 18375
12747 18998
12748 24275
12749 20629
12749 22766
12749 23869
12750 17326
12750 17373
12750 17482
12750 21072
12750 22655
12751 13207
12752 14806
12752 22849
12753 13058
12754 13907
12754 23292
12755 19859
12755 21550
12757 14344
12757 20866
12758 14875
12758 20615
12759 15282
12759 19809
12759 20481
12760 17598
12760 18717
12761 20771
12762 13575
12762 16900
12762 22172
12763 19630
12764 18142
12764 22079
12765 16350
12766 15400
12767 17280
12767 17531
12767 18423
12768 15033
12768 19084
12768 22868
12768 23028
12770 18220
12770 21346
12770 22931
12773 15341
12774 13367
12774 13530
12774 13704
12774 18753
12774 22129
12775 15893
12775 19294
12776 14328
12776 15132
12776 15322
12776 17706
12776 20156
12776 20610
12776 22281
12776 23540
12776 23768
12777 17041
12779 14536
12779 23585
12779 23839
12780 17712
12780 18735
12780 22981
12781 13669
12782 24353
12783 15877
12784 13033
12784 23932
12785 17213
12785 19428
12786 18006
12786 18821
12787 21500
12788 15643
12788 16988
12789 13546
12791 18126
12792 13181
12794 16197
12794 17718
12794 19716
12794 19956
12795 16197
12796 16197
12796 19716
12796 22760
12797 14115
12797 14312
12797 15372
12797 22116
12797 22549
12798 12945
12798 13791
12798 22275
12799 13670
12801 12937
12801 13482
12801 14043
12801 14813
12801 16025
12801 16195
12801 19813
12801 20946
12801 21127
12801 22026
12801 23206
12802 15192
12802 18140
12802 18318
12803 23529
12804 15178
12805 14877
12806 18622
12806 19580
12807 16703
12807 16935
12810 13291
12810 14363
12811 21487
12812 22131
12813 16501
12814 22092
12815 13055
12815 21441
12816 16625
12816 22097
12816 22914
12817 17685
12818 22283
12819 14392
12819 15445
12819 16407
12819 16811
12819 18784
12819 19022
12819 21685
12819 22388
12820 14398
12820 14725
12820 15434
12820 18077
12820 21923
12821 18371
12822 20624
12822 22433
12823 17848
12823 21710
12824 20084
12824 23274
12825 14645
12825 17344
12826 15996
12826 16380
12827 14465
12827 22930
12828 14951
12828 21519
12829 13744
12829 22450
12831 21780
12831 22079
12832 21614
12833 17656
12833 18367
12835 20603
12835 20613
12835 22960
12836 15634
12836 21000
12838 14788
12838 23576
12839 13786
12840 13604
12840 15227
12840 18631
12840 19855
12841 24262
12842 15958
12842 19022
12842 20891
12842 22329
12843 14109
12843 16861
12844 24014
12844 24221
12844 24468
12845 13702
12845 15310
12845 23282
12846 17738
12846 19557
12846 20784
12847 22445
12848 13320
12849 19123
12849 19410
12850 13784
12850 19138
12851 22384
12852 13827
12852 14784
12853 17020
12853 17212
12853 21682
12854 23008
12854 23152
12855 13603
12855 14953
12855 18938
12855 19761
12856 19136
12856 20035
12857 20634
12857 22378
12857 23528
12858 13929
12859 14128
12859 21652
12860 13225
12860 14317
12860 16485
12860 19104
12861 14247
12862 19954
12862 23028
12863 13699
12863 16924
12863 21369
12863 22627
12863 23567
12864 13057
12864 13864
12864 14210
12864 18080
12864 20825
12865 15651
12866 19413
12867 14734
12867 20204
12868 20713
12868 21556
12868 21614
12868 22295
12870 14752
12870 15758
12870 16028
12871 14437
12871 15473
12871 23304
12872 14848
12872 15708
12872 20240
12873 16350
12873 23255
12874 13709
12875 19665
12875 20662
12876 18328
12876 21456
12876 21699
12877 19348
12877 21959
12878 13442
12878 17104
12878 20748
12878 22427
12878 22455
12878 23096
12878 23300
12879 15440
12879 16476
12879 17701
12879 21429
12879 21736
12879 22542
12881 13795
12882 15182
12882 20694
12882 22135
12883 23912
12883 23961
12884 14278
12884 16268
12886 18205
12886 23347
12887 12994
12887 13609
12887 13664
12887 14446
12889 13313
12890 13885
12891 13583
12891 14627
12891 15151
12891 19159
12891 19318
12891 22025
12891 22507
12892 14165
12892 14287
12892 15238
12892 17792
12892 22865
12893 19411
12893 21372
12893 23611
12894 15819
12894 18275
12894 19278
12895 16441
12895 18954
12895 20473
12896 14267
12896 16000
12897 12938
12897 13607
12897 14152
12897 14155
12897 14334
12897 14959
12897 15361
12897 15608
12897 15668
12897 15705
12897 15818
12897 16337
12897 16446
12897 16467
12897 16770
12897 16945
12897 17231
12897 17410
12897 17885
12897 18305
12897 18919
12897 20671
12897 20968
12897 21136
12897 21226
12897 21240
12897 21546
12897 21568
12897 21611
12897 21680
12897 21732
12897 21738
12897 21823
12897 22083
12897 22351
12897 22506
12897 22547
12897 22615
12897 22716
12897 22885
12897 23028
12897 23208
12897 23836
12897 24077
12898 19310
12898 23215
12899 21452
12900 13665
12900 18924
12901 12903
12901 12905
12901 22860
12902 12905
12903 12905
12903 15506
12903 17516
12903 18536
12904 15425
12905 15026
12906 15366
12906 18644
12907 13675
12907 16748
12908 12911
12908 16297
12909 22365
12910 12911
12911 19040
12911 20554
12911 21502
12912 15659
12912 20413
12912 23383
12913 20771
12914 13382
12914 17762
12914 20484
12914 22406
12915 16129
12915 16993
12915 21995
12915 22805
12916 14222
12917 13021
12917 23372
12917 23378
12918 21570
12919 16963
12920 14475
12920 22040
12920 23121
12921 13514
12922 13405
12922 14826
12923 14178
12924 14413
12924 15803
12924 17048
12924 17540
12924 18262
12924 21703
12925 21150
12925 22921
12926 14464
12926 16375
12926 17117
12926 19741
12927 18214
12928 15818
12928 17918
12928 21181
12928 21392
12929 20597
12930 13435
12930 17584
12930 18001
12931 14364
12931 23369
12932 13207
12932 16237
12932 20719
12934 15785
12934 19647
12935 20145
12936 14619
12936 18116
12937 13482
12937 14813
12937 16195
12937 21127
12937 22026
12940 24225
12941 17015
12942 18723
12942 21268
12942 22906
12943 15397
12943 16227
12943 17858
12943 18025
12943 18886
12943 19290
12945 13791
12945 20434
12945 23525
12946 23652
12947 24221
12947 24222
12948 14309
12948 14478
12948 18918
12949 12951
12949 12955
12950 12951
12950 12952
12950 12953
12951 12953
12951 12955
12951 13578
12951 14381
12951 14983
12951 19472
12953 14303
12953 19472
12954 21683
12954 22260
12955 13578
12955 19472
12956 17545
12957 14375
12957 17678
12957 19955
12957 20572
12959 13122
12959 13157
12959 15004
12959 15247
12959 15472
12959 16448
12959 18149
12959 18443
12959 20705
12959 22138
12960 21261
12960 23680
12961 23680
12962 20304
12962 21029
12963 16054
12963 16115
12963 19670
12964 13365
12964 15714
12964 23387
12965 19252
12965 22415
12966 18728
12967 14561
12967 15350
12967 18962
12968 15988
12968 17650
12968 19367
12970 17734
12970 17736
12970 20932
12971 14291
12971 16372
12971 20137
12972 15549
12975 18447
12975 24007
12977 17538
12978 13120
12979 12980
12979 13120
12980 14681
12981 18492
12981 18744
12981 19825
12981 20737
12981 23431
12982 13836
12982 15539
12982 16680
12982 21556
12983 14229
12983 18974
12983 19598
12983 23284
12983 23303
12985 15905
12985 17934
12986 17538
12987 19822
12987 23344
12988 17398
12989 13238
12989 13825
12989 14217
12989 16618
12989 17162
12989 17562
12989 17836
12989 18163
12989 21881
12989 23052
12990 14551
12990 20866
12991 14556
12991 16138
12991 20940
12992 14737
12992 16995
12992 18204
12992 18841
12992 22912
12993 20427
12993 21726
12994 13664
12994 16355
12994 17122
12994 18730
12994 20974
12994 21149
12994 22100
12994 22344
12995 16297
12996 20426
12996 21726
12997 21627
12997 21970
12997 22974
12998 19912
12999 16316
12999 17332
12999 21170
13000 21445
13000 23046
13001 13378
13001 21316
13001 23547
13001 23898
13002 16930
13002 19988
13002 22913
13003 18623
13004 18870
13004 22248
13005 20248
13006 15704
13006 19228
13006 19634
13006 20718
13007 22848
13008 13609
13008 15596
13008 21763
13009 15716
13009 16278
13009 17438
13009 22385
13010 19554
13010 20104
13011 14509
13012 22116
13012 23100
13013 13179
13014 14099
13015 18479
13015 21045
13015 22038
13016 22226
13017 13166
13017 14874
13017 18781
13019 22831
13019 23192
13020 18461
13020 19754
13021 23372
13022 20128
13022 23372
13023 13088
13023 14446
13023 14491
13023 15916
13023 18404
13023 18802
13023 20283
13023 20472
13023 21265
13023 22334
13025 18065
13025 19482
13025 21478
13025 21582
13026 13027
13026 20395
13026 21977
13027 20395
13029 15129
13029 21520
13030 13481
13031 13621
13031 15139
13031 15772
13031 18640
13032 17370
13032 18373
13032 20847
13033 21133
13033 23932
13033 24442
13034 23813
13035 15016
13037 14626
13037 15575
13037 21998
13039 18393
13039 21798
13040 13632
13040 21672
13040 23375
13041 22849
13042 17384
13042 18359
13044 14102
13044 21961
13044 22186
13045 13562
13045 17781
13045 20921
13046 24152
13046 24428
13047 17590
13047 21593
13048 15232
13048 18993
13049 16631
13049 19186
13049 23644
13052 18227
13052 18750
13054 16788
13054 19462
13055 14969
13055 15465
13055 17719
13055 20169
13055 20905
13055 21349
13055 21441
13055 21889
13055 22319
13055 23480
13055 23551
13056 16994
13056 17511
13057 13623
13058 14144
13058 14744
13058 15099
13058 16978
13058 20381
13058 21018
13058 21271
13058 21435
13059 20244
13059 20447
13059 20703
13059 22634
13060 21681
13061 20771
13062 14779
13062 20354
13062 21335
13062 21610
13062 23477
13063 13090
13063 17609
13064 13751
13064 14520
13064 20583
13064 23527
13065 14520
13065 17452
13065 17454
13065 20583
13065 23527
13066 15473
13067 16820
13067 21242
13068 16260
13068 19569
13069 21856
13070 16142
13070 19577
13070 20728
13071 14302
13071 18441
13071 19226
13071 20058
13072 19037
13072 23478
13074 17428
13074 19171
13075 13221
13075 23405
13076 14183
13076 20192
13077 15279
13077 16980
13078 17248
13078 19293
13079 14659
13079 16492
13079 19445
13080 14992
13082 19343
13083 18323
13083 18519
13084 14616
13085 14385
13086 18238
13087 14527
13087 18334
13087 23242
13088 16338
13089 17225
13089 19506
13090 18118
13090 21893
13092 13408
13093 13672
13094 15929
13094 17939
13094 18250
13094 19255
13094 19773
13094 20186
13094 21312
13094 21480
13094 21613
13094 21835
13094 22808
13094 23435
13095 19502
13096 13925
13096 14800
13096 14918
13096 17163
13096 21497
13097 17708
13097 21627
13098 13680
13098 19428
13098 20683
13098 23201
13100 13320
13100 14189
13100 16221
13101 23640
13101 23779
13102 21666
13102 23521
13103 18017
13103 23345
13104 21595
13106 18476
13106 23025
13107 18933
13108 13446
13108 14651
13108 20814
13109 16441
13109 18954
13110 20394
13110 21560
13110 21561
13111 13190
13111 13222
13111 13752
13111 16888
13111 17147
13111 17955
13111 18177
13111 21425
13111 21505
13111 21922
13113 18188
13114 16508
13115 18722
13116 22628
13117 16221
13117 17180
13117 22863
13118 13815
13118 15349
13119 16572
13119 18096
13119 18759
13120 14681
13122 13157
13122 14453
13122 14547
13122 16340
13122 16998
13122 18149
13122 18743
13122 18747
13122 22138
13122 22847
13124 17369
13124 19323
13125 18862
13126 16377
13126 17720
13127 14876
13127 15865
13128 19486
13129 15756
13132 14477
13132 14524
13132 16796
13132 17525
13132 18008
13133 15163
13133 22533
13134 13921
13134 20717
13134 20732
13135 23321
13135 24144
13136 13931
13136 14913
13136 19395
13136 20420
13136 20937
13136 22482
13136 22596
13136 23258
13137 18043
13137 20664
13138 18409
13138 18410
13139 13868
13139 18945
13139 22049
13140 14687
13140 17712
13140 19681
13140 21653
13140 22981
13140 23730
13141 15047
13141 16759
13141 18189
13143 18098
13144 23723
13144 23789
13146 13575
13146 23608
13147 15971
13147 22998
13148 18757
13148 18983
13148 21411
13148 23766
13149 23738
13150 16591
13151 14359
13152 20763
13153 17910
13155 15727
13155 21975
13157 15421
13157 20705
13157 21114
13157 22103
13157 22138
13158 18082
13158 18913
13158 22335
13159 15737
13159 16424
13159 20280
13159 20880
13160 16285
13161 15795
13161 18831
13162 22816
13163 15046
13163 16604
13163 18452
13163 19450
13163 21742
13164 17248
13164 20110
13164 23157
13165 16506
13165 22695
13166 13433
13166 14508
13166 14874
13166 15404
13166 16832
13166 16848
13166 17026
13166 17789
13166 18556
13166 18781
13166 21760
13166 21866
13166 22413
13169 16774
13170 16531
13171 14710
13171 20939
13172 23731
13172 23798
13173 17353
13173 17860
13173 18943
13173 19927
13174 23940
13174 24422
13175 18610
13176 17651
13176 18421
13176 18938
13176 20002
13176 23212
13177 23823
13177 23969
13177 24339
13178 17934
13179 17363
13180 14593
13180 14730
13180 16629
13180 17755
13181 14806
13181 15109
13181 15359
13181 15782
13181 17844
13181 17871
13181 18930
13181 19036
13181 19273
13181 20278
13181 20519
13181 21316
13181 23537
13181 23603
13182 22168
13183 15452
13184 22819
13185 20572
13185 22102
13186 20179
13186 23691
13187 15538
13187 18261
13187 20718
13188 18191
13188 23006
13189 13447
13189 14829
13189 15536
13189 18282
13189 19930
13190 21614
13192 24169
13193 16774
13195 15071
13195 18537
13196 18537
13197 21556
13198 19210
13198 22904
13199 15633
13199 18524
13199 19327
13199 19661
13199 21689
13199 21870
13200 13975
13200 15351
13200 16729
13200 21693
13200 22612
13201 18115
13201 20518
13201 23004
13204 23720
13204 23979
13204 24164
13204 24427
13205 22390
13205 22488
13206 14235
13206 20685
13206 22819
13207 13487
13207 15927
13207 17954
13207 19398
13208 13953
13208 15755
13208 16086
13208 18242
13208 20090
13209 18359
13210 13636
13210 18680
13210 19145
13210 20291
13210 21189
13210 21325
13211 13547
13211 15774
13211 19153
13212 17378
13212 20999
13213 18041
13213 19426
13214 24186
13214 24268
13215 13608
13215 14086
13216 14877
13217 16994
13217 17511
13218 13531
13218 15662
13219 23724
13220 19531
13220 19532
13221 15599
13221 16161
13221 17524
13221 20568
13221 21329
13222 21505
13223 18900
13224 14324
13224 15607
13225 16983
13225 22552
13226 17034
13226 19367
13226 20241
13227 22598
13228 19576
13229 24067
13229 24321
13230 14363
13230 20640
13232 20303
13232 21342
13234 16836
13234 18822
13234 18823
13235 15302
13235 21008
13236 16239
13236 16630
13236 20629
13236 22371
13237 15402
13237 20272
13239 23203
13239 24093
13239 24154
13240 13314
13242 22979
13243 15898
13244 13870
13244 23492
13245 17814
13246 14174
13246 15531
13246 16126
13246 16743
13246 20643
13246 21934
13247 13545
13247 21770
13248 17411
13248 20144
13249 13323
13249 13557
13249 16863
13249 20866
13249 22075
13250 17173
13250 19030
13251 21015
13252 17162
13252 21881
13253 21016
13253 21702
13253 22792
13253 23088
13253 23683
13254 13524
13254 18737
13255 15734
13255 18253
13255 22286
13256 20617
13257 17714
13257 19337
13259 13557
13259 21319
13260 20866
13261 13996
13261 14828
13262 17782
13263 13979
13263 16742
13264 16230
13264 16826
13264 17697
13264 19440
13264 21404
13265 13485
13266 19947
13266 21360
13266 22009
13267 19267
13267 19297
13267 20336
13267 21531
13269 17077
13269 17570
13269 17669
13270 13396
13272 13689
13272 14774
13272 17930
13272 18874
13272 20263
13272 21095
13273 16792
13273 17039
13273 17874
13273 19897
13273 20347
13273 22057
13273 22741
13274 14844
13274 16006
13274 17296
13274 17440
13275 14059
13275 18985
13275 23530
13276 19635
13278 18607
13278 18822
13279 16427
13279 17510
13279 23288
13280 17765
13280 18846
13280 19973
13281 13577
13281 18105
13281 20067
13281 21347
13281 22505
13281 23340
13282 14141
13283 15908
13283 17267
13284 14804
13284 19382
13284 22352
13284 23155
13285 15348
13285 20437
13286 15547
13286 15563
13286 17266
13287 20306
13287 20533
13288 16350
13289 17254
13290 15735
13290 16275
13290 17498
13291 13704
13291 14363
13291 16764
13291 16914
13291 17687
13291 19113
13292 13767
13292 16295
13292 17181
13293 17477
13293 17807
13293 19343
13293 22715
13294 14215
13294 14669
13295 14149
13295 16030
13295 16755
13295 18100
13295 19798
13295 20247
13295 20574
13295 21181
13295 21440
13295 21727
13295 22495
13295 22718
13295 23744
13296 13859
13297 23362
13297 23363
13298 16370
13298 16538
13298 19582
13299 13894
13299 22738
13300 16054
13300 18031
13301 13874
13301 13877
13301 13878
13301 15833
13301 15834
13301 15836
13301 15838
13302 24392
13303 22807
13304 13947
13304 19833
13305 14442
13305 14449
13305 15886
13306 19815
13306 21888
13307 24409
13308 15991
13309 19973
13310 17320
13310 21112
13312 21644
13313 14882
13313 19250
13314 13984
13314 15074
13314 18448
13314 19016
13314 19045
13314 19068
13314 19603
13314 20023
13314 20119
13314 20224
13314 20327
13314 20496
13314 21402
13314 21590
13314 21957
13314 22255
13315 21944
13315 21989
13316 19506
13316 20937
13317 19504
13318 22400
13319 21614
13320 13690
13320 14624
13320 14949
13320 16083
13320 17180
13321 23046
13322 18705
13322 21832
13322 24284
13323 16863
13324 15930
13324 17747
13326 20849
13326 21138
13327 18987
13328 18632
13331 21614
13332 16852
13332 22347
13333 13747
13333 15207
13333 15411
13333 18967
13333 22001
13334 15107
13334 16976
13334 20652
13334 22189
13335 19689
13336 15944
13337 23742
13338 14775
13338 20091
13340 23938
13340 24427
13341 21029
13342 23235
13342 24154
13344 14821
13344 14964
13344 14965
13344 14981
13344 15104
13344 15509
13344 16157
13344 16437
13344 17187
13344 18264
13344 19455
13344 20262
13344 22813
13346 22904
13347 16397
13347 22124
13347 23198
13348 21437
13348 22290
13349 13930
13349 15406
13349 19560
13349 21626
13350 13351
13352 17786
13352 22334
13353 22773
13354 14484
13355 24392
13356 18732
13357 19503
13357 24400
13358 13979
13358 22679
13358 23314
13359 13570
13359 13962
13359 18130
13360 23240
13362 15216
13362 18933
13363 22633
13364 14720
13364 16154
13364 19369
13364 20384
13365 13468
13365 14075
13365 19717
13365 22061
13365 22176
13365 23242
13365 23387
13366 15084
13366 21658
13367 15293
13368 22667
13368 23538
13369 17847
13370 18846
13370 19973
13373 14154
13373 19257
13373 21154
13374 16021
13374 18867
13375 17770
13375 21603
13375 22033
13376 17776
13376 18788
13376 18892
13377 17687
13377 22004
13380 14833
13380 15350
13380 20617
13381 17723
13381 17857
13381 21087
13381 21321
13382 15598
13382 17762
13382 22406
13383 13430
13383 22803
13384 15931
13384 22876
13385 13434
13385 19348
13386 19070
13386 20523
13387 13519
13387 20642
13387 20950
13388 22679
13389 14054
13389 19584
13390 17089
13390 19394
13391 13780
13391 13881
13391 13977
13391 14955
13391 16814
13391 19664
13391 19786
13391 21428
13392 17753
13393 15941
13393 17378
13394 18432
13394 21169
13396 13909
13396 15584
13396 19110
13397 14244
13397 15356
13397 15400
13398 15924
13398 18937
13398 20163
13398 20933
13399 22696
13400 19784
13401 24135
13401 24285
13401 24436
13402 22053
13404 15944
13405 14826
13405 17698
13405 20868
13406 19923
13407 14877
13407 23369
13408 21376
13409 24030
13409 24086
13409 24158
13410 14044
13410 17029
13410 18857
13410 21251
13411 14619
13411 18116
13411 19126
13412 13518
13412 14399
13412 15541
13412 16525
13412 17087
13412 21887
13413 23270
13414 14351
13414 21468
13415 16722
13415 17358
13415 20440
13416 17420
13416 17598
13416 18041
13418 18001
13419 15145
13419 18490
13419 21437
13422 19569
13422 20836
13423 15906
13423 22762
13425 16201
13425 22760
13427 14541
13427 15181
13427 16838
13427 17184
13427 17638
13427 18733
13427 19261
13427 20744
13427 21106
13427 21232
13427 22091
13427 23522
13428 21200
13428 22374
13428 22375
13429 17763
13430 19943
13430 20412
13430 21916
13431 14896
13431 15207
13431 16411
13431 18869
13431 18967
13431 19286
13431 21274
13431 21718
13431 23580
13432 16253
13432 23220
13433 18781
13434 14082
13434 16752
13434 16928
13434 18110
13434 18792
13434 19773
13434 20353
13434 21959
13434 23218
13435 18001
13435 23214
13438 23757
13439 20975
13439 23757
13440 18467
13440 20998
13441 13776
13441 16680
13442 20197
13442 22455
13442 23300
13443 19772
13444 24051
13445 18169
13445 20989
13445 23589
13446 14651
13446 15130
13446 19067
13446 20814
13446 22165
13448 14010
13448 14316
13448 17195
13448 18197
13448 21019
13449 20422
13449 22533
13450 15419
13451 13570
13451 13962
13451 15720
13451 17464
13452 23188
13452 23311
13453 14078
13453 14487
13453 16214
13453 17820
13453 17949
13453 18322
13453 21029
13453 22292
13453 22365
13454 18174
13454 21631
13455 14401
13455 14533
13455 15027
13455 19052
13455 19418
13455 21086
13455 21811
13455 23339
13456 16379
13456 23276
13457 22774
13458 19248
13458 19281
13459 20260
13460 14071
13460 21614
13461 23912
13461 23961
13463 16631
13464 14993
13464 20637
13465 13474
13465 21560
13466 19266
13466 19274
13466 20284
13466 22076
13467 15868
13467 19191
13467 20341
13469 18075
13470 15161
13470 17300
13470 20631
13470 20858
13471 18918
13473 15630
13474 16956
13474 17393
13474 18026
13474 20394
13474 21560
13476 19158
13476 19877
13476 20175
13476 22412
13477 16076
13477 18089
13478 20304
13479 13509
13479 21401
13480 14272
13481 18337
13481 18473
13482 14813
13482 16195
13483 14556
13483 16138
13483 20940
13485 18164
13486 21665
13487 15360
13487 15927
13487 18868
13488 15786
13489 13850
13489 22478
13491 17117
13491 19741
13492 15662
13492 22988
13493 18631
13493 22365
13495 19115
13495 19502
13495 20529
13495 21586
13495 21805
13496 21660
13497 17419
13499 14783
13499 17935
13500 22851
13501 15689
13501 19509
13501 19740
13502 13774
13503 15762
13504 15595
13504 17291
13504 17553
13504 17744
13504 18631
13505 15044
13506 21614
13506 21635
13507 15550
13507 21274
13508 17649
13509 14318
13509 15339
13509 17359
13509 21401
13509 22027
13510 14481
13510 16173
13510 17999
13511 14103
13511 15984
13511 18809
13512 14346
13512 17182
13512 22148
13513 14979
13513 17984
13513 22150
13516 14251
13516 17351
13517 20771
13517 23454
13518 14526
13518 16402
13519 20840
13520 14069
13520 16186
13520 18815
13521 24201
13521 24202
13521 24341
13521 24464
13522 16306
13524 18737
13524 20313
13526 21614
13527 17305
13528 22764
13529 15599
13529 16161
13530 23011
13531 15662
13532 13542
13532 16082
13532 20953
13532 21839
13532 22393
13533 24054
13534 14313
13534 19673
13534 23240
13535 17636
13535 18663
13536 16403
13536 19355
13537 17849
13537 18238
13538 15124
13538 16905
13538 21614
13539 13826
13540 14156
13540 15439
13541 18918
13541 21152
13541 21719
13541 23531
13543 14410
13543 15447
13544 19371
13545 13836
13546 16494
13546 21030
13547 15774
13547 17702
13547 18074
13547 21637
13547 24352
13548 18900
13549 22175
13550 17260
13550 22678
13553 21029
13554 21021
13555 15532
13555 23015
13555 23016
13556 15818
13557 19499
13557 20866
13557 21319
13558 21812
13560 22889
13560 23446
13560 23958
13560 24259
13561 18901
13562 13696
13562 14020
13563 13722
13563 14397
13563 15433
13563 17061
13564 14628
13564 15750
13564 18366
13565 19314
13565 19954
13565 23028
13566 17305
13566 17992
13568 17641
13568 21163
13569 17996
13569 19632
13569 20771
13570 13962
13570 18130
13570 18932
13571 14288
13571 15114
13572 15800
13572 18426
13572 20289
13573 14600
13573 15041
13573 16254
13573 17362
13573 17901
13573 20088
13573 22956
13574 15242
13574 15609
13574 18380
13574 22571
13575 22172
13576 14600
13577 14303
13577 19759
13578 13579
13578 14303
13578 14983
13579 14381
13580 14768
13580 15003
13580 17779
13580 19485
13581 21112
13582 19061
13582 19361
13583 15151
13583 16179
13583 18673
13583 19318
13584 23782
13584 24256
13585 13792
13585 15413
13586 23640
13586 23709
13586 23779
13587 16523
13588 13639
13588 20366
13589 17864
13589 23019
13590 21006
13591 14874
13591 18781
13592 21879
13592 22237
13593 23399
13594 18222
13595 14913
13595 15448
13595 20420
13595 23258
13596 14541
13597 18649
13597 21672
13598 13798
13599 14309
13599 18918
13599 21719
13600 17425
13600 21469
13600 23160
13601 14395
13601 15428
13601 16737
13601 19064
13601 20632
13602 20502
13603 14953
13603 19761
13604 14301
13605 17421
13605 18120
13605 18714
13605 19612
13605 22212
13607 18567
13610 15974
13610 22473
13611 18900
13611 22053
13613 22269
13614 15351
13615 13616
13615 19263
13615 23090
13616 19263
13616 23061
13616 23090
13617 13740
13617 15569
13617 16907
13617 21173
13618 18900
13618 22053
13619 14397
13619 15231
13620 15650
13620 17131
13620 17363
13621 15139
13621 15772
13621 18640
13623 15017
13623 17191
13623 18161
13623 18234
13623 19879
13623 20545
13623 22527
13623 22998
13623 23295
13624 14310
13624 20887
13624 24090
13625 19373
13625 22409
13626 19376
13626 22586
13627 23960
13628 17944
13628 19999
13628 21162
13629 18285
13630 15163
13630 20422
13630 22533
13631 18393
13631 21798
13632 18649
13632 21672
13632 23375
13633 15963
13633 18844
13633 19858
13633 23444
13634 22361
13636 15648
13637 15381
13637 16639
13638 19737
13639 14566
13639 22721
13640 22716
13642 20318
13643 21853
13644 16994
13645 14646
13645 20236
13647 18375
13647 18998
13648 18740
13649 23213
13650 16505
13650 16932
13650 21328
13651 15678
13651 17305
13651 18782
13652 17764
13653 15429
13653 20678
13654 20409
13655 17130
13655 19683
13655 22430
13656 14537
13656 22842
13657 19447
13657 21081
13657 21964
13658 22181
13658 22915
13659 18214
13659 21527
13661 21275
13663 14177
13663 15307
13663 15328
13663 17709
13663 18602
13663 19198
13663 19476
13663 21504
13663 22294
13663 23596
13664 21149
13665 18236
13666 14002
13667 16007
13668 17428
13668 19171
13669 16940
13669 19234
13669 23433
13670 15504
13671 15674
13671 22611
13672 19655
13673 17628
13674 13964
13674 19502
13675 14363
13675 15024
13675 20159
13675 21552
13676 14125
13676 17975
13676 19063
13676 21917
13677 15090
13677 17345
13677 17385
13677 21686
13679 15417
13681 15349
13683 16539
13683 17027
13684 15142
13685 16876
13685 21666
13686 17334
13686 20210
13687 16718
13687 16835
13687 17054
13687 18804
13688 15807
13688 16714
13688 19965
13688 21453
13688 23012
13689 14799
13690 16644
13690 22389
13690 23118
13691 21593
13691 21614
13692 18574
13692 21918
13693 16308
13693 18984
13693 19711
13694 16565
13694 16845
13694 17215
13694 21198
13695 21402
13695 22940
13696 14020
13696 15386
13696 16116
13696 17781
13696 18245
13696 18711
13696 18795
13696 18904
13696 21686
13696 22516
13697 15152
13697 22911
13698 14495
13698 14936
13699 14191
13699 16638
13699 21369
13699 23397
13700 17076
13700 23765
13700 24374
13702 15310
13703 17669
13703 24000
13703 24184
13703 24437
13704 23011
13705 23891
13707 14117
13707 20568
13707 22991
13708 16472
13708 20879
13708 22096
13708 22101
13709 16893
13709 19972
13709 21257
13710 14457
13710 20179
13710 20193
13711 15329
13711 21606
13711 22795
13713 17401
13714 14285
13714 16389
13714 18354
13714 21700
13715 17607
13716 22934
13717 22597
13718 15265
13720 18900
13722 13981
13722 15231
13723 19100
13723 23083
13724 13725
13724 16439
13724 19720
13725 16439
13727 20181
13727 21383
13728 14654
13728 17984
13728 22193
13729 17334
13729 20916
13729 21069
13731 16210
13731 17347
13731 18645
13731 21356
13731 21993
13731 23475
13732 20243
13733 23704
13733 24311
13734 15315
13735 14475
13735 19988
13735 21009
13735 21614
13736 22581
13736 23709
13736 23779
13737 16103
13737 18775
13737 22225
13738 15471
13738 16716
13738 21068
13738 23628
13739 15041
13739 15619
13739 16651
13740 15569
13740 16907
13740 22235
13742 23641
13742 23924
13743 15877
13743 17411
13743 20144
13744 19707
13744 22450
13746 18028
13747 15411
13747 17368
13747 18967
13747 19629
13747 19640
13747 20132
13747 22539
13748 18324
13748 19561
13749 14251
13749 17314
13750 16617
13750 21186
13750 22972
13751 17452
13752 21505
13752 22578
13754 14549
13754 18181
13754 19404
13754 22637
13756 18114
13756 18551
13756 20474
13757 18168
13757 23098
13758 14179
13758 15947
13758 21297
13758 22234
13759 14711
13759 14712
13759 14713
13759 23291
13760 21269
13761 13762
13761 18891
13761 23486
13762 15526
13762 18891
13763 17057
13763 17474
13763 17476
13763 18486
13763 23224
13764 18059
13764 23224
13765 15340
13766 18177
13768 21605
13768 21707
13769 17288
13769 17289
13770 15283
13770 17288
13770 23159
13771 23969
13772 22350
13773 18299
13773 18771
13775 15035
13776 23081
13777 19198
13777 21556
13778 14193
13779 18500
13779 21072
13780 13977
13780 14955
13780 19396
13780 19786
13781 20967
13782 14670
13784 18978
13785 15600
13785 21039
13786 15063
13786 15675
13786 16150
13786 18063
13786 20470
13787 16707
13787 21865
13787 23254
13788 13797
13788 16429
13788 16687
13788 21824
13788 22359
13789 16469
13789 17935
13789 20098
13790 19131
13790 20570
13791 16539
13791 17027
13791 22275
13791 23525
13792 15413
13795 17646
13795 20792
13795 21216
13796 17262
13796 18846
13796 19973
13796 21594
13797 16429
13797 22359
13798 16607
13799 16017
13799 19756
13801 18864
13801 20548
13802 20572
13802 21074
13805 24279
13805 24309
13805 24332
13806 23731
13806 23893
13807 18671
13808 17788
13808 22835
13808 23763
13809 16201
13810 20660
13811 15033
13811 19084
13811 20925
13811 23028
13812 19824
13813 14943
13813 15723
13813 16359
13814 14780
13815 15349
13816 18413
13817 18846
13817 19973
13818 21029
13818 22365
13819 17870
13819 21342
13820 18075
13821 22381
13822 16492
13822 19445
13822 23170
13823 21427
13823 22625
13823 22645
13824 18312
13825 17162
13825 21881
13826 17788
13826 22994
13827 15209
13827 17110
13827 18204
13827 20385
13827 21574
13827 23599
13828 18006
13829 21171
13830 18766
13830 21002
13831 21505
13831 21614
13832 17011
13834 20179
13835 16953
13836 21770
13837 15076
13838 14009
13838 15019
13839 15416
13839 15811
13839 18879
13839 21724
13839 24415
13842 19267
13842 19297
13842 20336
13842 21448
13843 15609
13843 20884
13843 23746
13845 22757
13846 15173
13847 16650
13847 23358
13848 18800
13848 19819
13848 22342
13849 15956
13849 16767
13850 17117
13851 14270
13851 18820
13851 21819
13852 15350
13853 15638
13853 16682
13854 15080
13854 16011
13854 16270
13854 16401
13855 24282
13856 18998
13856 19318
13857 23318
13857 24350
13858 15366
13858 18644
13860 21673
13861 23912
13861 24078
13862 14747
13862 16223
13862 19506
13862 22676
13863 21169
13863 22833
13864 22801
13865 20186
13865 21835
13865 23435
13866 15381
13866 17070
13866 17506
13866 23103
13867 13870
13867 23200
13868 16361
13868 22049
13869 15744
13869 17996
13869 19505
13869 20771
13870 13899
13870 14140
13870 14800
13870 14809
13870 14918
13870 15205
13870 15499
13870 16233
13870 16330
13870 17163
13870 17967
13870 17992
13870 18134
13870 19083
13870 19253
13870 19315
13870 19320
13870 19336
13870 19783
13870 20443
13870 20508
13870 20681
13870 20947
13870 21421
13870 21516
13870 21662
13870 21747
13870 22373
13870 22383
13870 23049
13870 23200
13870 23349
13871 18916
13871 19931
13873 13875
13873 14650
13873 15832
13873 15836
13873 15838
13873 22316
13873 22512
13874 15834
13875 13876
13875 13877
13875 15832
13875 15837
13875 21229
13878 21496
13879 16653
13879 19516
13879 19888
13879 21288
13880 13997
13880 21670
13880 22814
13881 14955
13881 21428
13882 14724
13883 21995
13883 22805
13884 14389
13884 14595
13884 17489
13884 17867
13884 22904
13885 17993
13885 20138
13885 22061
13885 23579
13886 15890
13887 19242
13888 17715
13889 18228
13890 15182
13890 16069
13890 22732
13892 16500
13892 21162
13892 23509
13893 13902
13893 20904
13893 21337
13893 21644
13893 21948
13895 13913
13895 17251
13895 17439
13895 21817
13896 14541
13896 19619
13896 20726
13897 21283
13898 14409
13898 16613
13899 16535
13899 20107
13900 14880
13900 15866
13900 16711
13900 17100
13900 20135
13901 18372
13902 14875
13902 21644
13903 17365
13903 22776
13904 17553
13904 18631
13904 21311
13905 16083
13906 18378
13906 19374
13907 22175
13909 19970
13910 19079
13910 19305
13911 15020
13912 22296
13913 17251
13913 17439
13913 18634
13913 20228
13913 20851
13913 21817
13914 14423
13914 18028
13915 14016
13915 14892
13915 18240
13916 14893
13916 15979
13916 16923
13916 18959
13916 20844
13917 14436
13917 15993
13918 14123
13919 17347
13919 20674
13919 20768
13920 15808
13921 19691
13921 20717
13921 21668
13921 22391
13923 20395
13924 17838
13927 14297
13930 14586
13930 15406
13930 15905
13930 21626
13931 20420
13931 23258
13934 18193
13934 21205
13935 17568
13935 19847
13935 22322
13936 23550
13937 20205
13937 23542
13938 20882
13939 21082
13939 21405
13940 15467
13940 16706
13940 17716
13940 23464
13941 16501
13942 18631
13942 21029
13943 23960
13944 17163
13945 17305
13947 13979
13947 19833
13947 23314
13948 19506
13948 20816
13949 19371
13950 14504
13950 18406
13951 14000
13953 15755
13953 17142
13953 22861
13954 14337
13954 17378
13954 17405
13954 20999
13955 22880
13955 23264
13956 19311
13956 19703
13956 21629
13957 18588
13958 14299
13958 14919
13958 19392
13959 17910
13959 19321
13960 24014
13960 24468
13961 15338
13962 15720
13962 16496
13962 17464
13962 20488
13962 22207
13963 21090
13964 19115
13964 19188
13964 19256
13964 21397
13964 21924
13964 22440
13965 16936
13965 17654
13965 20936
13965 22152
13966 19027
13966 20047
13966 23455
13967 16530
13967 23297
13968 18286
13968 18998
13969 16680
13969 16942
13969 18332
13969 21556
13970 14979
13970 15388
13970 16748
13970 22062
13970 23035
13970 23253
13971 18846
13973 20112
13975 14671
13975 15351
13977 14955
13977 16814
13977 19786
13978 19381
13978 19745
13978 21437
13979 19833
13980 15252
13980 22110
13981 22183
13982 16054
13982 20510
13984 16960
13984 17821
13984 19045
13985 23264
13986 17602
13986 21962
13987 18061
13987 21234
13990 19021
13991 20040
13992 14930
13992 16641
13994 18059
13994 23226
13995 20073
13995 24414
13996 17012
13998 20274
13998 22710
13999 24310
14000 17230
14001 15125
14001 20376
14001 22287
14003 22243
14005 16820
14005 17033
14006 23210
14008 19954
14008 23028
14009 15019
14009 15316
14010 18197
14011 16230
14011 16491
14011 20041
14012 14261
14013 21744
14013 22063
14013 22639
14014 15999
14014 17037
14014 18923
14014 19868
14014 20888
14014 22604
14015 15878
14015 18386
14015 20000
14015 20117
14016 14616
14016 17771
14016 19919
14016 20150
14016 21571
14017 16652
14017 18364
14017 20362
14018 14259
14018 15350
14019 17646
14020 17781
14020 20921
14020 22516
14021 18618
14022 14565
14022 16245
14022 17044
14023 22903
14024 19052
14024 21086
14025 14576
14025 18193
14025 19191
14025 20846
14025 21513
14025 22404
14026 14173
14026 16506
14026 22597
14027 21630
14028 21858
14030 14678
14030 18223
14030 19597
14030 20987
14030 21290
14030 23106
14031 22570
14032 20465
14032 20590
14033 21713
14034 14059
14034 19956
14035 20178
14038 17434
14038 23086
14039 17978
14040 15470
14040 22154
14041 16039
14041 20993
14042 16037
14042 16040
14042 16065
14043 14813
14043 22026
14044 18857
14048 15951
14048 18992
14048 19466
14049 17686
14049 22207
14050 24409
14050 24473
14051 15308
14051 19139
14051 23326
14052 22020
14053 16554
14053 20933
14054 17570
14054 17669
14054 18135
14054 18164
14054 19584
14054 20352
14054 20772
14054 22137
14055 24169
14056 15151
14056 19318
14058 19082
14058 21291
14058 23076
14059 14902
14059 14903
14059 15791
14059 16594
14059 17718
14059 18621
14059 19956
14059 23530
14060 14711
14060 14713
14060 23684
14061 21844
14063 14645
14063 17344
14066 22237
14068 14492
14068 14878
14068 19872
14069 22120
14070 15743
14070 15920
14070 22021
14071 14088
14071 15029
14071 15110
14071 16620
14071 19184
14071 19198
14071 19982
14071 20319
14071 20612
14072 18897
14072 21194
14072 22773
14073 23905
14074 15461
14074 22773
14075 23242
14076 17162
14076 21881
14077 14883
14078 14365
14078 21029
14078 22365
14079 14833
14080 15868
14080 18193
14080 19191
14081 16120
14081 23033
14082 16928
14083 16995
14083 17110
14084 24225
14084 24391
14086 18803
14087 14557
14087 14626
14087 15486
14087 15831
14089 17042
14089 18543
14089 20985
14089 22193
14090 15086
14090 15087
14090 23268
14091 16865
14091 22140
14092 19635
14092 23073
14093 20360
14094 15174
14094 21735
14095 19712
14096 15093
14096 18215
14096 20382
14097 19022
14098 24395
14099 15628
14099 18051
14100 21117
14100 23970
14101 23162
14102 18888
14102 22186
14102 22734
14102 22957
14102 23130
14103 14790
14103 18809
14104 15253
14104 16835
14104 18804
14104 22357
14106 23811
14106 24017
14106 24451
14107 14969
14107 20169
14107 21349
14107 23551
14109 16327
14109 16861
14110 15513
14110 15845
14110 21782
14111 14190
14111 16114
14111 20172
14111 20881
14112 14113
14112 16881
14113 15104
14113 16495
14113 17238
14114 14790
14114 18329
14115 16213
14116 16502
14116 22333
14116 23712
14118 15981
14118 19555
14118 22240
14119 19954
14119 23028
14120 14257
14120 18568
14120 19608
14121 15715
14121 15732
14122 15684
14122 18491
14122 19301
14122 19429
14122 20639
14122 21013
14122 23500
14124 15142
14124 16440
14124 17148
14124 21285
14126 18442
14127 20919
14128 22112
14129 15262
14130 18884
14131 19706
14131 22681
14133 18725
14133 21625
14134 20616
14135 15552
14135 18177
14135 20780
14135 20958
14135 23070
14136 21617
14137 22904
14139 15375
14139 15643
14139 15644
14140 20714
14140 23369
14141 18392
14141 23485
14142 17346
14142 19195
14142 19597
14142 21490
14143 17001
14144 14744
14144 19118
14145 15442
14145 18426
14145 20393
14146 19191
14146 20341
14146 22246
14147 15288
14147 19325
14148 23255
14149 16030
14149 17593
14150 17703
14151 14877
14153 14585
14153 21593
14153 21614
14154 14292
14154 21154
14155 15818
14156 17992
14157 16210
14157 16820
14157 17033
14158 17060
14158 21608
14158 21750
14158 22865
14160 14641
14160 20840
14160 22442
14161 15934
14161 19662
14161 21864
14161 22572
14163 17243
14163 22821
14164 20334
14166 14482
14166 21736
14167 14207
14167 21097
14167 21903
14168 15397
14168 17183
14168 18025
14168 18886
14169 14668
14169 21386
14170 18315
14171 14300
14171 17425
14171 21469
14172 18087
14172 23146
14173 16680
14173 22597
14173 23581
14174 15531
14174 16126
14175 22365
14176 17420
14176 19426
14177 15307
14177 15328
14177 17634
14177 18602
14177 20220
14177 23596
14178 15754
14178 16815
14178 21839
14178 22603
14179 15947
14179 21297
14179 22234
14179 22463
14179 22854
14181 14704
14181 17134
14183 18146
14183 21903
14184 21050
14185 15177
14185 19601
14186 19044
14186 20208
14186 22502
14187 19073
14187 21581
14187 21591
14188 19198
14189 16644
14189 22389
14190 20172
14191 16638
14191 16924
14191 20522
14191 20720
14191 21358
14191 21369
14191 22204
14191 22627
14191 23397
14192 18475
14193 16533
14193 20558
14193 22614
14195 17440
14196 19272
14196 22772
14197 20100
14199 18962
14200 15125
14200 20376
14200 22287
14201 15485
14201 17208
14201 19964
14202 14619
14202 15740
14203 15975
14203 19316
14203 19757
14203 20996
14204 14779
14204 15136
14204 16260
14204 19569
14204 20769
14204 23024
14205 21650
14207 20707
14207 21097
14208 15350
14208 15752
14208 20617
14209 19294
14211 15285
14211 20763
14212 22990
14213 16204
14214 20403
14214 21206
14214 22663
14216 23566
14217 17162
14218 17744
14219 14322
14219 15055
14219 15575
14219 15873
14219 18000
14219 18338
14219 18746
14219 21620
14220 14715
14220 21077
14220 21308
14221 15033
14221 19084
14221 20925
14221 23028
14224 18124
14225 19063
14226 15417
14226 23764
14227 16089
14228 14846
14228 15197
14228 20333
14229 14377
14229 19598
14231 15278
14231 23338
14232 14279
14234 15979
14234 16923
14234 18635
14234 21247
14234 22211
14235 20685
14235 22819
14236 15793
14236 19586
14237 20393
14238 19346
14238 22467
14238 23246
14240 18261
14240 20718
14240 21029
14240 22365
14241 17077
14241 18135
14242 17216
14242 17602
14242 21962
14243 14732
14243 16713
14243 16958
14243 22109
14244 15400
14244 16259
14244 19270
14245 17412
14246 19004
14246 23615
14247 14519
14247 16585
14247 18278
14247 23055
14248 15778
14248 16642
14248 22242
14248 23222
14249 15649
14249 16612
14249 17990
14251 14257
14251 14353
14251 14578
14251 16458
14251 17351
14251 20056
14251 20254
14251 23047
14251 23048
14252 17162
14253 16285
14254 18689
14255 19613
14257 17351
14258 17351
14259 15350
14260 23802
14260 23955
14261 15267
14261 17483
14262 17870
14262 19296
14263 19171
14263 19173
14265 15630
14265 17582
14265 20827
14266 14773
14266 15898
14266 21145
14267 16000
14267 16742
14267 17022
14267 19719
14269 24164
14269 24427
14270 18820
14272 16662
14272 20136
14272 21361
14272 21468
14272 23273
14273 18323
14273 18519
14273 22141
14274 17620
14274 18659
14275 19517
14275 22283
14276 21171
14277 16265
14277 19751
14277 20333
14277 22447
14278 16268
14278 18925
14278 19866
14279 23919
14279 24400
14280 15002
14280 20433
14281 20137
14281 20882
14282 17141
14282 18307
14283 22210
14284 16238
14284 18477
14284 19949
14284 22832
14286 14338
14286 15270
14286 18679
14286 19047
14287 20479
14289 18142
14289 20879
14290 15494
14290 17838
14291 20882
14292 21154
14293 14585
14293 14923
14293 16267
14293 20561
14294 15302
14294 21008
14294 22095
14295 16052
14296 15995
14296 16700
14297 16135
14297 18023
14297 18667
14297 20055
14297 20300
14297 20935
14297 23453
14299 14919
14299 18625
14301 19514
14301 19855
14302 18441
14302 19226
14302 20058
14302 21788
14303 14381
14304 19229
14304 20237
14305 19563
14305 21926
14306 18587
14306 20640
14306 21856
14306 23888
14307 17911
14309 16972
14309 21719
14311 16506
14311 20351
14312 16213
14312 18998
14313 15120
14313 17292
14313 23584
14314 18864
14314 19546
14314 22272
14315 16563
14315 23054
14317 23593
14317 23688
14318 16224
14318 19443
14318 21401
14318 22027
14319 17305
14319 17992
14320 18530
14321 23369
14323 14325
14323 14326
14323 15304
14323 16667
14324 15607
14324 17155
14325 14326
14325 16668
14325 23377
14326 16667
14326 16668
14326 19730
14327 19730
14330 16221
14330 17097
14330 17180
14331 15491
14332 14512
14332 20787
14333 15132
14333 16430
14333 21310
14334 17025
14335 17163
14335 23200
14336 14498
14336 19917
14336 20225
14336 20938
14338 15270
14338 19047
14339 15403
14340 18404
14340 18802
14341 21570
14341 21697
14341 21781
14341 22254
14342 14938
14342 17419
14343 16550
14344 20554
14345 19248
14346 17182
14346 22148
14348 16356
14349 21728
14350 18782
14350 19923
14352 19987
14352 21467
14353 17351
14353 18420
14354 22791
14356 18785
14358 14953
14359 14560
14360 16235
14360 22977
14361 17047
14362 19358
14363 14820
14363 14984
14363 15024
14363 15515
14363 15882
14363 15991
14363 16014
14363 16590
14363 16764
14363 17426
14363 17478
14363 17585
14363 18570
14363 18949
14363 19565
14363 19700
14363 20159
14364 19061
14364 19361
14364 23369
14365 22365
14365 23502
14366 19381
14366 21437
14367 14442
14367 14444
14367 14445
14367 16689
14367 19958
14369 15300
14370 14475
14370 19988
14371 21009
14371 22913
14372 14660
14372 15966
14372 16358
14372 22914
14373 20066
14373 22253
14374 17884
14374 17958
14374 19248
14375 21074
14376 18911
14377 16490
14377 19598
14378 18150
14379 15991
14379 22156
14380 15393
14380 15410
14380 20436
14381 14983
14381 17250
14381 19472
14382 14978
14383 21975
14384 15035
14384 19509
14385 18200
14386 15939
14386 21381
14386 23807
14386 24131
14386 24215
14387 16189
14387 17551
14389 22904
14390 24395
14392 21685
14393 22631
14394 23987
14395 15428
14395 16737
14395 19064
14395 20632
14396 15018
14396 22910
14397 15231
14397 15433
14397 16989
14397 17061
14398 15434
14398 18077
14398 21116
14398 21923
14399 14526
14399 16402
14400 14548
14400 19755
14401 19418
14402 18058
14402 19973
14402 20566
14403 19591
14403 22643
14404 23737
14404 24397
14405 15646
14407 22927
14408 16810
14408 18969
14408 20969
14408 20977
14410 15447
14410 19793
14411 15840
14411 19198
14411 21614
14412 22156
14412 22820
14413 15803
14413 18262
14413 21527
14414 14585
14414 15613
14415 16843
14415 21992
14417 17682
14417 18450
14417 22514
14417 22574
14417 23481
14418 16273
14418 19562
14419 21269
14420 19685
14421 18631
14421 19564
14421 22365
14422 17749
14422 18353
14422 19794
14422 22678
14422 23319
14423 22701
14424 15347
14424 16878
14424 18014
14424 22984
14425 20376
14425 22287
14426 15413
14426 21625
14427 23476
14427 23853
14428 18910
14428 19549
14429 16450
14429 19777
14429 20818
14430 15221
14430 16862
14430 23141
14434 17493
14434 22477
14435 23792
14435 23992
14437 15473
14437 17018
14437 23304
14438 14719
14438 16207
14439 16258
14439 20320
14440 18918
14441 14444
14441 14485
14441 19958
14442 14445
14442 15886
14442 16689
14443 14447
14443 14449
14443 15478
14443 15479
14444 14445
14444 14447
14444 14449
14444 14898
14444 14899
14444 15886
14444 16912
14444 21125
14444 23643
14445 14447
14445 14485
14445 16689
14445 17330
14446 14491
14446 18404
14446 21265
14446 22334
14447 14449
14447 15478
14447 19958
14448 15426
14448 19050
14448 20952
14448 21723
14449 15480
14449 16691
14449 17330
14449 19958
14449 23643
14450 17002
14450 18237
14450 18998
14450 19318
14450 19412
14452 18549
14452 21677
14454 24339
14455 19943
14455 20412
14455 21643
14455 21916
14455 22328
14456 18781
14456 18861
14457 16966
14458 22885
14459 15746
14459 16870
14459 17017
14460 16637
14461 21656
14462 22621
14463 15494
14463 20696
14466 19687
14468 23748
14469 17687
14469 21593
14470 22019
14470 22975
14472 14501
14472 15193
14472 17499
14472 17968
14472 20709
14473 15940
14473 18202
14473 20116
14473 20634
14474 17036
14474 18884
14474 23365
14475 14999
14475 16156
14475 16400
14475 17880
14475 18811
14475 21009
14475 23121
14476 20356
14477 17790
14477 18855
14478 16401
14479 16426
14479 17116
14479 17608
14480 21764
14481 18154
14481 20208
14482 15499
14482 16163
14482 16192
14482 16476
14482 17529
14482 17701
14482 18939
14482 19912
14482 21736
14483 17137
14483 17353
14483 19927
14484 20368
14484 23046
14485 19958
14486 15318
14486 15516
14486 16643
14487 18631
14488 14940
14489 15251
14492 14878
14493 15549
14493 17687
14493 19075
14494 15093
14495 16536
14495 19593
14496 14963
14496 16024
14496 17146
14496 18482
14496 19292
14496 21051
14496 21209
14496 21635
14496 21661
14496 22071
14496 22315
14496 22982
14497 21508
14497 21721
14497 22499
14498 16647
14498 20771
14498 23454
14499 15034
14499 16272
14499 22597
14500 17699
14500 19220
14501 19121
14501 20480
14502 16326
14503 19156
14503 19164
14503 20955
14504 20754
14505 22668
14507 15762
14508 14874
14508 18781
14508 22818
14509 21511
14509 22944
14511 20850
14512 16442
14512 18736
14512 20787
14513 14789
14513 16504
14513 16650
14513 18108
14513 18566
14513 19923
14513 22623
14513 23507
14514 14934
14515 16768
14515 17447
14515 20973
14516 15222
14516 16289
14516 21658
14518 15751
14518 16397
14518 22504
14519 18278
14520 17452
14520 17454
14520 20583
14520 23527
14521 16227
14521 18886
14522 15769
14522 23425
14523 16663
14524 15010
14524 17525
14524 17790
14524 17896
14525 19160
14526 15124
14526 16525
14526 17087
14527 18334
14527 19957
14528 20662
14530 18599
14532 17340
14533 16819
14533 19418
14533 23339
14534 17278
14534 17514
14534 20473
14534 20511
14535 14681
14535 14686
14535 15369
14535 22050
14535 22372
14536 22917
14536 23265
14536 23839
14537 23605
14538 18512
14540 23879
14540 24103
14541 18561
14541 19211
14541 20726
14542 23794
14543 15991
14544 15413
14545 14960
14545 20360
14546 24124
14547 16117
14548 19755
14549 19404
14549 22637
14550 14607
14550 14681
14551 20866
14552 18355
14552 19040
14553 22543
14554 17432
14554 19789
14554 23092
14555 17717
14556 16138
14556 18860
14557 15486
14558 17197
14558 20917
14558 22153
14560 16959
14561 15350
14561 16784
14562 16853
14563 18844
14564 22822
14565 15502
14565 17044
14565 19670
14565 20182
14565 20194
14565 21481
14566 15187
14566 20366
14567 14688
14568 21812
14569 18102
14569 19611
14569 19830
14569 19906
14569 20653
14569 21897
14569 22167
14569 22449
14569 22677
14571 23338
14572 14653
14573 15453
14573 21119
14574 18785
14575 17785
14576 14680
14576 18193
14576 21513
14577 17744
14577 18631
14578 18158
14580 16639
14581 15628
14581 19908
14581 21256
14582 15271
14582 17224
14582 17721
14583 17304
14584 15017
14584 20545
14584 21847
14585 14859
14585 14923
14585 15395
14585 15687
14585 16361
14585 16955
14585 18468
14585 19106
14585 20561
14585 21593
14585 21614
14585 21650
14585 21878
14585 22049
14585 23583
14586 15905
14587 15797
14587 19658
14587 19901
14590 15470
14590 15903
14590 19146
14590 22154
14591 14596
14591 18510
14592 22904
14593 14730
14593 15745
14593 16629
14593 17074
14595 22904
14598 20376
14598 22287
14599 17550
14600 15041
14600 15619
14600 16651
14600 17362
14600 17901
14600 18582
14600 19724
14600 19763
14600 20088
14600 22956
14602 17633
14602 20277
14602 20648
14602 23297
14603 20503
14604 21640
14605 15868
14605 18193
14605 19191
14605 22246
14606 15031
14606 19796
14607 14681
14609 15418
14609 22786
14610 14855
14610 16551
14611 19931
14611 20098
14613 20992
14613 22024
14614 21825
14614 22067
14614 23277
14615 17921
14615 18529
14615 22032
14616 18229
14616 18280
14616 19780
14616 20859
14616 21571
14617 23369
14618 22116
14619 19126
14620 17492
14620 23506
14620 23684
14621 17583
14621 19363
14623 14940
14623 18680
14625 20904
14626 23843
14627 19318
14627 22025
14628 15750
14629 22708
14630 15614
14630 20778
14630 21485
14631 14636
14632 14635
14633 14635
14634 14635
14634 21200
14635 21200
14635 22374
14636 21200
14636 22374
14637 14653
14637 16914
14638 22053
14639 19601
14640 22400
14642 16309
14642 17268
14643 15354
14643 16973
14643 20095
14643 20813
14643 21315
14643 22151
14643 23190
14644 14936
14644 19593
14644 23329
14645 17344
14647 22920
14648 15640
14651 15130
14651 19067
14652 23952
14652 24181
14652 24318
14653 14791
14653 14941
14653 16419
14653 18188
14653 22590
14653 24483
14654 22193
14655 21596
14655 22046
14655 22474
14656 23924
14657 16704
14657 17871
14657 19273
14657 19769
14657 22849
14657 23547
14658 15817
14658 16952
14658 20500
14658 22747
14659 14799
14660 16358
14660 22914
14662 22900
14662 23710
14662 24164
14663 16328
14663 17616
14664 17525
14664 18405
14664 19198
14665 17687
14665 22004
14666 24384
14666 24467
14668 16218
14668 21386
14668 21389
14668 22730
14670 16198
14670 17614
14670 21660
14673 21256
14674 24402
14675 23655
14676 17020
14676 22425
14677 18555
14678 20987
14679 15811
14680 16199
14680 21513
14681 14684
14681 14685
14681 14686
14681 15369
14681 21395
14681 22050
14681 22372
14682 15529
14683 14686
14683 21395
14684 14685
14684 14686
14685 14686
14685 21395
14686 15369
14686 22050
14687 17712
14687 18035
14687 18735
14687 22981
14687 23730
14688 15679
14688 17459
14689 17103
14690 23610
14691 15311
14692 15108
14692 16671
14692 20796
14693 17720
14693 22314
14695 14929
14695 16202
14695 22169
14696 22738
14697 20061
14699 14966
14699 16839
14701 22281
14702 21303
14702 23168
14703 20243
14704 15984
14704 18809
14707 24279
14707 24332
14708 17349
14710 14713
14710 15640
14712 14713
14713 23684
14714 16680
14714 21627
14714 22974
14715 15738
14715 17219
14715 21077
14716 15035
14716 15535
14717 23213
14718 15350
14718 18962
14719 16207
14719 21524
14720 17353
14720 17860
14720 18943
14721 22429
14721 23478
14722 19198
14723 15821
14725 15434
14725 18077
14726 19370
14726 20554
14726 20866
14727 23671
14727 23765
14727 24099
14728 19382
14728 23401
14729 22538
14730 16629
14730 21863
14732 16713
14732 16877
14732 16958
14732 19942
14732 20751
14732 22685
14733 16807
14733 18299
14734 17643
14734 20204
14734 22939
14735 23623
14736 15734
14736 18253
14737 15209
14737 16995
14737 18948
14737 21574
14737 22912
14738 15488
14738 17824
14738 23077
14739 18286
14739 18998
14739 23100
14740 16177
14741 17763
14741 17810
14743 14909
14743 16296
14744 21018
14745 15313
14745 18833
14746 16586
14747 16223
14747 23258
14748 23779
14749 21556
14751 18440
14751 18665
14751 18689
14751 19224
14751 22340
14751 23394
14753 17553
14753 18631
14753 22365
14754 19090
14755 20216
14756 23820
14756 24254
14756 24284
14757 21840
14757 22651
14758 17224
14758 23542
14759 17665
14760 17687
14760 21593
14761 18760
14761 18927
14761 22730
14762 15190
14762 19972
14762 21257
14763 22274
14763 23793
14763 23976
14764 23793
14764 23976
14765 15497
14765 18660
14765 19967
14765 20207
14766 22261
14766 24159
14767 20051
14768 15003
14769 19179
14769 20402
14770 18193
14770 22246
14771 18782
14772 17945
14772 19035
14772 19969
14773 15898
14773 22562
14775 14958
14775 15416
14776 22934
14778 15141
14778 19181
14778 20005
14779 21335
14780 22824
14781 17216
14781 17602
14781 21962
14781 22397
14782 20921
14782 21233
14784 16526
14784 16995
14784 18841
14784 21417
14785 15599
14785 16161
14785 21356
14787 21070
14787 23149
14789 23496
14790 15984
14790 18329
14790 22925
14791 22590
14792 23694
14792 24006
14792 24275
14793 23975
14793 24461
14794 22904
14795 18177
14796 18776
14796 21203
14796 23514
14797 15162
14797 23267
14799 19445
14799 20467
14799 21298
14800 17338
14800 18566
14800 18729
14800 20216
14800 21281
14800 21423
14800 21624
14800 22782
14801 16209
14802 23155
14803 16157
14803 18894
14803 21462
14804 19109
14804 19382
14804 22352
14804 22657
14805 22613
14806 15359
14806 15782
14806 23603
14807 17450
14807 17834
14807 21180
14808 15561
14808 16600
14808 18054
14808 22044
14808 23497
14812 21593
14812 21614
14813 21127
14814 15802
14814 21263
14815 23775
14816 20619
14817 22526
14818 22762
14819 16871
14819 17704
14819 18574
14820 19776
14820 19954
14821 16157
14821 19455
14821 20573
14822 15459
14824 17973
14824 18805
14825 17765
14825 18846
14826 17698
14826 20868
14827 15454
14829 15604
14829 18282
14830 15720
14830 18798
14832 17462
14832 17660
14832 21755
14832 21756
14833 15350
14833 15977
14833 16640
14833 17217
14833 17833
14833 18752
14833 18962
14833 19055
14833 19359
14833 20083
14833 20399
14833 21276
14833 22519
14834 19853
14835 22940
14836 15673
14836 17648
14836 23539
14837 21486
14837 23056
14839 17305
14839 17992
14840 15173
14840 18600
14841 22107
14842 16939
14844 16006
14845 18188
14846 15197
14847 19860
14849 23854
14849 23856
14849 23857
14850 24335
14852 14861
14852 16932
14852 19128
14852 22286
14853 16328
14853 16394
14854 15033
14854 19084
14854 20925
14854 22868
14854 23028
14855 18211
14855 19312
14855 19881
14855 20499
14855 22665
14856 23955
14856 24279
14857 15744
14857 17996
14857 19505
14857 20771
14858 16723
14859 21593
14860 16894
14860 19827
14861 22286
14864 17631
14864 19355
14864 20765
14865 19139
14865 21147
14866 14868
14866 14869
14866 15843
14867 14869
14867 19449
14868 15843
14869 14871
14870 16246
14870 17214
14870 22056
14871 15368
14872 23681
14872 23682
14873 17188
14873 18264
14873 19455
14874 15404
14874 16832
14874 17789
14874 18418
14874 18781
14874 21883
14874 21900
14874 22012
14875 20904
14875 21644
14875 21948
14876 15865
14876 20986
14877 15699
14877 16624
14877 16964
14877 19099
14877 19288
14877 20244
14877 20703
14877 21594
14877 22594
14877 23359
14878 16084
14878 18657
14879 17768
14879 17928
14879 18129
14879 20979
14879 23175
14880 17100
14880 19379
14881 21208
14885 17305
14885 18782
14886 21853
14888 16562
14888 19904
14890 19562
14891 18286
14891 18375
14891 18998
14891 23100
14892 15023
14892 17169
14892 17771
14892 18240
14893 20844
14894 21592
14894 22740
14895 16347
14895 17190
14895 19528
14895 23104
14896 15207
14896 18869
14896 18967
14896 21869
14896 22610
14896 23860
14897 17467
14898 16689
14900 14906
14900 19322
14900 19688
14900 21343
14900 22128
14901 17546
14903 19956
14904 14905
14904 15888
14904 15891
14904 15895
14904 16683
14904 16685
14904 23643
14905 16684
14906 19322
14906 19688
14906 22128
14907 21761
14907 22324
14908 19567
14908 19868
14909 16296
14909 18095
14909 18272
14910 23200
14910 23492
14912 20265
14912 20406
14913 15448
14913 16012
14913 20937
14913 22482
14913 23258
14914 19327
14915 24282
14916 15384
14918 20216
14919 18625
14920 15151
14920 19318
14921 15342
14921 15401
14921 16722
14921 17430
14922 18035
14923 21614
14924 17411
14925 19476
14925 19853
14927 16935
14927 21458
14927 21775
14928 19428
14928 20683
14929 15912
14929 20085
14929 22169
14929 22923
14929 23414
14930 22227
14931 15716
14931 21774
14931 24299
14932 15266
14932 17945
14932 19356
14932 21264
14933 15463
14933 16324
14933 16423
14933 16899
14933 17367
14933 18643
14933 19988
14933 20563
14933 20824
14933 21098
14933 21654
14933 21927
14933 22913
14933 23840
14934 15743
14934 15920
14935 21525
14936 23063
14937 15410
14939 18998
14939 23100
14940 15126
14940 15268
14940 15648
14940 15923
14940 16068
14940 16212
14940 17642
14940 18145
14940 18936
14940 19145
14941 20386
14942 23960
14943 16172
14944 19611
14946 15009
14946 20054
14948 24406
14950 18631
14952 15931
14952 21258
14952 22864
14953 16353
14953 19761
14954 15609
14954 18380
14955 16814
14955 19396
14956 17378
14956 20999
14957 16506
14957 20013
14958 15416
14958 15943
14960 16023
14961 22051
14962 16483
14962 23604
14963 21635
14964 15102
14964 16437
14965 15102
14965 16157
14966 16839
14966 16840
14967 18933
14967 21259
14968 20120
14969 15465
14969 20905
14969 21441
14969 21889
14969 22319
14970 18604
14972 19381
14974 16133
14974 22394
14975 15557
14975 18153
14975 19183
14977 19371
14978 16692
14978 18333
14978 20606
14978 24087
14979 15388
14979 15952
14979 17984
14979 20594
14979 20852
14979 22062
14979 22150
14980 15416
14980 21724
14981 15509
14981 16950
14982 16054
14982 18031
14982 18516
14986 17544
14986 20939
14987 19698
14987 20826
14988 20102
14989 20146
14989 21048
14989 23094
14989 23416
14991 15581
14991 20644
14992 17007
14993 17847
14993 20492
14993 20637
14993 21833
14993 23545
14994 19021
14996 20040
14997 20625
14997 21529
14997 22082
14998 15975
14998 20166
14998 20996
14999 15904
14999 17170
14999 19988
14999 21332
15001 18833
15001 22710
15001 23663
15002 17046
15003 20318
15004 20705
15004 22138
15005 23808
15007 23765
15007 24152
15008 22231
15008 23038
15010 17896
15010 18855
15010 21982
15011 17208
15011 20369
15012 18091
15013 15594
15013 21293
15013 22524
15015 18131
15015 22067
15015 23277
15015 23301
15017 17191
15017 18161
15017 19879
15018 17991
15018 20306
15021 15999
15021 17037
15021 18923
15021 19868
15022 16611
15022 18612
15023 17169
15023 17771
15023 18229
15023 18240
15023 18280
15025 20118
15026 22860
15027 19834
15028 21074
15029 19205
15030 15127
15030 17252
15030 17264
15031 19796
15031 22936
15032 20165
15032 22424
15032 22559
15032 22853
15033 15593
15033 15735
15033 16275
15033 17145
15033 18244
15033 20983
15033 21758
15033 22345
15034 22597
15035 15535
15035 15689
15035 19838
15036 18014
15036 23093
15037 19399
15037 21556
15038 16994
15038 20379
15038 22799
15039 18031
15039 20510
15040 15356
15040 16259
15040 19270
15041 16651
15041 17362
15041 17901
15041 22956
15042 22644
15042 22653
15043 18645
15043 19902
15044 15615
15045 22342
15045 22653
15046 19249
15046 19450
15047 18189
15047 23430
15049 18104
15049 19238
15049 20134
15049 23308
15051 18312
15051 20326
15052 15105
15052 16155
15053 19052
15053 19418
15053 19834
15053 22221
15053 23424
15054 15120
15054 16595
15054 16902
15054 17381
15054 18970
15054 19181
15055 15873
15056 15199
15056 19588
15057 17012
15058 21435
15059 19886
15061 17686
15062 16168
15062 16975
15063 15675
15063 18063
15063 18807
15063 20829
15063 22162
15063 22321
15064 15522
15064 16256
15064 19411
15064 21372
15064 21827
15064 22047
15064 22387
15064 23611
15065 21487
15066 17402
15066 17763
15067 18803
15068 17851
15068 17951
15068 19437
15068 19566
15068 23189
15072 17649
15072 22376
15073 18890
15073 21183
15073 22360
15075 16858
15075 20771
15075 22894
15079 20801
15081 19245
15083 21614
15084 21664
15085 19805
15085 22902
15085 24002
15085 24245
15086 20239
15086 21296
15086 23565
15087 17103
15087 20763
15088 24076
15088 24215
15090 17345
15090 17385
15091 16549
15091 17933
15091 19854
15091 23342
15091 23705
15092 17266
15094 18933
15094 19318
15095 16315
15095 19439
15096 22807
15098 21948
15098 23162
15099 17865
15099 20314
15100 15725
15100 20157
15100 21549
15100 22349
15101 17411
15101 20144
15102 17238
15103 17621
15103 23461
15104 16157
15105 18570
15106 20049
15107 17552
15107 20123
15107 20652
15107 22189
15108 16671
15108 20796
15110 21725
15110 22156
15110 22444
15111 17341
15111 20421
15112 18929
15112 22458
15113 19852
15115 20771
15116 15127
15116 17264
15119 21339
15121 19418
15121 19834
15122 17462
15122 17660
15122 21756
15123 15631
15125 15721
15125 17135
15125 17571
15125 19177
15125 22287
15125 23552
15126 15648
15126 18680
15126 20291
15126 21189
15126 22130
15127 18068
15128 19339
15129 17800
15129 21124
15129 21520
15130 22165
15134 16897
15134 17565
15134 19554
15134 21837
15135 16748
15135 22193
15135 23035
15135 23098
15138 24303
15139 18640
15139 19393
15140 15539
15140 20164
15141 16632
15141 19181
15142 17148
15143 15748
15144 21740
15145 15355
15145 16797
15145 17773
15145 18210
15145 18490
15145 19732
15145 19745
15145 20187
15145 22271
15145 22290
15145 22550
15145 23586
15148 15578
15148 21100
15148 24407
15149 15509
15149 18384
15149 21462
15149 21888
15151 15336
15151 15829
15151 16179
15151 16287
15151 17199
15151 18517
15151 18673
15151 19318
15151 19760
15151 21185
15151 21709
15152 15784
15152 19464
15153 24258
15153 24260
15154 17305
15154 18782
15155 22154
15156 15680
15156 16363
15156 18377
15156 22326
15158 15824
15158 18419
15158 20305
15159 16455
15159 19040
15160 19180
15160 19370
15160 20866
15160 23382
15161 16219
15161 21501
15161 22188
15163 22533
15164 15255
15164 15460
15164 18973
15164 23184
15165 17029
15165 20576
15165 21251
15166 16460
15166 17426
15166 21042
15167 18285
15167 19921
15167 20521
15168 19442
15168 19738
15168 23059
15169 22762
15171 20629
15171 21464
15174 16754
15176 19374
15176 23597
15177 19601
15178 15698
15178 19065
15178 24071
15179 16758
15179 23827
15180 19162
15181 21106
15182 15627
15182 19510
15182 22135
15182 22732
15184 17414
15184 22092
15185 18135
15186 22287
15186 23552
15187 20366
15187 22721
15188 17958
15189 22676
15189 22919
15190 19972
15190 20717
15191 20588
15192 18678
15193 20480
15194 16840
15194 18301
15194 18580
15194 20354
15195 16191
15195 21465
15196 16191
15197 22447
15197 23182
15198 17101
15199 17253
15200 16191
15200 20590
15201 16925
15201 20320
15201 20332
15201 21012
15201 21192
15201 22298
15202 18220
15202 22931
15205 16927
15205 17992
15207 16411
15207 18427
15207 18967
15207 21869
15207 23561
15207 23580
15208 18382
15208 20941
15209 17110
15210 17806
15210 20558
15211 16552
15211 23459
15212 15958
15212 19022
15212 22329
15213 17228
15213 17917
15214 17554
15214 18094
15216 19800
15216 22045
15217 19947
15218 17886
15218 19909
15218 22323
15220 18980
15221 16862
15222 21658
15223 18994
15223 20124
15224 19677
15224 21027
15227 15538
15227 19018
15227 20718
15228 21770
15229 22053
15230 19459
15230 20285
15231 15433
15231 17061
15232 18993
15233 17269
15234 15773
15234 19192
15235 22377
15236 16768
15236 17447
15237 23018
15238 20934
15238 22555
15239 15394
15239 20459
15240 15650
15240 16139
15240 17408
15240 18566
15240 18729
15240 19742
15240 21195
15241 22168
15242 15609
15242 20435
15243 16177
15245 16351
15246 15409
15246 15579
15246 18764
15246 19496
15246 20764
15246 22007
15247 16978
15247 20598
15247 22138
15248 20660
15249 20554
15250 17206
15250 19047
15250 19666
15250 22003
15252 15577
15252 22110
15253 17054
15253 18804
15255 15460
15255 18973
15255 23184
15256 17240
15256 19247
15258 19473
15260 16664
15260 19779
15260 20520
15261 16076
15264 15670
15264 18831
15264 19636
15266 19356
15266 21264
15269 18335
15269 20298
15270 19666
15270 22003
15271 22072
15271 22565
15273 17807
15273 17852
15273 22715
15275 17182
15275 19654
15275 20679
15276 21033
15277 15400
15277 15615
15277 17203
15277 23200
15279 16980
15280 19074
15280 23351
15281 17288
15281 17289
15283 17288
15283 19871
15283 23159
15283 23165
15284 20628
15284 22945
15284 22962
15285 17827
15286 23407
15287 19778
15287 21345
15287 21820
15289 16255
15289 22008
15290 18900
15290 22053
15291 22267
15292 18888
15292 23130
15293 15779
15293 17828
15293 18753
15293 23011
15294 16072
15294 17803
15294 20432
15295 16200
15295 17313
15295 17319
15295 19870
15296 23776
15296 23792
15298 18511
15298 19283
15298 20486
15300 22475
15300 22909
15301 21029
15302 17486
15302 17925
15302 21008
15305 16771
15305 23243
15306 19824
15306 22735
15307 19198
15307 23596
15308 23326
15309 24279
15310 23282
15311 15942
15312 24222
15313 15728
15313 16626
15313 18833
15313 20274
15314 15489
15314 22054
15314 22387
15314 23533
15315 17947
15315 21078
15316 20930
15316 23634
15320 15788
15321 24284
15322 19371
15323 16373
15323 19831
15324 16909
15324 18087
15325 16377
15325 22560
15326 21583
15327 16374
15328 17709
15328 23596
15329 21606
15329 22795
15330 20315
15330 21005
15331 22050
15331 23002
15332 22287
15333 23533
15334 21907
15336 19318
15337 21284
15337 23290
15339 17359
15340 22307
15341 15510
15341 20476
15342 15401
15343 19314
15343 19954
15343 23028
15344 20742
15344 21618
15344 21741
15345 19988
15346 18846
15347 22984
15348 18288
15348 20437
15348 23410
15350 16784
15350 17217
15350 18049
15350 18422
15350 19055
15350 19359
15350 20083
15350 20399
15350 21128
15350 21712
15351 16507
15351 16729
15351 19105
15351 20656
15351 21237
15351 22191
15351 22281
15351 22725
15351 23143
15352 18195
15352 23182
15353 20629
15353 22371
15354 16973
15354 18297
15355 19381
15355 21437
15356 15400
15356 16259
15360 15994
15360 18868
15360 19168
15362 18058
15362 19973
15363 18175
15363 19053
15363 22381
15363 23289
15364 15786
15364 17935
15365 22334
15366 15520
15366 20660
15366 20746
15367 24173
15367 24458
15368 19449
15369 15370
15369 22050
15370 15371
15370 15373
15370 21314
15370 22564
15371 15373
15371 21314
15371 22564
15372 18998
15373 21314
15373 23140
15374 18873
15374 22034
15375 15641
15375 15644
15376 19729
15378 22913
15378 23121
15380 18253
15380 22286
15381 16383
15381 16443
15381 17506
15381 20401
15381 22744
15381 22858
15381 23103
15383 16235
15383 22048
15384 21834
15385 19931
15386 17345
15387 23792
15387 24397
15388 15952
15388 17984
15389 19227
15390 16074
15390 16077
15390 23109
15394 20107
15395 21593
15395 21614
15396 18827
15397 17183
15397 18025
15398 22820
15399 21257
15400 17083
15400 18144
15400 19130
15400 20462
15401 16722
15401 17430
15402 18575
15402 18724
15402 20272
15402 20929
15402 21806
15402 22163
15403 16569
15403 17175
15404 18781
15405 23981
15405 24476
15405 24488
15406 19560
15406 21626
15407 15538
15407 21894
15408 19987
15411 20132
15411 22259
15413 22390
15414 16460
15414 17426
15414 21042
15416 20091
15416 22219
15416 24415
15417 16778
15417 19048
15417 20660
15418 22786
15421 22138
15422 24111
15423 23121
15424 17469
15425 18851
15425 19072
15426 19050
15426 20952
15428 20632
15429 17121
15429 23050
15430 21403
15430 22768
15431 18363
15431 22894
15432 17043
15434 16151
15434 18077
15434 21116
15434 21923
15434 22992
15436 18680
15437 20261
15438 21710
15438 23468
15438 23519
15439 16751
15440 16516
15440 20649
15440 23067
15440 23302
15441 18998
15442 18426
15442 20289
15443 16127
15443 21638
15443 22202
15444 19519
15445 16478
15445 16811
15445 17746
15445 19022
15445 20693
15445 20945
15445 21685
15446 16484
15446 19903
15446 20922
15447 16482
15448 19395
15448 20420
15449 21181
15449 22885
15450 19445
15450 23170
15451 15635
15454 18132
15454 22966
15454 23448
15456 16072
15456 17309
15456 17803
15456 23340
15458 22138
15460 18973
15460 23184
15461 22773
15461 23905
15462 17021
15462 18065
15463 22913
15465 23551
15466 18493
15467 16706
15467 17716
15467 22567
15467 23029
15467 23464
15468 18722
15468 18993
15469 18998
15469 22005
15470 15903
15470 18004
15470 18534
15470 19146
15470 22224
15471 23628
15472 18149
15472 22138
15473 17018
15473 23304
15474 16103
15474 16111
15474 19963
15474 22225
15475 19400
15477 22144
15478 19958
15479 15480
15480 19614
15480 19958
15480 22528
15481 18843
15481 22816
15482 17772
15482 22800
15483 18006
15483 19811
15483 19977
15484 20663
15484 22738
15485 17208
15485 19166
15485 19964
15485 20369
15488 16181
15488 16713
15488 18005
15488 20751
15490 17887
15491 16091
15492 23148
15493 18016
15495 21455
15497 20207
15498 15819
15498 16532
15498 16868
15498 18275
15499 19986
15500 15695
15500 15718
15500 19109
15500 22352
15500 22544
15500 23573
15501 16356
15501 21192
15502 16245
15503 20518
15504 22064
15505 22210
15507 15508
15507 21557
15507 22684
15508 21559
15508 22684
15509 16542
15509 16950
15511 16394
15511 17616
15512 23856
15512 24114
15512 24115
15513 15845
15513 20228
15514 20458
15515 15991
15517 15998
15517 20094
15518 19611
15518 20199
15519 20144
15519 23102
15521 17694
15521 18093
15521 20160
15521 22274
15521 23043
15522 16589
15522 18153
15522 19867
15522 20001
15523 22695
15524 19318
15525 15526
15525 23486
15526 18891
15526 23486
15527 16701
15527 18584
15527 19342
15527 19483
15527 20507
15527 22369
15527 23866
15530 19696
15530 19826
15530 20275
15530 21235
15531 18043
15531 20839
15531 20911
15531 21930
15531 21934
15532 23014
15533 22696
15533 23296
15534 22761
15535 15689
15536 15604
15536 20896
15537 23425
15537 23607
15537 23657
15538 15704
15538 16242
15538 16581
15538 17739
15538 18085
15538 18261
15538 19228
15538 20453
15538 21442
15538 21822
15538 21894
15538 21956
15538 22801
15538 22826
15538 23074
15538 23532
15539 21393
15539 23380
15540 18664
15540 23286
15543 21770
15544 18631
15544 20718
15545 15735
15545 21731
15546 18375
15546 18998
15547 16248
15547 17266
15548 16921
15548 21852
15549 17687
15549 19075
15550 21931
15551 18286
15551 22116
15552 19785
15553 17992
15553 19318
15557 19867
15558 16839
15558 22144
15559 19361
15559 23369
15560 23909
15560 23912
15560 24070
15560 24477
15562 22613
15563 17266
15564 18309
15564 18712
15564 18913
15566 17096
15566 18631
15566 22365
15568 17428
15568 19171
15568 19173
15568 19174
15570 20660
15572 16066
15572 17094
15572 22778
15574 15805
15574 21398
15575 19520
15577 22110
15578 18414
15578 21100
15578 21317
15578 24407
15579 19496
15580 23064
15580 24274
15582 16612
15582 19568
15582 19805
15583 16273
15585 16003
15586 22751
15587 17307
15587 18558
15587 19129
15587 23579
15588 15614
15588 18306
15589 17661
15590 16196
15591 22904
15592 23992
15592 24281
15592 24379
15593 20925
15593 22868
15593 23028
15594 21293
15595 18631
15595 21029
15595 22365
15596 16621
15596 18882
15598 17762
15598 17926
15600 18363
15600 19856
15601 17434
15602 22298
15603 16469
15603 16944
15603 18436
15604 18282
15605 23217
15605 23996
15605 24407
15606 18261
15606 18631
15607 21567
15608 15818
15609 23808
15610 17606
15610 18648
15610 19611
15610 21488
15611 20503
15612 16329
15612 17801
15612 17850
15612 18881
15612 21848
15612 23450
15614 20416
15614 20778
15615 15629
15615 16959
15615 16961
15615 17013
15615 17210
15615 17673
15615 20924
15615 21256
15615 21310
15616 17734
15616 21496
15617 18362
15617 22027
15618 20570
15618 22286
15619 18582
15619 19724
15619 19763
15619 20088
15620 16002
15620 17040
15620 19161
15620 19976
15620 23259
15622 17590
15622 23030
15624 18534
15624 19674
15626 19366
15627 16069
15627 22732
15629 22510
15630 20827
15630 20910
15632 22287
15633 18524
15634 17481
15634 17988
15634 21000
15635 16675
15635 18666
15636 19371
15637 19587
15639 19348
15640 17079
15641 15642
15641 15643
15641 15644
15641 15645
15641 15647
15641 16988
15642 15644
15642 19093
15643 15644
15643 15645
15643 15647
15643 19093
15644 16988
15645 19093
15646 17563
15646 18690
15648 16176
15648 16212
15648 18680
15648 20291
15648 20491
15648 21189
15648 22130
15649 17526
15649 19568
15649 20842
15649 23386
15650 16139
15650 16586
15650 17408
15650 18433
15651 23026
15652 16326
15652 18624
15653 16655
15653 19076
15653 19078
15653 21523
15654 22587
15656 24303
15657 17504
15658 16128
15658 18542
15658 18964
15659 23383
15660 20955
15663 19386
15664 17414
15664 21792
15665 18779
15665 22886
15666 15731
15667 17339
15667 19087
15670 15795
15670 18831
15670 19636
15670 22625
15670 22645
15671 19970
15672 20989
15673 20096
15674 19492
15674 22611
15674 24325
15676 17911
15678 17305
15678 18782
15681 17910
15682 17765
15682 18846
15683 22941
15684 20771
15685 23121
15686 15766
15686 22873
15686 23601
15687 19939
15687 21614
15689 19838
15689 20657
15690 17922
15691 18947
15691 21727
15691 22495
15692 18632
15692 20973
15693 18644
15693 20746
15694 24395
15695 21334
15695 22352
15696 16866
15697 17467
15697 23528
15698 19065
15698 23874
15698 24071
15699 19371
15702 18828
15702 24323
15703 21593
15703 21614
15704 16581
15704 17739
15704 18261
15704 19018
15704 19228
15704 19265
15704 20453
15704 20718
15704 21442
15704 22801
15704 22826
15704 23549
15705 17025
15705 21611
15705 21732
15706 16777
15706 19074
15707 16942
15707 18550
15707 19637
15708 20240
15708 20483
15709 17938
15710 17075
15710 18111
15710 24189
15712 22904
15713 20782
15715 15732
15715 18035
15715 20854
15716 21774
15716 22385
15716 22713
15716 22838
15717 17675
15717 18573
15718 19382
15718 22352
15718 22544
15718 23573
15720 18932
15721 21394
15721 22287
15724 15739
15726 18175
15726 23289
15727 22636
15728 20274
15728 23663
15729 22820
15733 18364
15733 20540
15733 21449
15734 16421
15734 18253
15734 19131
15734 20044
15734 20080
15734 21041
15734 21092
15734 22286
15734 22964
15735 16362
15735 20700
15735 22868
15737 20280
15737 20880
15740 20765
15740 20777
15740 23745
15741 18799
15741 19480
15741 23247
15743 22021
15744 17442
15744 20771
15745 16629
15745 17074
15745 17755
15746 22330
15750 16394
15750 21466
15750 23499
15751 16397
15751 22124
15751 23198
15752 17536
15753 19913
15753 21673
15755 17142
15755 20090
15757 18380
15757 20177
15759 23529
15760 19318
15760 22025
15761 19196
15762 21861
15763 23542
15765 20195
15766 22873
15766 23601
15768 23911
15769 23425
15770 16474
15770 17971
15771 15802
15772 18640
15774 19153
15774 19167
15774 24404
15775 16190
15776 23987
15776 24057
15778 22242
15779 23011
15780 17216
15780 17602
15780 21962
15780 22397
15781 22307
15783 18781
15784 18494
15785 18417
15786 18403
15786 22872
15788 18152
15790 19172
15791 19956
15792 19596
15793 23080
15794 18178
15794 20397
15795 19636
15795 21109
15796 18835
15796 20962
15797 21123
15798 15991
15798 17687
15798 22156
15800 18426
15801 18288
15801 20437
15802 17006
15802 17168
15802 19607
15802 20541
15803 18262
15803 21527
15804 15922
15805 15830
15807 19965
15807 21453
15809 19242
15809 21701
15809 21943
15810 23690
15811 21355
15811 21724
15811 22337
15811 23233
15812 15880
15812 16461
15812 17171
15812 17787
15812 22262
15812 22662
15813 18257
15813 19642
15813 22143
15814 16865
15814 18199
15814 22140
15815 24006
15815 24275
15816 17992
15816 19318
15816 20107
15817 16703
15818 16770
15818 19003
15818 21181
15818 21392
15818 22351
15818 23208
15818 24077
15819 18275
15819 21320
15821 21301
15821 23194
15822 17817
15822 18844
15822 20329
15823 19898
15824 20305
15825 21537
15826 21556
15827 20534
15827 21737
15828 18796
15828 22045
15828 23009
15829 19318
15832 15834
15832 15837
15832 21496
15834 15836
15835 19606
15836 21229
15839 18806
15840 18719
15840 21614
15841 20798
15843 15844
15845 21782
15846 16994
15847 22800
15848 23671
15848 23765
15849 15850
15849 16884
15849 18626
15849 18827
15849 19807
15849 21494
15849 22146
15849 23199
15850 19806
15850 19807
15850 21936
15850 23199
15851 18961
15852 15854
15852 15855
15852 15856
15852 15858
15852 16887
15852 18029
15853 15854
15853 15855
15853 15856
15854 15855
15854 15858
15854 18029
15855 15856
15856 15858
15856 15859
15856 18029
15857 15859
15857 15861
15857 15862
15857 16889
15857 19663
15858 15860
15858 15861
15858 16886
15858 16889
15858 19663
15858 22802
15858 23642
15859 15860
15859 15861
15859 15862
15859 16885
15859 19663
15859 22802
15859 23642
15860 16889
15860 19663
15861 15862
15861 16885
15861 16886
15861 19663
15861 23642
15862 15863
15862 17825
15862 22802
15863 16889
15863 19663
15864 24175
15864 24403
15865 16565
15865 20986
15866 17100
15866 18121
15866 19379
15866 22393
15868 17561
15868 17727
15868 18193
15868 19151
15868 19345
15868 19686
15868 20139
15868 20341
15868 20965
15868 21084
15868 21094
15868 22085
15868 22246
15868 23834
15869 16130
15869 17539
15869 22462
15870 17539
15870 22462
15870 23316
15871 16208
15871 17513
15871 18436
15871 21167
15872 16459
15873 18000
15874 16738
15874 21367
15875 21711
15877 16946
15877 17390
15877 20144
15877 20170
15877 22361
15877 23039
15878 22401
15879 23999
15881 19398
15881 20719
15882 19954
15883 16461
15883 17756
15884 17161
15884 19382
15885 16712
15886 16689
15886 16912
15887 18998
15887 23100
15888 15891
15888 16683
15889 16684
15889 16690
15890 19215
15891 16685
15892 24016
15892 24050
15893 21836
15893 22674
15893 23137
15894 15895
15894 16683
15895 18865
15896 20492
15898 21145
15900 17248
15900 22728
15901 17924
15901 20976
15902 17136
15902 18859
15904 22913
15905 19560
15905 21626
15906 16582
15906 22762
15907 17646
15908 20344
15909 24011
15910 21844
15912 16392
15912 20085
15912 22923
15912 23287
15912 23414
15913 21117
15914 21745
15914 22730
15915 16377
15917 21635
15917 22315
15919 22893
15919 23417
15919 24024
15919 24264
15920 22021
15922 20059
15923 17642
15923 18680
15924 18937
15924 20163
15924 21066
15925 16780
15925 19518
15926 21134
15929 16055
15929 20097
15929 21480
15929 21835
15929 23435
15930 17747
15930 20831
15930 22887
15931 19830
15931 21897
15932 16076
15933 18126
15933 20405
15933 21483
15933 22769
15933 23322
15934 19662
15934 22920
15935 18172
15935 19302
15935 21681
15936 19353
15936 19672
15936 21175
15937 20376
15937 22287
15938 20634
15938 23412
15939 18202
15939 23412
15940 22380
15941 17378
15943 20091
15944 17470
15944 19797
15944 21004
15944 22370
15944 22796
15945 19399
15946 22128
15947 22692
15948 19428
15948 20683
15950 21062
15951 19826
15951 21235
15952 17984
15952 22193
15952 23253
15954 21393
15956 18117
15956 19525
15956 22952
15957 20776
15958 16457
15958 16567
15958 18510
15958 22329
15959 19331
15959 21035
15960 19054
15961 20122
15963 17817
15963 17837
15963 18866
15963 23437
15963 23444
15964 18286
15964 22116
15965 18918
15965 21152
15965 21719
15966 21242
15967 20146
15967 21133
15967 23094
15968 22565
15969 17011
15971 17653
15971 18234
15971 18390
15971 22998
15972 16169
15972 22888
15973 21262
15974 22473
15975 17946
15975 19316
15975 20996
15975 21089
15975 23019
15976 20793
15976 22601
15978 24078
15979 16568
15979 18018
15979 20883
15980 19027
15980 20047
15980 21503
15981 19555
15981 22240
15982 17693
15982 19886
15984 18437
15984 18809
15985 21696
15985 21944
15985 21989
15986 20899
15987 16488
15987 17927
15987 20885
15988 18379
15988 18654
15988 18837
15988 19367
15988 21925
15988 22943
15988 23039
15989 23247
15991 16842
15991 17687
15991 17797
15991 18949
15991 19198
15991 19452
15991 19700
15991 19802
15991 20127
15991 20672
15991 21164
15991 21313
15991 21579
15991 22156
15991 22717
15993 18769
15993 20533
15996 16754
15997 16631
15997 21131
15997 22859
15998 17102
15998 20094
15999 17037
15999 18923
15999 19868
15999 20888
15999 22604
16001 17402
16002 23259
16003 19656
16004 18585
16004 22363
16005 16763
16005 20674
16006 17296
16006 18162
16007 16928
16007 21480
16007 23218
16008 23828
16009 17948
16010 20572
16012 23258
16013 23566
16015 19052
16015 19418
16015 19834
16016 20669
16016 22086
16017 23330
16018 23912
16020 20230
16020 22341
16021 23557
16022 24035
16023 20360
16024 21209
16024 22315
16026 16659
16028 16816
16029 21074
16030 20534
16031 19529
16031 20575
16032 16865
16032 17830
16032 22140
16033 16035
16033 16048
16033 16057
16033 16060
16033 16062
16034 16039
16034 16040
16034 16045
16034 16057
16035 16058
16035 16060
16035 16062
16036 16040
16036 16045
16036 16047
16036 16049
16036 16058
16037 16040
16037 16051
16037 16057
16038 16059
16039 16044
16040 16051
16041 16057
16041 16058
16041 17350
16042 16045
16042 16049
16042 16050
16043 16047
16043 16049
16043 16061
16043 16063
16044 16045
16044 16046
16044 16047
16044 16049
16045 16049
16050 17350
16051 16063
16051 16065
16053 18557
16054 16115
16054 17063
16054 17297
16054 18147
16054 18875
16054 19033
16054 20510
16054 23493
16055 19435
16055 23435
16057 16058
16057 16060
16057 16061
16057 16062
16057 18007
16060 16061
16060 16062
16062 16063
16063 16065
16066 19767
16066 21102
16066 22778
16067 21944
16067 21989
16068 18680
16069 20179
16069 22732
16071 19628
16071 22921
16071 23466
16072 16148
16072 17803
16072 20324
16072 20432
16072 23340
16073 21841
16074 16075
16076 17086
16076 17127
16076 17324
16076 18089
16076 19624
16076 20168
16076 20285
16076 21632
16077 17840
16078 17096
16079 22182
16080 17687
16085 23108
16085 24161
16085 24298
16086 17711
16086 19073
16086 20148
16086 20815
16087 18988
16087 19996
16089 21762
16089 22143
16089 22937
16090 16631
16091 20458
16093 22757
16094 18493
16096 24170
16097 17890
16097 20134
16097 21267
16097 22173
16097 23308
16098 16908
16098 19755
16099 19066
16099 21178
16101 16452
16101 22927
16102 20554
16103 16110
16103 16111
16103 17095
16103 18775
16103 19963
16104 16111
16104 18775
16104 19963
16104 22225
16105 16111
16105 17095
16105 22225
16107 21083
16109 17046
16109 17940
16110 16111
16110 17095
16110 19963
16111 18775
16111 19963
16113 19004
16113 23861
16114 20172
16116 17781
16118 21993
16119 24189
16120 16317
16121 18565
16121 18926
16121 21609
16122 16547
16122 16937
16122 18946
16122 19937
16122 20959
16123 18457
16123 18531
16125 21711
16126 18043
16127 21638
16129 16993
16129 19887
16130 17539
16131 16645
16131 17106
16131 18109
16131 22793
16132 17830
16132 22140
16133 18527
16133 18978
16133 22394
16134 19156
16134 19753
16134 20955
16135 16700
16135 17066
16135 20300
16136 21452
16136 21770
16137 23304
16138 16368
16138 16724
16138 17084
16138 17832
16138 18584
16138 18860
16138 20363
16138 21327
16139 19742
16139 20473
16140 16153
16140 17444
16140 17446
16143 21106
16144 20691
16144 24349
16145 16758
16145 19530
16147 17462
16147 21262
16148 17803
16148 20432
16149 17096
16149 18631
16151 16930
16152 16153
16152 17444
16152 17446
16152 17448
16154 17353
16154 19927
16155 18570
16156 19988
16156 22040
16156 23121
16157 17187
16157 18384
16157 21400
16159 16947
16159 23402
16162 22785
16164 18587
16164 23102
16164 23888
16165 21684
16165 23740
16168 16975
16168 18141
16168 21211
16169 23018
16170 21090
16171 17566
16171 20420
16172 16359
16173 16453
16173 16869
16173 19749
16175 23131
16176 17642
16178 17046
16178 17940
16179 19318
16180 18782
16180 20107
16181 17824
16182 18616
16182 18955
16183 19066
16183 20417
16183 21058
16184 16706
16184 17679
16184 23464
16185 16851
16186 22120
16188 24058
16189 16736
16189 20585
16191 16735
16191 18790
16191 20590
16191 21465
16193 16423
16193 20824
16193 21927
16194 19564
16194 19890
16194 21270
16194 22530
16195 19813
16196 20335
16196 21060
16197 16201
16197 17327
16197 22760
16198 21257
16198 21660
16199 20389
16199 21205
16200 17313
16200 17315
16200 17319
16201 19876
16202 21196
16202 22169
16202 23287
16203 18843
16203 21396
16204 16205
16207 18853
16207 21524
16208 17513
16208 18436
16209 16847
16211 16639
16212 17642
16212 18680
16213 18113
16213 22549
16214 22365
16215 24260
16218 18588
16218 23183
16219 18114
16220 22164
16221 23118
16222 23813
16222 23833
16223 18522
16223 20972
16223 21053
16223 22493
16223 22676
16224 21401
16224 23126
16226 17260
16226 23319
16227 18886
16228 21186
16228 22972
16229 17521
16230 16491
16230 16826
16230 17697
16230 19440
16230 20041
16232 17267
16234 17683
16234 21367
16236 17467
16237 20719
16239 16630
16239 20629
16240 24194
16241 17785
16241 20107
16242 18661
16242 20718
16242 20850
16242 22266
16243 17083
16243 19130
16243 20243
16244 20272
16244 22163
16245 17044
16245 20194
16245 20452
16246 21859
16246 22056
16247 17207
16247 18677
16248 17266
16248 18540
16248 24306
16249 22053
16249 23028
16250 23952
16250 23999
16251 17765
16251 18846
16252 17278
16252 17902
16252 20473
16252 22113
16253 17031
16253 21031
16254 17362
16254 17901
16254 23793
16255 21123
16255 22008
16255 24348
16256 21827
16257 17248
16257 17495
16258 21599
16259 19270
16261 19294
16261 22674
16263 18580
16264 23096
16265 22447
16266 19178
16267 16636
16268 18925
16268 19866
16269 18083
16269 19782
16269 19974
16271 17237
16271 17784
16271 23098
16272 20990
16272 22597
16272 23605
16273 19562
16274 17249
16274 19455
16275 16362
16275 17484
16275 19084
16275 20700
16277 19227
16278 17438
16278 22713
16278 22838
16279 19254
16279 20272
16279 22163
16282 18580
16282 22427
16283 20435
16284 19090
16285 18178
16286 17841
16286 23195
16287 19318
16287 22025
16288 16648
16288 18812
16288 19334
16288 21600
16289 21658
16290 19443
16290 22027
16291 16621
16291 21763
16292 17749
16293 16999
16293 18737
16293 20313
16295 23647
16297 18463
16298 22616
16299 17992
16299 19318
16299 20107
16300 17403
16300 21543
16300 21632
16300 22591
16301 16865
16301 17830
16303 21181
16304 16342
16304 19304
16304 19368
16304 21761
16307 22295
16308 18233
16308 18984
16308 19711
16310 19827
16311 22796
16312 17094
16313 22287
16313 23552
16317 19176
16317 22492
16317 22775
16318 17959
16318 20302
16319 23949
16319 24321
16320 23305
16321 24446
16322 17277
16322 19332
16323 24222
16324 20824
16325 20622
16326 18624
16327 22227
16328 17616
16329 16619
16329 23450
16331 16943
16331 17151
16331 22342
16332 24177
16332 24225
16336 23028
16337 21181
16337 22885
16339 16911
16339 17244
16339 17523
16340 22138
16341 16733
16341 21385
16342 23535
16343 16852
16343 23327
16345 17886
16345 19909
16346 21120
16347 20568
16347 22053
16348 18998
16348 22005
16348 22116
16349 17322
16349 17773
16349 17961
16349 18210
16349 22271
16350 17707
16350 20253
16350 22825
16350 23255
16351 19200
16351 21577
16351 21585
16351 22417
16351 23006
16352 20128
16354 19319
16355 21149
16355 22100
16355 22344
16358 21821
16358 22097
16358 22914
16358 23161
16360 20776
16361 21650
16362 17498
16365 18371
16366 22364
16366 22366
16366 22367
16366 23371
16367 24200
16367 24225
16367 24312
16368 18586
16368 20363
16369 23765
16371 17193
16371 20107
16374 18339
16375 17117
16376 22419
16376 23929
16378 24048
16378 24154
16379 18346
16379 23276
16381 18193
16381 19191
16382 17132
16382 18221
16382 19537
16382 20235
16383 23103
16384 18580
16385 18570
16386 23738
16386 24254
16386 24284
16387 18375
16387 18998
16389 17767
16389 21700
16390 17422
16390 18416
16391 20661
16391 21020
16392 16921
16393 23945
16393 24271
16394 18710
16395 20417
16396 19987
16397 22770
16398 20238
16398 21617
16399 23141
16400 18870
16400 21009
16402 21887
16404 17305
16404 18782
16405 21821
16405 22914
16406 18983
16406 23766
16407 19022
16407 20268
16407 21753
16407 21834
16408 23311
16410 16469
16411 18967
16411 21869
16412 16702
16412 19252
16412 22415
16412 23062
16413 22637
16414 21748
16416 20866
16416 21502
16417 16477
16420 20445
16420 21381
16421 17124
16421 17778
16421 20044
16423 16659
16423 20824
16425 16511
16425 20108
16425 20544
16426 21011
16426 23459
16427 17510
16427 23288
16428 16506
16429 16962
16429 21824
16429 22359
16430 16963
16430 21256
16431 16768
16431 18632
16431 20973
16432 19096
16433 23306
16433 23326
16434 18447
16435 22338
16436 17794
16437 17238
16438 23267
16439 19720
16440 16973
16440 18297
16441 20473
16441 21910
16441 22694
16443 22744
16444 17003
16445 17003
16445 23982
16446 21240
16447 17818
16447 21714
16447 21722
16449 24123
16451 22716
16452 22927
16454 22716
16454 23663
16455 18355
16455 19040
16455 20355
16456 18312
16457 19022
16459 22477
16461 22662
16462 17767
16463 23719
16463 23805
16463 24318
16464 16845
16464 22962
16466 23784
16466 24135
16469 17822
16469 18302
16469 18407
16469 20619
16469 20723
16470 24129
16470 24458
16471 18649
16471 24008
16472 18142
16472 18665
16472 20879
16472 22101
16474 17971
16475 21487
16477 16750
16477 19914
16479 20129
16479 21872
16480 19819
16483 23604
16484 17436
16484 20922
16485 16983
16487 16559
16487 21072
16487 22655
16489 19560
16489 21626
16491 17697
16492 19445
16492 23170
16495 16950
16495 18384
16495 19814
16495 19815
16495 21400
16496 20306
16498 23725
16499 18558
16499 20299
16499 23450
16502 18713
16505 16932
16506 17986
16506 20873
16506 21627
16506 23581
16509 17548
16510 19215
16513 20418
16514 19719
16514 23058
16515 17305
16516 17270
16516 19607
16517 17002
16517 17485
16517 18237
16517 19318
16517 21304
16517 22025
16518 18782
16518 19923
16519 19602
16520 18442
16520 22844
16521 22053
16522 22664
16523 16727
16523 19694
16523 23010
16524 18470
16526 18841
16526 20385
16527 24225
16528 17501
16529 19733
16529 20196
16529 20433
16530 18969
16530 23297
16533 22614
16535 17163
16535 17992
16535 20508
16535 22383
16535 23049
16536 20176
16536 22540
16536 22812
16537 18718
16537 19042
16537 20003
16537 20651
16538 19582
16540 17096
16541 23047
16542 21299
16542 21300
16543 18051
16543 21674
16544 18851
16545 19149
16546 18036
16546 18434
16546 19014
16546 19495
16546 19656
16546 20340
16549 19854
16549 23342
16551 18372
16552 23459
16553 20376
16553 22287
16554 20498
16555 23255
16556 21614
16557 18822
16557 18824
16558 22568
16558 23144
16559 17373
16559 18500
16559 21072
16559 23436
16560 17781
16560 20921
16562 19904
16563 20991
16563 23054
16565 20986
16568 16923
16570 16926
16570 19141
16571 22979
16572 18096
16573 19966
16573 21917
16574 17865
16575 18648
16578 20715
16578 23245
16579 22820
16580 18334
16580 19957
16580 23242
16581 20718
16581 21894
16581 22266
16583 17090
16583 20271
16584 17754
16584 18562
16584 18934
16584 20350
16584 21234
16584 21463
16584 21612
16584 22353
16586 18633
16587 19388
16588 20503
16588 20570
16590 20640
16591 21273
16592 19208
16592 19910
16593 16897
16593 17132
16593 18430
16593 18594
16593 19554
16593 20235
16595 18970
16596 19956
16597 22883
16598 19576
16598 23429
16599 17555
16599 19583
16599 20833
16600 22044
16601 20495
16602 18798
16603 24225
16604 19421
16605 23729
16605 24032
16605 24328
16606 17130
16606 19683
16606 20391
16607 21626
16608 18559
16608 20441
16608 21796
16609 17046
16609 20294
16612 17990
16612 18045
16612 19568
16612 22881
16612 23386
16614 18442
16614 22844
16615 18201
16615 20845
16615 21580
16615 21814
16616 24383
16616 24473
16617 22972
16618 17162
16618 17562
16618 18163
16618 20512
16618 21881
16619 23450
16620 21614
16621 21763
16622 18455
16622 23038
16624 20580
16625 22914
16626 18270
16626 23663
16628 17000
16628 21283
16630 20629
16630 22371
16631 17328
16631 18513
16631 21131
16631 23644
16632 19181
16632 20005
16633 18006
16633 19811
16635 19390
16636 17383
16637 18494
16638 22627
16639 17337
16639 22586
16640 18962
16641 22227
16643 18900
16643 22053
16644 17180
16644 22389
16644 23118
16645 18109
16646 17871
16646 17878
16647 18761
16647 19917
16647 20938
16648 19334
16648 21054
16648 21600
16649 17681
16649 19736
16650 16678
16650 18564
16650 22258
16650 22968
16652 21965
16653 17502
16653 17605
16653 19888
16653 21754
16653 23207
16654 20640
16656 23912
16657 17435
16660 20201
16660 21658
16661 17871
16662 22583
16664 17263
16664 20520
16665 20254
16667 23377
16668 19861
16669 17409
16669 21508
16669 21721
16670 24177
16672 21688
16672 23243
16673 19513
16676 21339
16676 22719
16677 22005
16677 22116
16678 23358
16679 24303
16680 16781
16680 18554
16680 21452
16680 23101
16683 16684
16683 16688
16683 16695
16683 16696
16684 16685
16684 16693
16684 16694
16684 16695
16684 18865
16685 16686
16685 16688
16685 16696
16685 18865
16686 16693
16686 16695
16687 21824
16688 16696
16688 23134
16689 16690
16689 16691
16689 16694
16689 19614
16689 22528
16690 16695
16692 18333
16693 16695
16694 16695
16696 23134
16697 19459
16697 19689
16698 19613
16698 21336
16698 23154
16700 22436
16702 18388
16702 19372
16703 16935
16703 16952
16703 17433
16705 18555
16705 18852
16706 17679
16706 17716
16706 23464
16707 23254
16708 22179
16709 21760
16711 19613
16713 21535
16713 21972
16713 22109
16713 22685
16713 22965
16715 18503
16716 22969
16717 17766
16717 18216
16718 17054
16719 17651
16719 18938
16719 21307
16719 23212
16722 17336
16722 17358
16722 17515
16722 18267
16722 20440
16725 20989
16727 17684
16728 20094
16731 24233
16733 21385
16734 18585
16735 20590
16736 23081
16737 19064
16737 19563
16737 20632
16737 21586
16738 17683
16739 17198
16739 19652
16739 21962
16739 22569
16739 22916
16740 17959
16741 17750
16741 19971
16743 17469
16744 20205
16744 23542
16745 22064
16746 19386
16747 18070
16747 22899
16748 23098
16751 22930
16752 16928
16753 19979
16753 22648
16755 17593
16756 23008
16756 23152
16758 19530
16758 19776
16758 21221
16759 18189
16760 17781
16760 20921
16766 23823
16766 23969
16767 18117
16767 22952
16768 18632
16768 20211
16768 20580
16769 18547
16770 22716
16771 19015
16771 23243
16772 23153
16773 19537
16773 19554
16774 20541
16776 17436
16776 20006
16776 20680
16777 18686
16777 19074
16777 19634
16777 20535
16777 22205
16777 22266
16777 23136
16778 20660
16779 17675
16780 18311
16780 19203
16780 19518
16781 16942
16781 21556
16782 17748
16783 19229
16783 20266
16785 22636
16786 20702
16786 23227
16787 20702
16787 23227
16788 20666
16790 23363
16790 24217
16791 17463
16791 17724
16792 17874
16792 19405
16792 20466
16793 18962
16794 18331
16795 23248
16796 17896
16796 21982
16797 19381
16797 22290
16798 19744
16799 21501
16800 19041
16801 17413
16801 17545
16801 18429
16801 22415
16802 20298
16802 23388
16804 20718
16804 23216
16805 21209
16805 22315
16806 17339
16806 20252
16808 18512
16809 17020
16809 19622
16809 21682
16811 21834
16812 16827
16812 23329
16813 19972
16817 20811
16818 18658
16819 19052
16819 19834
16820 21242
16821 18849
16822 17992
16822 19318
16823 18631
16823 22365
16823 23620
16824 21484
16824 23306
16827 21414
16828 18732
16829 21619
16829 22156
16830 17813
16833 16994
16833 20379
16834 17512
16834 21787
16835 18804
16836 18822
16836 18823
16836 20370
16836 22133
16837 20358
16837 20775
16839 16841
16839 18155
16840 18580
16842 17687
16843 17458
16844 20484
16845 21928
16849 17643
16849 22939
16850 17428
16850 19171
16850 19173
16852 18359
16852 22938
16856 22088
16856 22692
16857 23369
16858 18499
16858 19429
16858 19790
16858 20639
16858 20771
16858 21013
16858 23500
16860 18782
16861 22227
16862 16864
16862 23141
16863 19499
16863 20021
16863 20866
16864 23141
16865 17830
16865 18199
16865 23602
16866 17494
16866 23653
16867 21693
16867 22612
16868 18526
16870 17017
16873 17837
16873 19858
16873 20329
16874 18146
16875 19651
16877 19942
16877 22685
16878 23093
16880 19202
16880 21455
16881 21888
16882 17566
16882 19506
16882 21010
16883 19824
16883 22592
16884 19806
16884 19807
16884 21494
16885 19663
16886 16889
16886 19663
16888 21505
16889 19663
16889 23642
16890 19663
16891 19832
16891 24350
16892 22386
16893 18512
16894 22621
16896 22824
16897 18594
16897 19554
16898 21905
16899 21009
16900 22172
16900 23608
16901 21593
16902 18970
16902 18999
16903 23910
16904 22274
16905 22156
16906 18900
16906 22053
16909 19641
16909 23146
16911 17244
16911 17523
16911 21338
16916 20760
16916 22125
16917 19729
16918 23719
16918 23952
16918 24384
16920 23668
16921 17101
16921 17953
16921 21615
16921 21852
16922 18900
16923 18018
16925 22089
16926 19141
16926 21804
16927 17163
16927 23349
16928 19348
16928 21959
16929 19066
16930 18811
16930 19988
16930 21009
16930 21323
16930 22913
16931 23508
16932 17619
16932 21328
16933 22473
16934 20963
16934 21117
16936 22152
16937 20959
16938 18910
16940 19234
16940 21113
16941 23060
16942 18550
16943 21161
16944 18436
16944 20456
16945 18305
16945 21680
16945 22547
16946 17411
16947 20608
16947 23402
16948 17248
16948 18076
16948 21279
16949 17935
16950 19962
16950 21400
16951 18568
16952 17433
16952 22747
16953 20060
16953 23621
16956 18345
16956 21563
16957 18631
16960 17821
16960 19016
16960 20023
16961 17698
16961 20537
16962 22359
16964 19371
16964 23369
16965 22400
16966 20179
16968 20771
16968 21508
16968 22499
16969 21450
16969 22756
16970 18413
16970 22202
16971 19506
16971 20816
16972 21152
16973 18297
16974 18271
16975 18141
16975 21211
16976 20123
16976 20652
16977 19028
16977 20549
16978 17891
16978 20099
16978 21271
16978 21798
16978 23374
16979 21062
16979 22620
16980 19676
16980 22691
16981 19722
16982 22160
16983 22552
16984 24142
16984 24472
16985 17856
16985 19114
16991 17997
16992 19371
16993 19887
16993 20543
16993 22867
16994 17177
16994 18552
16994 18830
16994 19142
16994 20379
16994 20579
16994 21227
16994 21716
16994 21946
16994 22459
16994 23762
16995 17110
16995 18204
16995 18841
16995 18948
16995 20385
16995 21417
16995 21460
16995 21574
16996 18048
16996 20301
16996 22627
16997 21283
16997 21550
16999 19202
16999 20913
16999 21455
17000 18902
17002 19318
17004 18785
17005 19447
17005 21081
17005 21964
17006 17035
17006 17116
17006 17657
17006 18266
17007 20038
17007 23786
17008 20060
17010 20634
17010 23412
17011 20040
17014 18580
17018 23022
17018 23429
17019 22391
17020 17212
17020 21682
17020 22425
17021 21744
17021 22063
17021 22639
17023 17765
17023 18846
17024 20319
17024 20612
17025 17410
17025 18567
17025 19357
17025 21611
17025 21732
17025 22284
17025 22716
17025 23574
17029 17486
17029 18179
17029 18186
17029 18857
17029 20576
17030 21926
17031 23220
17033 18696
17033 21242
17034 17650
17034 19367
17034 20241
17037 18923
17037 19868
17037 20888
17039 23961
17040 19161
17040 19976
17041 21169
17042 20985
17043 20009
17043 22580
17045 18371
17047 17157
17047 17257
17047 21193
17047 23428
17048 18262
17049 17655
17049 21234
17050 20819
17050 20885
17050 23263
17051 20812
17053 20265
17055 21289
17055 21720
17056 18059
17056 18485
17058 19821
17059 17656
17060 23079
17061 21012
17062 17949
17062 18631
17062 19692
17062 22365
17064 17706
17064 20156
17065 21834
17066 22436
17068 21222
17070 20401
17070 22858
17071 18854
17071 19843
17072 23513
17073 23735
17073 23824
17074 21434
17074 21863
17075 18111
17075 21207
17075 23335
17076 23765
17076 24298
17076 24374
17077 17669
17077 18164
17077 20352
17079 21083
17081 21456
17082 20980
17084 20378
17085 21854
17085 23508
17089 19394
17090 20271
17091 20284
17091 21375
17092 18289
17094 18605
17094 22857
17094 23032
17095 19962
17095 22225
17096 17376
17096 18765
17096 19890
17096 21311
17096 22365
17097 18064
17097 18631
17097 19209
17097 22863
17097 22997
17098 17252
17099 21556
17099 22156
17100 19613
17101 17587
17104 18580
17104 23096
17106 18109
17107 21255
17108 19953
17108 24436
17109 21981
17109 22785
17110 23599
17111 17643
17111 17799
17111 19518
17113 19660
17115 18079
17115 21419
17116 17657
17116 21263
17117 19741
17118 22364
17119 21482
17120 17136
17120 18137
17120 20536
17120 22840
17121 17883
17121 19874
17122 22344
17122 22984
17124 21512
17126 19469
17127 21443
17128 18465
17128 20608
17129 18294
17129 20821
17130 20391
17131 17363
17132 19554
17132 20037
17135 22287
17136 18859
17136 22840
17137 17353
17137 19927
17137 19933
17137 21431
17137 23003
17138 23492
17139 20821
17140 17692
17140 17973
17140 22293
17140 22515
17141 18307
17143 18900
17144 22053
17145 19084
17145 20925
17145 22868
17146 21209
17146 21635
17147 21505
17149 19063
17150 19317
17151 19271
17151 21161
17152 18032
17152 18250
17154 20866
17156 22835
17156 23763
17158 23354
17158 24012
17158 24116
17158 24312
17159 17176
17159 22609
17160 23036
17160 23474
17160 23705
17161 20062
17161 22352
17162 17562
17162 18013
17162 20444
17162 20512
17162 21881
17163 17371
17163 19527
17163 20202
17163 20206
17163 20714
17163 21510
17163 22052
17164 21556
17165 22179
17166 19318
17169 17771
17171 22641
17172 18467
17172 21326
17173 19030
17175 19378
17177 17511
17178 18337
17179 18755
17180 19209
17180 19991
17180 22389
17180 22863
17180 22997
17180 23118
17182 20679
17182 22582
17183 17858
17183 18025
17185 17216
17186 18730
17187 17188
17187 19455
17188 19455
17188 20573
17188 22813
17192 19235
17192 24008
17193 19318
17193 20107
17194 18770
17194 19243
17194 23182
17196 19530
17197 18935
17198 23180
17199 19318
17199 22025
17204 19227
17206 19047
17206 22003
17207 17407
17208 19166
17210 21256
17212 20074
17212 20086
17212 21244
17212 21768
17213 19428
17214 17965
17214 19994
17214 21859
17215 21027
17215 21198
17216 19889
17216 21962
17216 22087
17216 22397
17219 21077
17222 23800
17222 24099
17222 24152
17222 24187
17223 24409
17224 20811
17224 21846
17225 18896
17225 19506
17225 20071
17225 20816
17226 20992
17226 22024
17227 17592
17227 20081
17227 21141
17227 21616
17228 21636
17229 19148
17229 23369
17230 18917
17231 20669
17233 22921
17234 21398
17236 20301
17237 23098
17238 18265
17238 21462
17239 22667
17240 19247
17240 19478
17242 19774
17242 23154
17243 22821
17244 17523
17244 21338
17245 19248
17247 23355
17248 17495
17248 18076
17248 19293
17248 19377
17248 20110
17248 21279
17248 22728
17248 23157
17248 23457
17249 19455
17250 19194
17250 19472
17255 23454
17257 19333
17258 23622
17259 18236
17259 18924
17261 19406
17262 18846
17262 19973
17262 21594
17262 21655
17264 18068
17265 23135
17265 24006
17265 24275
17265 24430
17267 20344
17270 20649
17270 22465
17273 21326
17274 19310
17274 21350
17274 22218
17275 23369
17276 19570
17277 18383
17277 23683
17278 17475
17278 17514
17278 17902
17278 18817
17278 20455
17278 20473
17278 20511
17278 22113
17278 22976
17278 23614
17282 17451
17282 19208
17282 19910
17283 18918
17283 19899
17283 23153
17284 19279
17285 19198
17287 18581
17287 20209
17287 20860
17287 23368
17288 17289
17288 19871
17288 23165
17289 19871
17291 18631
17291 21029
17291 22365
17294 19260
17296 17440
17296 18162
17297 18516
17297 20510
17298 22696
17299 17508
17300 18114
17303 21762
17303 22937
17305 17586
17305 17645
17305 18015
17305 18037
17305 18252
17305 18546
17305 18576
17305 18782
17305 19116
17305 19187
17305 19349
17305 19734
17305 19900
17305 19928
17305 20061
17305 20107
17305 20212
17305 20555
17305 21028
17305 21390
17305 21539
17305 21597
17305 21945
17305 22065
17305 22640
17305 22856
17305 23249
17305 23275
17305 23283
17305 23554
17306 18800
17306 21953
17308 17943
17308 23114
17309 17936
17309 17943
17309 23114
17310 17936
17310 17943
17310 23114
17311 17935
17312 17943
17312 22505
17313 17315
17314 17317
17314 20322
17314 20323
17314 20325
17314 20326
17317 17318
17317 17979
17317 20322
17317 20325
17317 20326
17318 17979
17318 20323
17318 20325
17318 20326
17320 17904
17320 18072
17320 19208
17320 23052
17321 20376
17321 22287
17322 17773
17322 17961
17322 20917
17322 21786
17322 22066
17322 22153
17322 22787
17322 23167
17323 20328
17323 23460
17324 20431
17324 21443
17325 19858
17325 23444
17326 18500
17328 21131
17329 23200
17331 20845
17331 21814
17332 20154
17332 20758
17333 18431
17333 18852
17333 22222
17333 23826
17334 19494
17334 20210
17334 21368
17335 18058
17335 19973
17337 19376
17338 20216
17338 21624
17339 18352
17340 18331
17340 19487
17340 20923
17340 22092
17341 19272
17345 18245
17346 21290
17347 19513
17347 19623
17347 20684
17347 21622
17348 20870
17348 23638
17348 24164
17348 24247
17349 20711
17349 22866
17351 20024
17351 22232
17351 23166
17352 19808
17352 23166
17353 17860
17353 18943
17353 19369
17353 19927
17353 19933
17353 21431
17353 23003
17355 17357
17356 22628
17357 21783
17357 22628
17359 21401
17361 18564
17365 23211
17367 21009
17367 22913
17368 18967
17369 20167
17369 20789
17369 23460
17370 20847
17370 23515
17371 18166
17372 19518
17372 22908
17373 17482
17373 18500
17373 21072
17374 18386
17374 20117
17374 23154
17375 20101
17375 20717
17376 18631
17378 20999
17381 19181
17382 17847
17382 18590
17382 20492
17382 20504
17382 20637
17384 17547
17384 18359
17384 21474
17384 21985
17384 22675
17385 21686
17386 18632
17386 20125
17387 17740
17387 21890
17388 18917
17389 22953
17389 23420
17389 23648
17391 22417
17392 21137
17392 21402
17393 20394
17393 21561
17393 21563
17394 21842
17394 21843
17395 20331
17395 20885
17396 24208
17396 24263
17396 24357
17397 21735
17397 23083
17398 21494
17400 20239
17400 20763
17401 21639
17402 17918
17404 17926
17404 20218
17405 22958
17406 18091
17407 18677
17408 20473
17409 21508
17409 21721
17409 22499
17410 22716
17411 17627
17411 19101
17411 21640
17411 22203
17411 22361
17411 23236
17412 22831
17415 22941
17416 19699
17416 20349
17418 18686
17418 23136
17419 19913
17419 20521
17419 22006
17419 22599
17420 17598
17420 18041
17420 19426
17423 23999
17423 24053
17425 21469
17425 23160
17426 19184
17427 17834
17427 21384
17428 18620
17428 19174
17428 20140
17432 19789
17432 21708
17432 23092
17436 18996
17436 21751
17436 23328
17438 22385
17438 22838
17439 20851
17440 18162
17441 18631
17441 21029
17441 22365
17442 17996
17442 20771
17443 23202
17444 17446
17444 17448
17445 17446
17447 18632
17447 19364
17447 20125
17447 20211
17447 20973
17449 19091
17449 20364
17449 21464
17450 20279
17451 20191
17452 17454
17456 18962
17457 18750
17458 19615
17459 20349
17460 23214
17461 17462
17461 17659
17461 17660
17461 21756
17462 17659
17462 17660
17462 21755
17462 21756
17465 17467
17466 17467
17466 17468
17470 19797
17471 20676
17471 20878
17472 21635
17472 22315
17474 18059
17475 19362
17475 20473
17476 18485
17477 17807
17479 23508
17480 22909
17480 23943
17481 18986
17484 20925
17485 19318
17485 22025
17487 19050
17487 21723
17488 20296
17488 21770
17490 23748
17492 17688
17492 23506
17493 20359
17495 23551
17496 17765
17496 18846
17496 19973
17498 20568
17498 22868
17499 19121
17499 22619
17500 21660
17501 19484
17503 23369
17504 22790
17505 18508
17505 22170
17507 20272
17508 17985
17509 23154
17511 20379
17511 20579
17511 21716
17512 21787
17514 18817
17514 20511
17514 22113
17514 22976
17514 23614
17516 17518
17517 22927
17518 18536
17518 22860
17519 19931
17520 22223
17522 23388
17523 21338
17524 23405
17525 17790
17525 18008
17527 22740
17528 17585
17529 19912
17529 21049
17530 17846
17532 21072
17532 23436
17533 23802
17534 22046
17535 20878
17537 22053
17538 17759
17538 18133
17538 21370
17539 22462
17540 18262
17540 21527
17541 17626
17541 22398
17541 22746
17542 20167
17543 23652
17543 24321
17544 18281
17545 18388
17546 17681
17546 19736
17546 23238
17547 17912
17547 21061
17548 21362
17549 21507
17550 21858
17551 17710
17552 20123
17552 20652
17553 17744
17553 18631
17555 20833
17556 21468
17559 21428
17559 21764
17560 22555
17561 18193
17563 18690
17563 23337
17564 23138
17565 18594
17565 19554
17565 21837
17566 18896
17566 19395
17566 19506
17566 20816
17566 24315
17568 22322
17569 23306
17569 23326
17570 17669
17571 20376
17571 22287
17573 22588
17574 24213
17575 19881
17576 18148
17576 19620
17578 20925
17581 22344
17582 20827
17582 21529
17583 22890
17583 23002
17586 18782
17588 23816
17590 23030
17592 21141
17592 21616
17594 18622
17594 22834
17598 19426
17599 19171
17599 19172
17603 18032
17603 18400
17603 20928
17604 19607
17607 18929
17608 23459
17609 21893
17610 24024
17610 24264
17611 18057
17611 20847
17613 19194
17613 23082
17615 22934
17616 21966
17617 19182
17617 23319
17619 20570
17619 21328
17620 18097
17620 18659
17620 20039
17622 19266
17624 18908
17625 17855
17625 19811
17625 21886
17626 19772
17626 20578
17626 22398
17627 23236
17629 22719
17630 19302
17630 20371
17630 21681
17630 21820
17631 20765
17631 23745
17633 18675
17633 21974
17634 20220
17634 23596
17635 17935
17636 17741
17637 17667
17637 17883
17637 18455
17637 23038
17638 19691
17638 20718
17639 23038
17641 21163
17643 20204
17643 22939
17644 24246
17645 22856
17646 18046
17646 18637
17646 19100
17646 19653
17647 17796
17648 20096
17648 23539
17649 17956
17649 20115
17649 22376
17650 19367
17651 21307
17651 23212
17653 18234
17653 18390
17654 22152
17655 21234
17656 20782
17657 18816
17657 21263
17658 18900
17659 17660
17664 17911
17664 20503
17665 19340
17665 23111
17665 23188
17665 23311
17666 22913
17667 22231
17668 19318
17668 20107
17669 17846
17669 24184
17669 24431
17669 24437
17670 17671
17670 17672
17670 19578
17671 17672
17671 19578
17673 21256
17675 18573
17678 20572
17678 21074
17679 17716
17679 19124
17679 23464
17680 20016
17681 19736
17681 22214
17682 22514
17682 22574
17684 21882
17685 17975
17687 17853
17687 18997
17687 19198
17687 19565
17687 19572
17687 19802
17687 19905
17687 22004
17687 22370
17688 23506
17689 21332
17691 24470
17692 19062
17693 20717
17694 22274
17695 19040
17696 19314
17696 19954
17696 23028
17697 20398
17697 20869
17697 21356
17697 23475
17698 20537
17698 20868
17698 23404
17699 18862
17699 19766
17702 24404
17703 18543
17703 22193
17704 21918
17705 18593
17705 19553
17705 23248
17706 20156
17707 23255
17708 23380
17709 22294
17711 20722
17712 18035
17712 18735
17712 19681
17712 20854
17712 22338
17712 22981
17713 20282
17714 19337
17715 23324
17718 19956
17719 21441
17719 22500
17719 22728
17720 20155
17720 22314
17721 22072
17721 22565
17722 18114
17722 18551
17722 20474
17723 21455
17724 23290
17725 23732
17725 23921
17725 24197
17727 19191
17727 20341
17728 20835
17728 21875
17729 19910
17730 18509
17730 19450
17730 21742
17731 21564
17732 19186
17733 19502
17733 20257
17733 21397
17734 17737
17735 19744
17735 20390
17735 21156
17736 20932
17736 21176
17736 21496
17736 21877
17737 20932
17737 21176
17737 21496
17738 19557
17740 19645
17740 21785
17740 21890
17741 18663
17741 23223
17742 17785
17742 22116
17745 18900
17746 17966
17746 19022
17747 20831
17748 20108
17749 18353
17749 18698
17749 18883
17749 19206
17749 19625
17749 19794
17749 19892
17750 19971
17750 22702
17751 19353
17751 21344
17751 22798
17752 18910
17752 20556
17752 21598
17753 18662
17754 21234
17755 21863
17756 22641
17758 19620
17758 21110
17758 21248
17758 23461
17759 20089
17760 23772
17760 23797
17761 19348
17762 22406
17763 17796
17763 17810
17764 19097
17765 18846
17765 20733
17765 21160
17765 21655
17766 19549
17767 22752
17767 23366
17769 23200
17770 21603
17770 22035
17770 22304
17771 18240
17772 22800
17773 18210
17773 18490
17773 19732
17773 21437
17773 22153
17773 22271
17773 23259
17774 18892
17775 18892
17775 19804
17776 18892
17777 17786
17779 21542
17780 21409
17781 18245
17781 19945
17781 21233
17781 21752
17781 22516
17782 19591
17783 19258
17783 19669
17784 23098
17785 19371
17785 22339
17786 21350
17787 22662
17788 19739
17788 21757
17788 22994
17789 18781
17790 17896
17792 19415
17792 23504
17794 17809
17799 19518
17800 19189
17800 21124
17802 19997
17803 22505
17805 18998
17805 22116
17806 20558
17807 17852
17807 19343
17807 21984
17807 22715
17808 24071
17811 23813
17811 23833
17811 24078
17812 18366
17814 21470
17815 22127
17815 23392
17815 23492
17815 23900
17816 18847
17817 18844
17817 23444
17818 21722
17819 19669
17820 19564
17821 19045
17821 20023
17822 17999
17823 23970
17823 24460
17824 21765
17824 22217
17824 23077
17825 19123
17826 24083
17827 20763
17829 19066
17829 21178
17830 18199
17830 18856
17830 22140
17830 23191
17830 23442
17830 23602
17830 23651
17831 24176
17831 24196
17831 24225
17832 21327
17834 20279
17834 21384
17836 21881
17837 18844
17837 18866
17838 20696
17838 22538
17839 18156
17839 21433
17840 23195
17842 23109
17842 23195
17844 17871
17845 18774
17847 20504
17848 21710
17848 23519
17850 20647
17850 21848
17850 23450
17851 17951
17851 19437
17851 23189
17852 22715
17853 20638
17854 22063
17854 22639
17856 19114
17857 21087
17858 18025
17858 20673
17860 18943
17860 19369
17860 19927
17860 21431
17860 23003
17862 19744
17862 21156
17863 19787
17863 20909
17864 19757
17864 23019
17865 17891
17865 20314
17865 20381
17866 19932
17866 21410
17867 18908
17870 19296
17871 17878
17871 18930
17872 20249
17872 21269
17874 19897
17875 21740
17876 20152
17876 23407
17877 18364
17877 18909
17877 20540
17877 21449
17879 20660
17880 19988
17881 19934
17881 21214
17883 19874
17883 20678
17883 21999
17883 23370
17886 19909
17888 23652
17889 23652
17889 24363
17890 22173
17890 23308
17891 19118
17892 24016
17892 24043
17892 24452
17894 18796
17895 20931
17895 23127
17895 23747
17896 18008
17896 21982
17897 18889
17897 20476
17898 20069
17898 21773
17900 22894
17902 19362
17902 20473
17902 23614
17903 18708
17905 23307
17906 18093
17906 20160
17906 20788
17906 22274
17907 24341
17907 24462
17909 21181
17911 20503
17911 21512
17911 23485
17911 23592
17912 22675
17913 18935
17914 24169
17915 19294
17916 18859
17917 22860
17919 18174
17919 20761
17919 21631
17920 18946
17921 18106
17921 18529
17921 22031
17921 22032
17922 21239
17922 22078
17923 18515
17924 20976
17925 18857
17927 23230
17932 24142
17932 24360
17932 24386
17933 23342
17933 23705
17935 17941
17935 20527
17935 21853
17936 17943
17936 22505
17939 23435
17942 18194
17942 18721
17943 23114
17944 21162
17944 23509
17945 19035
17945 19969
17946 19316
17949 18631
17949 20304
17949 22365
17949 22561
17950 20409
17951 23189
17952 24276
17955 21614
17957 22281
17958 22358
17959 20302
17959 22069
17960 18107
17960 20067
17961 19945
17961 23167
17962 18895
17964 20067
17965 22709
17966 19022
17966 21834
17967 19986
17968 20480
17971 19303
17972 18828
17973 19062
17974 19515
17975 19063
17977 20505
17977 20795
17978 19284
17978 20311
17978 21005
17978 22780
17978 22806
17978 22951
17978 22962
17979 20325
17979 20326
17980 20180
17980 21556
17980 21614
17981 19052
17981 19834
17981 21408
17982 23235
17982 23409
17982 24154
17983 19910
17984 20594
17984 20852
17984 23253
17986 19198
17987 19459
17988 21000
17989 20650
17990 19212
17990 19568
17990 19805
17991 19935
17991 20306
17991 20533
17992 18144
17992 19187
17992 20202
17992 20443
17992 20863
17992 21028
17992 22654
17992 23200
17992 23407
17995 19224
17996 19632
17996 20771
17997 19005
17999 18407
18000 18338
18000 19520
18001 18170
18001 22320
18001 23031
18001 23214
18002 23372
18003 18426
18004 18534
18005 21765
18006 19599
18006 21731
18007 18011
18008 18855
18010 22053
18011 18822
18011 22837
18013 21881
18016 18659
18017 23345
18019 21614
18020 22874
18020 23598
18022 23515
18022 23934
18023 22436
18023 22885
18025 20673
18026 18345
18026 21560
18026 21563
18027 23428
18028 19677
18028 21775
18030 21615
18031 18439
18031 18516
18031 18875
18031 19033
18031 20510
18032 18273
18033 19348
18035 20854
18035 21653
18035 23730
18036 19014
18036 20340
18039 18083
18039 19539
18040 19283
18040 20486
18041 18717
18041 19426
18041 22729
18042 23358
18043 20664
18048 20301
18050 18727
18050 19972
18050 20717
18050 20817
18050 22391
18051 21674
18053 18506
18053 22179
18053 22228
18054 22044
18056 20660
18057 20847
18057 23515
18058 19361
18058 21807
18058 21935
18058 23225
18058 23302
18059 18483
18059 18486
18060 23224
18060 23226
18061 18099
18061 18562
18061 21463
18061 22353
18061 23138
18062 22381
18063 19929
18064 18631
18064 18721
18064 21311
18065 21478
18065 22063
18065 23360
18069 23912
18071 21029
18071 21324
18073 21974
18074 21637
18075 22669
18077 21923
18077 23373
18079 21419
18081 19432
18082 18913
18083 19782
18083 19974
18083 20954
18084 18827
18085 18261
18086 18732
18087 23146
18088 19557
18088 20157
18092 18139
18092 18980
18092 24137
18093 20160
18093 20788
18093 23043
18094 18548
18096 18759
18096 21364
18097 18659
18099 21234
18100 18168
18101 21074
18102 20199
18103 19728
18103 21126
18104 20425
18104 23308
18105 22505
18105 23204
18106 22030
18106 22031
18107 20067
18107 21347
18107 22505
18108 18782
18111 21207
18113 18564
18113 21438
18114 18551
18114 20474
18115 18425
18116 21954
18117 19525
18119 19554
18119 20037
18119 21380
18120 18714
18120 22212
18123 20845
18125 18779
18125 19317
18127 21640
18128 18263
18128 20586
18130 20533
18132 22966
18134 18166
18134 19923
18136 19809
18136 20481
18137 18859
18137 20536
18138 21881
18140 18678
18141 21211
18142 19475
18142 22079
18142 22096
18142 22101
18145 18680
18148 21110
18148 23461
18149 22138
18150 22481
18151 20161
18152 20178
18153 19183
18156 19864
18156 23263
18156 23276
18157 20219
18158 18656
18159 23912
18160 23542
18161 22998
18163 21881
18164 19584
18165 18840
18166 20377
18166 20714
18166 21085
18166 21662
18166 21937
18167 24225
18168 19513
18168 20768
18168 22192
18171 18908
18173 21785
18174 20761
18178 19497
18178 20375
18178 20397
18178 23541
18179 21008
18180 23837
18180 24286
18181 19404
18181 22635
18181 22637
18181 23606
18182 18623
18182 19069
18183 22503
18184 23108
18184 23765
18185 23896
18185 24028
18185 24148
18186 18857
18186 22095
18188 23692
18188 24483
18189 19350
18189 20404
18189 22551
18189 23430
18190 18687
18191 21585
18191 23006
18193 19345
18193 19686
18193 19980
18193 20373
18193 20389
18193 21084
18193 22246
18195 18770
18195 19243
18195 23182
18196 21201
18198 19034
18198 22251
18199 18856
18199 22140
18199 23602
18200 20505
18200 20795
18201 21814
18202 20198
18202 20634
18202 21901
18202 23412
18203 20634
18205 20174
18206 19931
18207 19278
18207 21320
18208 20174
18208 22632
18209 21487
18210 19381
18210 19732
18210 22271
18211 22166
18212 22365
18213 20446
18213 22771
18216 19549
18217 19346
18217 21518
18218 24400
18220 18630
18220 21346
18220 22931
18221 19554
18221 20037
18222 19575
18222 20710
18223 20987
18223 21290
18223 23106
18224 18225
18225 18226
18227 21073
18232 18777
18233 18984
18234 22460
18234 22527
18235 23172
18237 19318
18239 21407
18240 19919
18241 20057
18241 23929
18242 19073
18243 19247
18243 19478
18244 19084
18244 20925
18244 23028
18246 19254
18246 22163
18247 19447
18247 21964
18247 22755
18248 19080
18248 21364
18248 21748
18251 19169
18251 23139
18254 18901
18254 19552
18254 22174
18256 20060
18256 23621
18257 19642
18257 21575
18257 22143
18258 19886
18258 20717
18259 18914
18261 20850
18261 23549
18263 20586
18264 20573
18264 22813
18268 24012
18268 24225
18268 24312
18275 21320
18276 19968
18276 23356
18276 23711
18280 19780
18281 18412
18282 20896
18282 21860
18283 18299
18283 22622
18284 22748
18284 24220
18286 18375
18286 18928
18286 18979
18286 18998
18286 21932
18286 22060
18286 22177
18287 19564
18287 22365
18288 20437
18291 18781
18291 18861
18292 18405
18292 19198
18294 18295
18295 18296
18296 20821
18298 18854
18298 19843
18299 21663
18300 22836
18303 21871
18304 22048
18305 21240
18306 20416
18309 22335
18310 19554
18310 22935
18311 19203
18311 19518
18311 19998
18313 23813
18313 23947
18313 24020
18316 23266
18320 22501
18321 24016
18321 24043
18322 21491
18323 18519
18325 18993
18325 23712
18326 24141
18326 24407
18327 18962
18328 19086
18330 23962
18330 24054
18331 20923
18332 20245
18332 21556
18332 21640
18333 22309
18333 23400
18333 23887
18333 24038
18334 19390
18334 19479
18334 19957
18334 20013
18334 23242
18335 20462
18335 20665
18336 20790
18338 19520
18340 18343
18340 22880
18341 18343
18341 20131
18341 21729
18341 21730
18341 22880
18342 21725
18343 20130
18343 21125
18344 18737
18345 21563
18346 23263
18346 23276
18347 23166
18348 21642
18349 18603
18351 24258
18351 24261
18352 18708
18354 21700
18354 21891
18354 22752
18355 19040
18355 20554
18355 21583
18355 21584
18356 18357
18356 19038
18356 23498
18357 18358
18357 19038
18357 20356
18357 23036
18359 20190
18359 21474
18359 22081
18359 22938
18359 23327
18360 22525
18361 22701
18362 21180
18363 21039
18364 18909
18364 20540
18364 21449
18365 21760
18367 22566
18369 20573
18371 19199
18371 19825
18371 20737
18371 22070
18371 23431
18372 19869
18372 19881
18372 20499
18372 22428
18372 22531
18372 22869
18372 22995
18372 23085
18373 20847
18374 20847
18374 23515
18375 18998
18375 21873
18375 22423
18376 21907
18377 22326
18379 22943
18380 20884
18380 22571
18381 21413
18381 21911
18382 20941
18387 20165
18388 18429
18388 19372
18388 21422
18388 22276
18388 22415
18391 21270
18392 20503
18393 21798
18394 24201
18394 24202
18394 24341
18394 24464
18396 24410
18396 24458
18397 22622
18399 18494
18400 20928
18401 18732
18401 20107
18403 22872
18405 19198
18405 21225
18408 24434
18409 18411
18414 21317
18414 23529
18414 24407
18417 19647
18419 20305
18420 18820
18421 22289
18422 18962
18423 20502
18424 18483
18424 18485
18427 18967
18427 19629
18427 23561
18430 19554
18430 20104
18432 19157
18432 22198
18432 23343
18435 21913
18438 24283
18438 24485
18439 18516
18440 18689
18441 19226
18441 20058
18442 22844
18443 22138
18443 22434
18444 21150
18444 22921
18444 23563
18445 20392
18445 22382
18446 20473
18447 20900
18447 24007
18447 24100
18448 21402
18449 24014
18450 22514
18450 22574
18451 23652
18452 19421
18453 19611
18453 20199
18453 22167
18453 24165
18454 19735
18455 19140
18455 23038
18456 19010
18458 22216
18459 23369
18459 24109
18461 24344
18462 23729
18462 24032
18462 24446
18463 19433
18463 22670
18463 23228
18464 22124
18466 20290
18466 20459
18466 23200
18469 22552
18471 22154
18472 18485
18474 19127
18474 19587
18475 21295
18477 21683
18477 22260
18479 21045
18480 18501
18480 19594
18482 22071
18482 22315
18483 18484
18483 23224
18484 18486
18484 23226
18486 23224
18486 23226
18487 18760
18487 18927
18487 20233
18487 21745
18487 22730
18489 19411
18490 19381
18490 21437
18491 18617
18491 19301
18491 19429
18491 21013
18492 23431
18493 20378
18494 19464
18494 20564
18495 23116
18495 23870
18495 24161
18496 24129
18496 24173
18501 19594
18502 23784
18502 24285
18502 24436
18503 19558
18504 21698
18504 22732
18505 21107
18507 22156
18508 20415
18508 22350
18510 22329
18512 21088
18514 19484
18515 21190
18519 22141
18520 19172
18521 23784
18521 24436
18524 21870
18525 20869
18525 23475
18527 21700
18527 21917
18527 22501
18528 21373
18528 21374
18529 22031
18533 24213
18533 24347
18534 19146
18534 19674
18534 22154
18535 19096
18538 18820
18540 23880
18541 24189
18543 20985
18543 21306
18543 22041
18544 18706
18544 21949
18545 20816
18546 22856
18548 22403
18548 22852
18550 21556
18551 20858
18551 21501
18552 22799
18553 23955
18553 24309
18556 21760
18557 18656
18558 19129
18559 20189
18559 20771
18559 22894
18561 19261
18561 23522
18562 21234
18562 23138
18563 19529
18565 18926
18569 21241
18569 23525
18570 22820
18571 23131
18574 21918
18577 24438
18578 24412
18579 18900
18579 21230
18580 19646
18580 21565
18580 23024
18580 23096
18581 20209
18581 21415
18582 19724
18582 19763
18583 20092
18583 21603
18583 22035
18584 19483
18584 20079
18584 22369
18584 23769
18584 23866
18585 22363
18587 20640
18587 23888
18588 23183
18590 20492
18591 19171
18591 19173
18591 19174
18592 23689
18592 24253
18592 24270
18592 24378
18593 19553
18593 19617
18593 23248
18594 19554
18594 21137
18595 18902
18595 21182
18596 18985
18600 19179
18602 19476
18602 20220
18603 22355
18603 22464
18604 22078
18604 22690
18605 22778
18606 21666
18607 18822
18608 23582
18609 20554
18610 18768
18610 19094
18610 19154
18611 20134
18611 23308
18612 20575
18613 21169
18613 22833
18615 23940
18615 24422
18616 20259
18620 19171
18620 19173
18620 19174
18621 19196
18622 19580
18623 22407
18626 19806
18626 21936
18626 23199
18629 20635
18629 20997
18630 22931
18631 18721
18631 18765
18631 19001
18631 19002
18631 19018
18631 19846
18631 19865
18631 20718
18631 20901
18631 21029
18631 21270
18631 21287
18631 21803
18631 21822
18631 21956
18631 22292
18631 22365
18631 22437
18631 22801
18631 23344
18631 23549
18632 20211
18632 20580
18632 20973
18633 19829
18634 21817
18636 23354
18636 24012
18636 24116
18636 24312
18638 19196
18638 19956
18639 24181
18639 24300
18639 24318
18641 19208
18641 19910
18642 22329
18643 22913
18644 20759
18644 20805
18644 22446
18646 19687
18647 19275
18647 19979
18647 22648
18648 21671
18650 23800
18650 24007
18650 24100
18651 22696
18652 23721
18653 19138
18655 23668
18656 18834
18656 20024
18659 20346
18661 20718
18661 22365
18663 23223
18665 18689
18665 22079
18667 22885
18668 24053
18673 19318
18673 22025
18674 20404
18675 23297
18676 19689
18677 21029
18678 19995
18678 21773
18679 22979
18681 20378
18681 21130
18682 18846
18683 22740
18683 22843
18683 23231
18686 23136
18689 19224
18690 23337
18691 23720
18691 24164
18692 19140
18692 20677
18692 23754
18692 24295
18693 21658
18694 22157
18694 23187
18695 20402
18696 21242
18697 20865
18700 22554
18700 23328
18702 20006
18703 21283
18704 22993
18706 20571
18709 19085
18714 22212
18716 20100
18717 22469
18717 23210
18719 19198
18719 21614
18720 21832
18721 23413
18722 20513
18722 21933
18722 22905
18726 19988
18727 20732
18727 22391
18729 23507
18731 19063
18732 20201
18732 20753
18734 22053
18735 21653
18735 22981
18736 20787
18738 19227
18740 19723
18741 19653
18742 20261
18745 19603
18745 21097
18745 21402
18747 22138
18748 20586
18754 19310
18754 23215
18755 22904
18756 18908
18757 18983
18759 19080
18759 21748
18761 19917
18762 23798
18762 24416
18763 21553
18764 19496
18764 20764
18764 22007
18765 19564
18765 22365
18766 21002
18766 23105
18767 24383
18770 19243
18770 23182
18771 20215
18771 21282
18771 21663
18771 22123
18771 22613
18771 22622
18772 19438
18774 22834
18775 19963
18775 22225
18776 23514
18778 20056
18778 23166
18780 22701
18780 23345
18781 21159
18781 21866
18781 21900
18781 22818
18781 22978
18782 19511
18782 20212
18782 22947
18782 23771
18783 19175
18784 21834
18785 23040
18788 19804
18790 21465
18791 20546
18791 22018
18793 19452
18794 23735
18794 23978
18794 24238
18795 20921
18799 23247
18801 22695
18804 22357
18805 19062
18805 22293
18805 22515
18806 19567
18807 19929
18812 19334
18812 21054
18812 21600
18813 19066
18813 20450
18817 20455
18817 20473
18817 23614
18818 22400
18819 22881
18820 18827
18821 19009
18821 19089
18822 18824
18822 22133
18823 22133
18827 19806
18827 19807
18827 23199
18829 19943
18829 20412
18829 21643
18829 21916
18831 19636
18831 21427
18833 23663
18835 22933
18836 21487
18836 22948
18837 21925
18838 19227
18838 20096
18839 19824
18842 21637
18843 22043
18843 22816
18843 24468
18844 19858
18844 20329
18844 22147
18844 22402
18844 22701
18844 23444
18845 22120
18846 19351
18846 19586
18846 19973
18846 20630
18846 20733
18846 21160
18846 21187
18846 21655
18846 21807
18846 24381
18847 19831
18847 20855
18848 19670
18850 22915
18851 19163
18851 19164
18852 20281
18852 22222
18856 22140
18857 21008
18857 21251
18859 20536
18861 22012
18862 23270
18863 24016
18863 24050
18863 24217
18864 19546
18864 20548
18864 22272
18864 23761
18866 19858
18866 20581
18866 22147
18866 23437
18869 18967
18869 23860
18870 22913
18871 22948
18872 20409
18873 22620
18877 24166
18877 24279
18877 24309
18878 23346
18878 24449
18880 20208
18880 22502
18880 23396
18881 19287
18881 20647
18884 22244
18886 19290
18886 21942
18886 24453
18888 22734
18889 20795
18890 21010
18891 23486
18893 18921
18894 19814
18894 19815
18895 23358
18896 19506
18897 21194
18897 22773
18897 23905
18898 21556
18899 21615
18900 19461
18900 19550
18900 20307
18900 20968
18900 21024
18900 21738
18900 22053
18900 22506
18900 22714
18901 19552
18901 22174
18902 19859
18902 21182
18902 22267
18902 23650
18903 20143
18906 23063
18907 19812
18907 19817
18910 20556
18911 19959
18911 20304
18912 23610
18913 20468
18913 22335
18914 22344
18915 23503
18915 23881
18915 24040
18916 19781
18918 20203
18918 21152
18918 21206
18918 21719
18918 22291
18918 23531
18920 23729
18920 24328
18920 24446
18921 19373
18925 19866
18926 21609
18926 22196
18927 21745
18927 22730
18928 18998
18931 22843
18933 19800
18933 20310
18933 21166
18933 23122
18934 21234
18938 22289
18938 23212
18940 19026
18940 19633
18940 22196
18943 19369
18943 19927
18943 19933
18943 21431
18944 19611
18946 19937
18946 21997
18947 19798
18948 21460
18952 19446
18952 19995
18954 19849
18954 20531
18954 20838
18954 21910
18954 22689
18954 22694
18954 22984
18955 20259
18956 23812
18959 20844
18961 23254
18962 19359
18962 20617
18962 21276
18962 21809
18962 22418
18962 23858
18963 24083
18965 22053
18965 23028
18966 19812
18966 19817
18966 19818
18967 19286
18967 19629
18967 21274
18967 21718
18967 21869
18967 22001
18967 22539
18967 22610
18967 23561
18967 23580
18967 23860
18968 20685
18971 24457
18972 19058
18972 20133
18973 19081
18973 19277
18973 23164
18973 23184
18974 23284
18975 19091
18975 21464
18976 20408
18977 23940
18978 19718
18978 19799
18979 18998
18981 23369
18983 21411
18986 21000
18987 19669
18988 18989
18988 21715
18990 23732
18991 21992
18992 20380
18993 22333
18994 20124
18996 19318
18996 23328
18998 20183
18998 21873
18998 21932
18998 22060
18998 22084
18998 22104
18998 22116
18998 22177
18998 22423
18998 23100
19000 19777
19000 20818
19001 22365
19004 23615
19004 24056
19007 19828
19007 21005
19008 22287
19008 23552
19011 23542
19012 20411
19012 21407
19014 20340
19015 23243
19016 19045
19017 19769
19017 22356
19017 23065
19019 21826
19020 22696
19021 19668
19021 23690
19022 20268
19022 20891
19022 20945
19022 21834
19022 22329
19023 23912
19023 23961
19024 21030
19025 19441
19027 20047
19027 23455
19028 20599
19028 22426
19029 20992
19029 22178
19031 23917
19032 20902
19033 20510
19035 19969
19036 22293
19036 22849
19036 23447
19037 22429
19037 23478
19038 19040
19038 20356
19038 21583
19040 20355
19040 20356
19040 20357
19040 20857
19040 21583
19040 21584
19040 22671
19041 20645
19041 22055
19043 22810
19044 19581
19044 20208
19044 22502
19045 20023
19045 22255
19046 19275
19046 19979
19046 22648
19047 19666
19049 22005
19049 22116
19050 20952
19050 21340
19050 21723
19051 20528
19051 20871
19052 19418
19052 19926
19052 21086
19052 21811
19052 23339
19052 23553
19053 22381
19053 23289
19056 20848
19057 20848
19058 20133
19059 24476
19060 20786
19061 19099
19061 22841
19062 20529
19063 20049
19065 23787
19065 23874
19065 24071
19066 20450
19066 20982
19066 21178
19066 21898
19068 21137
19068 21402
19069 22414
19074 20313
19074 22205
19075 19572
19076 19078
19076 21523
19077 21509
19079 19942
19081 23164
19083 20107
19084 20983
19084 21758
19084 22345
19086 21456
19090 19578
19095 20588
19096 19765
19096 23034
19098 20489
19098 21564
19101 20144
19102 21363
19102 22827
19105 19371
19107 24484
19109 19382
19109 22352
19109 22544
19109 23573
19111 22036
19112 19842
19112 20066
19112 22253
19115 19256
19115 19335
19115 19502
19115 21586
19115 21805
19115 21924
19117 19341
19117 20711
19119 20554
19119 20866
19120 20866
19121 20480
19121 20709
19121 22619
19123 23047
19125 19202
19127 19587
19128 19131
19128 22964
19130 19318
19131 22964
19132 23255
19133 23145
19133 23425
19134 22332
19134 22784
19135 24219
19136 23207
19136 23691
19137 24078
19137 24154
19137 24325
19140 23038
19141 22017
19142 20379
19142 22799
19143 22972
19147 21623
19148 23257
19151 19191
19151 19686
19151 19980
19151 20139
19151 20373
19152 21153
19155 22343
19156 19753
19156 19854
19156 23705
19158 19877
19158 22412
19158 23020
19159 19318
19159 19682
19161 23259
19163 22774
19165 23465
19167 24352
19168 19398
19171 19172
19171 19173
19171 19174
19173 19556
19174 19556
19177 22287
19182 23319
19186 21673
19188 21805
19189 23298
19190 24021
19191 20846
19191 21084
19191 21094
19191 21205
19191 21513
19191 22085
19191 22301
19192 19329
19193 19463
19193 19554
19196 20517
19197 19611
19198 19491
19198 20618
19198 21225
19198 21504
19198 22156
19198 22444
19198 22656
19198 22950
19198 23569
19200 21585
19201 20002
19202 20913
19202 21455
19202 21489
19202 22073
19206 22678
19208 20191
19210 19824
19210 22904
19211 21725
19217 21872
19218 19236
19220 21257
19222 20260
19224 23394
19226 20058
19227 20790
19227 21991
19228 20718
19229 20266
19229 22589
19230 22138
19232 21603
19233 21021
19235 24008
19237 19595
19237 23761
19238 23308
19239 20210
19239 21368
19240 23331
19243 23182
19244 22396
19244 22766
19245 23445
19246 22687
19247 19478
19248 22132
19248 22815
19248 23849
19249 19421
19250 21789
19251 21083
19251 21378
19251 22317
19252 23062
19253 23200
19253 23369
19254 20272
19254 21806
19254 22163
19259 19878
19263 23061
19263 23090
19264 21645
19266 19274
19266 22076
19271 22037
19272 22772
19276 24262
19277 21660
19279 21023
19282 24429
19283 20486
19284 21330
19287 20180
19288 23369
19291 19367
19291 21925
19292 21614
19294 21522
19294 21836
19294 22674
19295 19639
19296 21342
19299 20052
19299 22243
19301 21013
19302 21047
19304 19305
19304 19306
19304 20316
19304 21761
19304 23535
19305 19306
19305 19307
19305 20316
19305 20317
19305 22324
19307 22324
19309 21655
19310 22218
19312 20499
19313 20767
19314 19837
19316 19757
19316 20996
19316 23019
19318 19412
19318 19474
19318 19684
19318 19918
19318 20310
19318 20387
19318 21166
19318 21185
19318 21304
19318 22025
19318 22039
19318 22064
19318 22104
19318 22420
19318 22471
19318 22507
19318 23463
19322 22128
19323 20167
19323 23460
19328 20263
19329 23041
19330 23589
19331 21035
19332 23683
19334 21600
19335 19502
19337 19504
19339 19486
19340 23311
19340 24349
19343 21984
19344 21393
19345 20341
19346 22467
19346 23234
19346 23246
19348 20353
19348 22470
19350 22551
19353 19672
19353 21175
19353 21344
19353 22798
19355 20765
19362 20455
19362 20473
19362 23614
19363 22890
19364 20125
19367 20241
19367 21925
19369 19927
19371 20656
19371 22199
19371 22281
19371 22354
19371 22490
19371 22606
19371 22901
19371 22926
19372 21422
19372 22276
19373 22409
19374 22789
19374 23597
19375 23921
19375 23974
19379 19613
19380 20847
19380 23515
19381 19745
19381 19750
19381 20063
19381 20187
19381 22290
19381 22932
19381 23239
19381 23586
19382 20731
19382 22657
19382 23760
19383 21646
19383 21647
19384 19954
19384 23028
19387 23200
19387 23492
19389 24189
19390 20565
19391 22053
19393 21269
19394 20553
19394 21828
19394 22162
19396 21428
19399 22411
19400 22553
19401 23047
19402 24070
19402 24477
19403 19961
19403 21454
19404 22635
19404 22637
19405 22741
19408 24029
19408 24177
19408 24225
19409 23671
19409 23765
19410 20370
19411 21827
19411 22047
19412 22025
19413 22017
19415 23504
19417 21509
19417 22882
19418 21408
19418 23553
19419 24316
19419 24317
19420 23213
19420 23699
19421 19450
19422 22613
19422 22622
19423 20619
19424 20989
19425 22349
19427 21792
19428 20683
19428 23201
19433 22670
19433 23228
19434 20356
19434 20866
19435 22827
19437 19566
19437 23189
19438 21907
19439 21197
19442 20531
19442 22344
19447 20429
19447 21964
19448 21378
19451 21838
19452 21514
19452 21847
19454 20862
19455 20573
19455 21492
19457 24164
19457 24427
19458 20411
19460 20744
19461 22053
19462 20996
19463 19554
19464 20564
19465 21006
19466 20380
19470 23181
19473 23201
19474 22025
19475 22079
19475 23628
19476 20220
19476 23596
19477 22209
19477 23511
19480 23247
19482 21217
19482 22063
19483 22674
19488 23912
19488 23992
19490 23227
19491 20220
19493 22122
19493 24071
19494 21069
19495 20591
19495 22777
19496 20764
19496 22007
19497 21969
19497 23541
19499 20554
19499 21319
19501 20072
19502 21805
19503 20701
19503 20896
19503 22899
19504 19978
19504 20414
19504 23095
19505 20771
19505 21721
19506 20071
19506 20816
19506 20937
19506 22596
19508 21419
19510 20179
19510 22732
19511 19923
19514 19855
19515 19912
19515 20103
19515 23045
19518 19998
19518 21389
19518 22653
19520 21620
19521 22558
19522 19785
19523 20588
19524 19824
19524 21129
19525 22952
19528 22053
19531 19532
19533 19811
19534 20009
19535 21634
19535 22881
19536 21577
19536 22807
19536 23006
19537 19554
19537 20037
19537 21341
19537 21380
19541 20640
19541 23888
19543 20242
19544 21029
19544 23413
19545 22295
19546 22272
19547 21556
19548 20492
19552 22174
19553 21286
19554 20235
19554 21341
19554 21837
19554 22935
19557 20784
19557 23441
19558 20604
19559 24439
19560 21626
19562 23749
19564 20454
19564 21270
19564 21311
19564 22308
19564 22365
19564 22530
19566 23189
19569 20836
19570 22472
19571 22957
19574 22529
19576 21556
19576 21614
19576 23495
19579 23138
19580 22834
19581 21365
19581 23396
19585 20568
19587 21659
19587 21909
19587 22466
19588 20886
19589 23236
19591 22643
19592 23839
19592 24451
19593 23063
19594 21162
19595 23761
19596 20719
19597 20111
19597 20343
19597 21290
19600 19623
19600 20059
19600 20574
19600 20684
19600 21622
19600 21678
19600 21872
19600 22192
19600 22718
19601 20093
19605 19611
19607 20649
19607 23067
19611 20199
19611 20461
19611 22449
19611 22677
19611 24165
19613 21892
19614 20370
19614 22563
19616 22203
19616 22361
19620 23461
19621 21795
19623 20674
19623 20768
19626 22156
19626 22421
19627 23023
19628 22921
19629 21718
19629 21869
19629 22610
19629 23860
19631 20175
19631 20447
19631 21867
19632 20771
19633 22680
19634 20535
19635 21105
19635 23590
19638 20454
19638 21266
19639 21626
19641 23146
19642 22488
19642 22970
19643 20113
19643 20489
19643 21545
19643 21564
19643 23542
19647 22850
19649 22788
19650 20107
19650 20376
19650 22287
19651 20250
19651 24220
19652 22916
19652 22961
19652 22980
19653 22605
19653 22754
19653 22897
19658 23922
19658 24348
19662 21864
19662 22572
19662 22617
19663 23642
19665 22305
19668 22439
19672 21175
19672 21344
19673 23240
19675 23706
19675 23909
19678 20530
19678 21045
19678 22038
19679 21045
19680 22894
19684 22025
19685 21111
19685 23443
19687 20741
19687 21902
19687 22608
19691 20732
19691 21668
19692 20562
19692 22365
19692 22561
19693 22206
19694 21882
19696 20275
19696 21235
19697 23369
19697 24479
19698 20826
19699 20349
19701 23929
19705 22638
19705 24221
19706 20361
19707 22450
19708 19744
19708 21156
19710 23109
19710 23195
19713 23513
19717 23242
19718 23262
19719 23058
19726 23200
19727 21799
19727 22791
19729 22125
19731 19770
19731 23373
19733 20196
19733 20433
19734 22856
19735 20849
19735 23484
19736 23238
19737 21016
19737 21702
19737 22792
19737 23683
19739 22994
19743 24389
19743 24391
19744 20390
19744 21156
19744 21439
19745 21437
19746 22341
19751 20333
19751 22447
19752 21593
19752 21614
19753 19854
19753 22452
19757 20166
19757 22983
19757 23019
19760 22025
19762 24443
19766 23270
19767 21102
19768 23729
19768 24032
19771 22168
19773 23435
19775 20717
19775 22391
19776 21856
19776 24090
19777 20577
19777 20818
19777 21409
19778 21345
19780 20859
19782 19974
19782 20954
19784 21679
19784 22727
19785 20780
19785 20958
19785 21614
19785 23070
19787 20909
19789 21708
19789 23092
19790 21013
19791 20232
19791 21695
19791 21895
19791 23341
19793 20290
19793 20951
19795 20835
19806 19807
19806 22146
19806 23199
19807 22146
19807 23199
19808 20430
19810 22419
19810 23994
19811 23309
19812 19817
19812 19818
19815 20428
19815 21888
19816 19818
19816 20602
19820 21636
19821 21835
19823 20261
19823 23146
19824 20806
19824 21129
19824 22735
19824 22904
19828 21157
19828 22780
19828 22806
19828 22962
19828 23473
19829 20773
19830 21897
19830 22876
19834 21408
19835 20148
19835 20722
19837 23028
19840 21529
19840 22731
19841 22377
19842 20066
19848 21011
19849 20377
19849 20974
19851 19976
19852 22739
19854 23705
19855 20949
19856 21039
19857 23135
19857 24006
19857 24275
19858 23444
19862 20687
19862 20689
19864 21433
19864 23276
19867 20001
19871 23159
19874 23038
19877 20175
19879 22527
19880 22053
19882 21556
19883 19885
19883 22194
19884 19885
19884 22194
19885 20614
19889 23645
19890 21270
19891 22154
19892 22678
19893 23652
19893 24316
19894 21402
19895 20660
19897 20347
19899 21719
19900 22856
19905 20638
19907 20693
19908 20924
19909 22323
19910 20191
19912 20103
19913 22300
19914 22107
19915 21236
19916 23792
19916 23992
19917 21733
19923 19928
19923 21329
19923 21597
19923 21662
19923 22399
19923 23200
19923 23275
19923 23507
19924 22744
19924 23103
19929 20829
19929 20908
19929 22541
19931 20098
19931 20723
19931 22252
19932 21410
19932 22692
19936 23985
19936 24041
19936 24152
19937 20959
19937 21997
19938 21437
19938 22290
19943 20412
19946 22048
19947 21360
19947 22009
19950 20530
19951 20400
19951 21486
19951 22545
19952 22386
19954 23028
19955 20572
19956 21079
19956 23530
19957 23242
19957 23662
19958 23643
19960 22281
19961 21454
19962 22225
19963 22225
19965 22486
19967 20207
19968 21457
19968 23356
19968 23364
19968 23711
19970 22288
19972 22391
19973 21160
19973 21655
19973 21807
19973 21935
19973 24381
19978 21918
19978 23095
19980 20139
19980 22246
19982 21614
19983 23369
19983 24479
19984 24017
19984 24179
19984 24446
19985 22843
19987 20185
19988 22040
19988 23121
19990 24099
19992 22848
19992 23350
19993 23166
19994 22709
19995 21773
19997 20804
19997 21199
19997 21963
19997 22005
19997 22313
19997 22575
19997 22598
19999 20771
20002 21108
20004 23395
20007 22583
20008 20650
20010 24129
20011 24398
20012 20417
20014 21604
20018 20029
20018 20030
20018 20033
20018 21547
20019 20020
20019 20021
20020 20021
20021 20866
20022 20025
20022 20027
20022 20028
20022 20030
20022 20031
20025 20028
20025 20031
20026 20027
20026 20030
20026 20031
20027 20028
20027 21547
20028 20031
20028 20032
20028 21547
20029 20032
20029 20033
20030 20033
20031 20033
20032 21547
20036 24225
20038 23786
20038 24369
20039 20696
20042 21072
20043 20179
20043 22732
20045 20216
20045 21423
20046 22231
20047 21503
20047 23455
20047 23647
20053 20075
20060 23621
20062 21334
20063 22290
20065 23396
20066 22253
20067 22505
20067 23204
20070 20417
20074 21244
20074 21766
20076 20289
20076 20393
20077 22058
20077 22107
20079 20715
20079 23245
20081 21141
20081 21616
20084 24172
20084 24326
20084 24407
20085 23287
20086 21244
20089 24066
20092 22035
20093 20127
20093 21579
20093 22712
20094 20226
20095 22151
20096 23759
20097 21613
20097 22808
20097 23435
20098 23076
20100 22392
20100 22855
20100 23044
20101 21148
20102 21959
20103 23045
20105 21655
20105 22592
20107 20141
20107 20459
20107 20508
20107 22383
20107 22947
20107 23049
20107 23275
20107 23554
20108 21076
20109 24189
20110 21279
20110 22728
20110 22742
20111 21290
20113 20489
20113 21564
20115 22630
20120 23219
20122 21645
20122 22464
20123 20652
20123 22189
20127 20638
20128 23372
20129 20913
20129 21455
20130 20131
20131 22880
20133 20713
20133 23021
20134 21267
20134 22173
20134 22658
20134 23308
20137 20882
20139 22246
20141 20376
20141 22287
20142 22686
20144 20170
20144 21640
20144 22361
20146 21048
20146 23094
20146 23697
20146 23895
20147 23877
20148 20722
20148 20815
20152 21971
20152 22654
20152 23562
20154 20758
20154 21170
20157 21549
20160 20788
20160 22274
20164 20780
20164 20956
20165 22559
20167 23832
20168 20431
20171 24221
20173 24302
20173 24383
20174 22632
20174 22661
20175 22412
20176 22184
20176 22812
20177 22571
20178 22182
20179 20193
20179 20926
20180 21424
20180 23299
20183 22005
20183 22116
20184 22287
20184 23552
20185 21090
20187 21437
20188 20667
20189 20441
20190 22938
20197 20748
20198 20634
20198 23412
20199 20653
20199 24165
20200 21359
20202 23562
20203 21152
20203 21719
20204 22939
20205 23542
20206 23200
20208 22502
20209 20860
20209 21415
20209 21797
20209 23368
20210 20916
20210 21069
20214 23774
20214 24227
20215 21663
20216 21281
20216 21497
20216 21624
20217 20218
20217 20708
20219 23759
20220 21504
20220 22294
20221 24201
20221 24340
20221 24462
20222 22361
20223 23105
20225 23454
20227 23678
20227 24021
20228 21198
20228 21782
20229 21652
20231 20955
20232 21895
20232 23341
20234 20861
20234 21556
20237 20266
20237 22589
20239 21296
20239 23565
20241 21744
20241 22639
20244 21280
20247 21181
20249 21269
20250 22748
20251 21455
20251 21489
20253 23255
20255 21666
20255 23521
20257 21397
20258 20593
20261 22931
20261 23146
20262 20573
20265 20406
20266 22589
20267 21550
20270 20957
20270 21786
20270 21996
20272 20929
20272 22163
20274 23663
20275 21235
20278 23548
20279 21180
20279 21384
20280 20345
20280 23178
20281 23326
20287 21824
20294 23132
20295 21931
20296 21333
20296 21770
20304 21219
20304 22365
20306 20533
20306 22910
20307 22709
20312 22377
20317 22324
20319 20612
20320 22298
20322 20323
20322 20325
20323 20325
20323 20326
20324 23204
20325 20326
20327 21137
20329 20581
20330 24256
20330 24300
20334 23384
20335 21551
20338 21070
20338 21434
20339 20445
20339 24215
20340 20918
20341 22085
20341 22301
20341 23834
20342 21601
20343 23106
20345 23178
20346 20696
20347 22057
20348 21003
20348 22429
20348 23478
20349 20802
20350 21234
20352 24000
20355 20357
20356 21583
20356 21584
20356 23382
20357 21583
20358 20775
20361 21791
20361 22681
20364 21464
20365 24014
20365 24221
20365 24468
20367 22998
20368 21445
20370 22528
20371 21681
20371 22494
20373 21205
20373 21513
20374 21834
20375 20840
20376 22287
20376 23552
20377 20438
20377 22052
20378 21130
20379 21420
20381 21435
20383 20768
20383 22756
20387 22025
20388 22362
20389 21513
20389 22404
20392 22201
20392 24345
20393 23024
20394 21560
20394 21562
20394 21563
20399 20704
20400 21486
20400 22545
20400 23056
20403 21015
20403 21719
20405 22769
20407 23921
20407 24204
20408 22588
20410 22696
20411 21407
20412 21916
20412 22328
20414 23095
20417 21419
20419 20985
20424 22529
20425 23308
20426 20427
20426 24346
20427 24346
20428 21888
20429 21964
20429 22755
20431 21443
20434 21241
20435 23317
20436 23041
20437 23410
20441 20771
20441 22894
20442 24225
20442 24246
20445 21381
20445 23807
20445 24131
20445 24215
20448 20989
20449 23488
20451 23513
20453 20718
20455 23614
20457 21257
20457 21660
20462 21673
20466 22741
20468 22479
20468 22733
20469 21378
20469 23385
20473 20838
20473 21910
20473 22689
20473 22694
20474 22188
20475 24094
20475 24439
20477 21885
20477 22830
20477 23426
20478 22873
20478 23601
20480 22619
20483 24087
20485 22890
20485 23002
20489 21545
20492 20504
20492 20637
20492 21743
20501 23742
20501 24069
20503 21512
20503 23485
20505 20795
20506 21150
20506 22921
20506 23466
20507 22674
20508 23200
20511 22976
20511 23614
20512 21881
20513 22905
20515 23699
20516 21681
20517 21676
20519 22849
20522 23567
20524 23986
20528 20871
20529 22440
20530 21045
20531 22344
20532 24131
20536 22840
20538 22696
20543 21995
20544 21076
20545 22156
20551 24279
20551 24423
20552 21893
20554 22671
20554 23382
20558 22614
20562 21491
20563 21009
20563 22913
20565 23662
20566 21807
20566 21935
20566 22804
20568 21979
20571 20876
20571 21949
20572 21074
20572 22102
20573 21941
20576 21251
20576 22095
20583 23527
20584 23131
20587 23987
20587 24443
20591 22777
20591 23686
20592 21434
20592 22220
20592 23379
20593 22336
20594 20852
20594 22062
20594 22150
20595 21578
20595 22281
20597 23162
20600 22362
20603 22960
20608 23402
20610 22281
20611 22775
20614 22438
20615 21644
20616 21001
20617 20770
20618 21332
20618 21607
20620 21062
20620 22034
20623 22867
20624 23589
20625 20910
20625 22082
20626 20771
20627 22053
20628 22758
20628 22945
20630 21655
20631 21501
20633 23412
20634 22378
20634 23412
20638 21579
20639 21013
20639 22928
20640 21052
20640 21856
20640 23888
20641 23729
20641 23993
20641 24032
20641 24328
20642 20840
20643 21934
20647 21848
20647 23495
20648 21172
20648 23297
20650 21681
20650 22489
20651 21324
20652 22189
20653 21488
20653 21671
20653 22677
20654 22793
20655 21593
20655 21614
20656 22281
20658 21107
20659 20673
20660 20759
20660 21876
20660 22446
20660 23751
20662 22305
20662 23027
20663 21059
20667 22904
20667 23469
20668 21556
20669 22086
20671 21181
20674 21181
20676 20878
20682 21181
20691 23188
20693 21685
20694 21698
20695 21115
20696 21391
20697 22841
20698 23859
20698 23938
20698 24101
20699 24223
20699 24285
20699 24436
20700 21731
20701 23312
20704 21712
20705 22138
20710 23616
20712 24414
20714 21747
20717 20732
20717 20817
20717 21148
20717 22121
20718 20850
20718 21822
20718 22801
20720 22627
20721 21509
20721 21776
20722 20815
20724 21556
20725 24253
20726 21725
20729 20776
20729 20964
20734 22473
20735 21556
20736 23854
20736 23856
20739 24321
20740 24317
20742 21618
20742 21741
20745 23135
20745 24058
20749 20895
20752 23827
20755 22724
20755 22792
20755 23683
20756 21023
20763 22431
20764 22007
20766 23697
20766 23895
20769 23178
20771 21721
20771 21796
20771 23034
20771 23601
20771 23743
20771 23841
20777 23181
20778 21485
20781 23874
20781 24071
20783 22277
20784 21360
20784 23441
20789 22230
20789 23460
20792 21735
20808 24164
20808 24247
20811 22565
20812 21067
20812 22171
20814 23512
20816 24315
20819 23230
20822 24049
20822 24445
20822 24448
20824 21654
20828 23991
20830 23796
20830 24303
20835 22029
20839 20911
20841 22622
20845 21814
20846 21205
20847 23515
20847 23851
20849 21138
20851 21817
20852 22150
20856 21667
20856 23338
20861 21556
20864 22079
20866 21143
20866 21319
20867 24284
20869 23475
20870 21794
20870 22900
20870 23638
20870 23710
20870 24164
20871 22391
20872 22046
20872 22474
20874 24054
20879 22101
20881 23531
20882 21399
20884 23808
20888 22604
20890 24395
20892 22365
20893 23955
20893 24279
20896 21860
20897 23274
20899 23911
20899 23965
20901 21311
20903 21951
20903 21952
20904 21644
20905 21441
20910 22082
20913 21455
20914 22844
20915 21556
20916 21069
20917 21786
20920 23067
20920 23302
20924 21256
20924 23352
20925 22345
20928 22318
20930 23681
20930 23682
20935 22436
20935 22885
20936 22152
20937 23258
20942 24212
20942 24305
20942 24425
20943 21983
20944 24337
20945 21834
20946 22026
20947 23200
20949 22365
20952 21340
20956 21770
20957 21996
20961 22400
20962 22933
20963 21117
20969 20977
20970 23390
20970 23931
20971 21341
20971 22936
20972 22676
20972 22919
20974 22344
20974 22984
20976 21101
20976 22236
20978 23967
20978 24169
20981 23706
20982 21178
20984 22837
20985 22041
20985 22193
20990 21899
20990 23624
20992 22178
20996 22983
20996 23019
20999 22958
21002 23105
21003 22429
21003 23478
21005 22962
21008 21251
21009 21098
21009 22040
21009 22913
21009 23121
21009 23840
21011 23459
21012 22298
21013 22928
21016 21702
21017 23959
21017 24044
21022 24225
21026 21067
21029 21822
21029 22365
21029 23502
21030 22733
21031 23220
21034 23138
21036 22599
21037 24257
21037 24367
21039 22894
21043 22904
21044 22024
21047 21681
21048 23094
21048 23416
21049 21163
21051 21661
21051 22315
21052 23888
21053 22676
21053 22919
21054 21600
21057 22841
21062 22034
21068 22969
21070 22818
21071 23802
21071 24279
21071 24332
21072 23436
21081 21964
21083 21378
21083 22241
21083 23385
21085 23200
21090 22011
21093 22595
21096 21378
21098 22913
21100 24407
21113 23433
21115 21938
21115 21940
21116 21923
21120 23156
21122 22457
21123 22008
21132 23172
21133 24091
21135 22797
21135 23333
21137 22149
21142 22472
21144 22036
21147 23326
21150 23563
21152 21719
21157 21330
21159 22818
21162 23509
21165 21437
21169 22833
21169 23343
21172 23297
21174 22156
21174 22820
21175 22798
21177 21614
21178 21305
21178 23507
21179 21487
21180 21384
21181 21450
21181 21568
21181 22756
21181 22885
21181 23836
21181 24140
21187 21655
21190 22485
21190 23179
21191 21339
21191 23755
21193 22971
21196 22169
21196 22923
21198 21928
21200 22114
21200 22374
21200 22375
21201 22114
21202 22650
21204 23871
21204 23977
21204 24287
21204 24398
21205 21513
21206 22663
21209 21635
21209 22071
21209 22315
21211 24491
21213 24422
21216 21735
21217 21582
21218 22469
21222 22529
21224 23511
21227 22799
21228 21254
21230 22714
21231 23038
21234 21495
21234 21612
21234 22353
21234 23138
21234 23598
21236 21238
21236 22481
21237 22281
21238 22481
21239 23279
21240 21680
21243 23955
21244 21766
21244 21768
21245 21683
21246 23318
21249 21250
21249 21540
21249 21541
21249 22600
21250 21540
21250 22600
21253 23753
21256 23352
21257 21660
21258 22864
21260 22330
21261 23680
21262 23467
21267 23308
21268 22906
21270 22530
21271 23374
21272 23597
21278 23023
21280 23369
21281 21624
21282 21663
21283 21550
21294 22364
21294 22366
21294 23371
21299 21300
21303 23168
21304 22025
21307 23212
21309 23556
21312 21506
21313 21556
21313 22156
21317 24407
21323 22913
21332 21607
21333 21770
21334 22352
21334 22544
21334 23573
21337 21644
21339 23470
21339 23743
21340 21723
21342 21987
21343 22128
21344 22798
21345 21820
21346 22931
21353 22797
21353 23333
21354 24198
21356 23475
21357 22942
21359 21447
21359 23558
21360 22009
21363 22827
21371 24171
21373 21374
21377 24187
21378 23385
21379 21388
21379 22018
21380 22251
21381 24131
21381 24215
21386 23183
21389 22730
21394 22287
21394 23552
21396 22043
21396 22816
21399 22993
21401 23126
21402 21957
21402 22149
21403 22768
21408 22221
21410 22692
21413 21911
21414 23329
21415 21797
21416 23630
21416 24118
21418 21593
21420 22799
21422 22415
21424 21614
21426 22866
21429 21736
21430 21509
21432 23857
21434 23379
21436 23671
21436 23765
21436 24017
21436 24161
21437 22290
21437 22932
21437 23239
21441 21889
21441 23480
21442 22826
21444 23890
21444 24405
21446 22928
21446 23500
21447 23558
21451 22767
21455 21489
21457 23356
21457 23711
21459 23593
21459 23688
21463 23138
21471 22949
21478 21582
21478 22063
21479 22135
21479 22732
21480 23435
21484 23326
21491 22365
21493 23467
21495 22353
21495 23138
21496 23564
21503 23455
21504 23596
21505 21614
21505 23381
21506 22362
21507 21696
21507 21965
21508 21721
21508 22499
21508 23555
21509 21776
21509 22882
21513 22404
21516 23200
21517 22473
21518 22467
21518 23246
21520 23298
21523 22817
21527 22708
21528 23577
21529 22082
21529 22731
21530 23230
21532 23203
21532 24093
21532 24154
21534 23072
21538 22662
21540 21541
21541 22600
21544 21642
21545 21564
21545 23542
21548 22467
21549 22349
21554 24490
21556 21570
21556 21614
21556 21972
21556 22737
21556 23299
21556 23489
21557 21559
21558 22672
21560 21563
21561 21563
21564 23542
21570 21697
21570 21781
21570 22254
21572 23536
21573 23619
21573 23821
21577 23006
21578 22281
21580 21814
21581 21591
21589 23697
21589 23895
21592 23520
21593 22445
21593 23185
21593 23250
21594 23369
21596 22046
21596 22474
21601 22497
21603 22279
21603 22304
21603 22673
21606 22795
21608 21750
21611 22284
21611 22716
21614 21878
21614 22020
21614 22094
21614 22302
21614 22445
21614 22959
21614 22982
21614 23185
21614 23250
21614 23299
21614 23393
21614 23456
21614 23489
21615 21852
21618 21741
21619 22156
21619 22421
21624 22782
21627 23380
21629 22164
21633 22171
21635 22315
21635 22982
21636 22895
21644 21948
21646 21648
21650 22049
21651 23784
21651 24436
21655 24381
21656 23465
21657 22775
21659 21909
21661 22071
21663 22622
21666 23521
21672 23375
21673 22006
21673 22599
21681 21820
21683 22260
21684 23740
21687 24015
21687 24237
21689 23186
21690 22128
21691 21885
21691 22830
21692 22053
21694 21955
21695 21895
21697 21781
21697 22254
21700 21891
21700 22752
21700 23366
21701 21943
21702 22792
21702 23683
21705 23731
21710 23468
21710 23519
21711 21908
21713 22395
21714 21722
21719 22233
21721 22499
21721 23555
21724 23233
21724 23448
21725 23087
21730 22760
21731 22868
21732 22716
21735 23083
21736 22542
21744 22639
21745 22730
21746 22064
21751 23328
21752 23584
21753 21834
21757 22994
21758 22868
21758 23028
21759 24476
21762 22143
21765 22217
21765 23077
21767 21768
21770 23101
21774 24299
21778 23857
21778 24098
21780 22996
21781 22254
21783 22628
21785 21890
21786 21996
21786 22153
21786 22767
21787 22759
21794 22900
21794 23710
21794 24075
21794 24164
21796 22894
21804 22017
21805 21924
21808 23784
21808 24068
21808 24285
21818 23875
21821 22097
21821 22914
21825 22067
21827 22047
21829 23739
21829 24031
21829 24094
21829 24439
21830 23739
21830 24439
21831 23739
21831 24031
21831 24439
21833 22347
21835 23435
21836 22674
21838 22999
21840 22064
21843 22986
21845 22168
21846 22565
21851 23881
21859 22056
21862 23886
21862 24227
21863 23641
21864 22617
21867 23020
21868 24250
21869 22610
21871 22343
21872 22718
21872 23744
21873 23100
21874 22597
21875 22029
21879 22237
21881 22207
21891 23366
21894 23074
21895 23341
21895 23389
21899 22597
21904 23912
21904 23961
21909 22466
21912 22353
21913 22006
21917 22501
21920 23713
21920 24043
21920 24050
21920 24452
21921 23351
21925 22943
21927 22913
21932 23100
21937 22613
21942 24453
21948 22115
21950 21951
21950 21952
21950 22700
21951 22700
21952 24178
21958 22195
21962 22087
21964 22755
21968 24173
21968 24458
21970 22361
21971 22654
21971 23407
21971 23562
21975 22636
21979 22053
21981 22785
21986 22965
21990 22281
21993 23475
21994 24201
21994 24202
21994 24340
21994 24341
21995 22805
21995 22867
22010 23510
22014 24284
22014 24365
22014 24487
22015 24365
22016 23158
22019 22221
22022 22706
22023 23591
22025 23405
22028 23067
22028 23302
22033 22035
22033 22304
22033 22673
22034 22428
22035 22279
22035 22304
22036 22786
22040 22913
22041 22193
22044 22577
22046 22474
22052 23492
22053 23272
22053 23831
22054 22387
22054 23533
22056 22709
22058 22107
22060 23100
22064 23438
22071 22315
22072 22565
22078 23279
22079 22101
22080 22770
22082 22731
22087 22397
22088 22692
22096 22101
22097 23161
22105 22481
22106 23911
22108 23987
22108 24443
22111 23678
22115 23162
22116 23320
22116 23517
22122 23915
22131 22156
22131 22257
22136 23735
22136 24015
22138 22434
22138 22778
22139 23814
22140 23651
22142 24383
22144 23609
22146 23199
22147 23444
22151 23389
22153 22767
22156 22257
22156 22421
22156 23087
22156 23295
22157 23187
22159 23358
22161 22443
22170 22350
22170 22496
22173 23308
22175 23292
22177 23100
22181 22915
22185 22696
22187 23461
22190 23871
22190 23977
22190 24047
22190 24287
22193 23098
22197 22238
22197 24048
22197 24154
22199 22281
22200 22226
22201 24257
22204 22627
22205 23351
22213 23482
22215 24402
22218 23163
22220 23379
22233 23531
22238 23656
22238 24154
22240 22576
22241 22317
22242 22317
22244 23365
22245 24409
22245 24473
22246 22301
22246 23834
22249 22250
22249 22871
22256 23255
22257 22458
22258 23358
22261 23420
22261 23648
22265 23323
22265 23864
22267 23650
22274 23942
22276 22415
22277 23415
22278 23810
22278 23877
22278 24042
22281 22725
22281 23284
22281 23768
22282 23827
22282 24095
22286 22964
22287 22327
22287 23552
22289 23212
22293 23447
22294 23596
22299 24067
22300 22599
22302 22959
22306 24476
22309 24087
22310 23542
22317 22512
22319 23480
22320 23072
22324 23535
22325 23970
22327 23552
22331 23796
22331 24303
22332 22784
22342 22730
22342 22994
22345 22868
22345 23028
22351 22716
22352 22657
22352 23155
22356 23065
22364 22366
22364 22367
22364 23371
22364 23491
22365 22437
22365 22561
22365 23413
22365 23502
22365 23620
22366 22367
22366 23371
22367 23491
22371 23869
22374 22375
22376 22630
22377 23018
22378 23528
22382 23854
22382 24345
22383 23200
22392 22855
22392 23044
22392 24061
22392 24205
22396 22766
22396 23869
22402 22701
22403 22852
22410 24258
22410 24261
22411 22437
22416 22624
22419 23747
22429 23478
22430 23852
22432 22739
22433 23589
22437 23190
22441 23857
22441 23954
22443 23124
22443 23669
22443 24158
22443 24225
22445 22959
22448 24427
22450 22649
22451 23431
22453 24162
22462 23316
22473 23398
22475 22909
22481 23037
22482 23258
22493 22919
22499 23555
22500 22728
22504 22770
22505 23114
22505 23204
22508 23961
22509 23900
22509 24067
22514 23481
22517 24273
22521 22607
22522 23966
22523 24043
22523 24301
22527 22998
22528 23047
22534 23765
22534 24257
22536 23897
22540 22812
22545 23056
22554 23693
22558 23550
22563 23047
22564 23140
22567 23029
22569 22961
22572 22617
22572 22920
22574 23481
22579 23354
22579 24012
22579 24246
22581 23709
22581 23779
22585 23387
22592 22904
22596 23258
22604 23197
22616 23408
22623 23496
22627 23397
22627 23567
22632 23347
22635 22637
22635 23606
22637 23606
22638 24222
22638 24224
22647 23822
22647 24190
22647 24249
22652 22892
22652 22893
22652 24024
22670 23228
22682 23984
22685 22965
22686 23594
22688 24123
22688 24180
22690 23279
22693 24187
22696 23296
22696 23587
22698 22885
22701 22757
22711 23952
22711 24476
22716 23574
22716 23850
22719 23509
22724 23683
22726 23996
22727 23996
22734 22957
22736 24083
22736 24380
22740 22843
22740 23231
22748 24220
22749 22891
22758 22945
22760 22763
22760 22765
22760 22880
22763 22765
22766 23869
22770 23198
22773 23906
22773 23935
22775 23033
22776 23056
22781 23221
22783 23629
22783 24380
22787 23167
22787 23584
22792 23683
22807 23006
22808 23435
22816 24468
22825 23255
22831 23192
22835 22994
22839 24449
22839 24450
22842 23605
22863 22997
22865 23079
22873 23261
22877 24225
22878 24062
22880 23264
22885 23084
22888 23813
22889 23362
22889 23446
22889 23471
22889 24452
22890 23002
22892 23417
22892 24024
22892 24264
22893 24264
22898 23825
22900 23638
22900 23710
22901 23369
22902 24002
22902 24414
22904 23469
22913 23840
22914 23161
22916 22961
22917 23839
22923 23287
22924 23999
22924 24213
22953 23648
22953 23790
22953 24159
22957 23130
22962 23473
22966 23448
22969 23628
22980 23180
22983 23019
22984 23093
22985 23958
22985 24452
22987 23799
22987 24054
22989 23900
22989 23950
22989 24067
22994 23172
23007 23008
23007 23152
23013 23015
23013 23016
23014 23016
23017 23854
23017 24345
23023 23060
23042 23845
23042 23879
23044 23950
23049 23200
23050 23370
23056 23211
23061 23090
23063 23329
23066 23750
23068 23952
23068 24476
23069 23321
23069 23804
23069 24144
23072 23214
23075 24008
23091 23200
23094 23416
23094 23697
23097 23750
23099 23968
23100 23320
23107 24169
23108 24007
23110 23661
23111 23311
23111 23907
23113 24390
23113 24391
23115 24225
23116 24017
23116 24240
23117 23135
23117 24275
23119 23203
23119 24093
23119 24154
23120 23929
23120 24177
23123 23510
23124 24122
23128 23719
23128 23952
23128 24384
23132 23297
23135 23256
23135 23694
23135 24058
23135 24132
23135 24275
23142 23536
23145 23425
23145 23607
23151 23668
23163 23215
23164 23184
23167 23584
23171 24279
23171 24309
23177 24009
23177 24086
23177 24158
23188 23311
23193 23748
23196 23213
23196 24290
23200 23232
23200 23736
23203 23636
23203 24154
23205 24173
23209 23305
23213 23266
23213 24290
23217 24296
23220 23458
23224 23226
23229 23335
23229 23578
23241 23735
23241 24015
23251 23952
23251 24384
23252 24294
23252 24463
23256 24275
23257 23369
23257 24479
23261 23601
23265 23585
23265 23839
23266 23419
23271 23932
23271 24162
23274 24172
23274 24326
23277 23301
23293 24317
23304 23429
23306 23326
23312 23919
23312 24154
23315 23878
23315 23896
23315 24024
23315 24264
23321 23804
23321 24144
23323 23613
23323 23696
23324 23588
23325 23409
23325 24159
23330 23523
23335 23578
23336 23987
23342 23705
23348 24134
23348 24414
23353 24073
23353 24302
23353 24383
23354 24012
23354 24085
23354 24225
23354 24312
23354 24489
23356 23364
23356 23711
23357 24256
23357 24318
23359 23369
23361 23362
23361 23363
23361 24217
23362 23363
23362 23471
23362 24414
23364 23711
23367 23635
23369 24109
23372 23378
23390 23931
23391 23922
23395 24247
23400 23887
23406 24154
23416 23697
23417 24264
23418 24198
23419 23699
23421 23809
23421 24154
23425 23607
23425 23657
23429 23495
23432 24216
23432 24442
23437 23444
23455 23647
23462 24256
23471 24016
23474 23705
23476 23853
23476 23895
23479 23854
23479 23856
23479 23954
23490 23538
23503 23722
23503 23957
23503 24040
23506 23684
23515 23934
23516 23801
23516 24277
23543 24138
23570 23791
23570 24377
23575 23814
23585 23839
23593 23688
23607 23657
23613 23696
23613 24168
23615 24056
23617 24344
23619 23838
23619 24213
23619 24347
23622 23673
23622 23932
23625 24367
23627 24122
23627 24213
23628 23639
23629 24385
23630 23903
23630 24119
23630 24121
23630 24192
23630 24289
23630 24469
23631 23671
23631 24187
23632 23678
23633 23820
23633 24284
23633 24487
23634 23681
23634 23682
23635 24058
23635 24275
23636 24093
23636 24154
23637 23872
23637 23970
23637 24239
23638 23710
23638 24075
23638 24164
23641 23930
23646 24078
23648 23790
23654 24324
23655 23694
23656 23855
23656 24154
23658 23721
23658 24380
23659 23820
23659 24254
23660 24176
23661 23816
23661 24027
23661 24334
23664 23721
23664 24083
23665 23666
23666 24414
23667 24099
23668 24230
23669 24213
23670 23704
23671 23765
23671 24007
23671 24100
23671 24110
23672 24265
23672 24267
23672 24443
23672 24461
23673 23932
23673 24143
23675 23718
23675 24225
23675 24386
23676 24240
23677 24173
23677 24458
23679 24258
23680 23682
23681 23682
23685 23802
23689 24103
23689 24266
23698 24078
23700 23861
23700 24056
23701 23997
23701 24313
23702 24201
23702 24202
23702 24340
23702 24341
23706 23868
23706 24477
23708 23781
23709 23779
23713 23815
23713 24016
23713 24050
23713 24452
23714 24473
23715 24379
23717 24181
23718 24092
23718 24149
23718 24386
23719 24039
23719 24384
23719 24467
23720 23922
23720 24164
23720 24427
23721 24034
23722 24336
23722 24382
23723 23789
23724 23746
23724 24009
23724 24387
23725 24260
23726 23848
23727 24224
23727 24247
23728 24133
23728 24158
23728 24246
23729 23993
23732 23921
23732 24197
23733 24285
23733 24436
23734 24321
23735 23741
23735 24015
23735 24043
23735 24301
23737 23792
23737 24397
23738 24284
23739 24031
23739 24439
23741 24161
23742 24069
23752 23815
23752 24126
23753 23827
23756 24076
23758 23815
23765 24019
23765 24100
23765 24161
23765 24211
23765 24298
23765 24329
23765 24374
23770 23986
23772 23797
23773 23889
23773 24323
23773 24405
23774 23886
23775 23871
23775 23910
23775 24398
23776 23792
23776 23945
23777 24053
23778 24371
23779 23907
23780 23931
23781 24196
23782 24256
23782 24384
23783 23814
23783 23926
23783 24151
23784 23963
23784 24135
23784 24285
23784 24436
23785 24234
23786 23788
23786 24052
23786 24053
23786 24346
23787 23874
23789 24368
23790 24159
23791 24255
23792 23933
23792 23944
23792 23945
23792 24399
23792 24420
23793 23942
23795 23796
23796 23823
23796 24303
23799 23833
23800 24187
23800 24414
23801 23951
23801 24122
23801 24153
23801 24387
23802 23955
23802 24125
23802 24279
23802 24307
23802 24332
23803 24273
23805 24039
23805 24181
23805 24256
23805 24318
23807 24131
23808 23847
23808 24271
23809 24093
23809 24154
23811 23839
23811 24377
23811 24482
23812 24212
23812 24338
23813 23912
23813 23975
23813 24078
23813 24435
23814 23997
23814 24151
23815 24292
23816 24027
23816 24108
23816 24209
23816 24334
23816 24356
23817 24221
23820 24254
23820 24284
23820 24365
23821 24142
23823 23969
23823 24303
23824 24236
23827 24025
23827 24127
23827 24128
23827 24203
23835 24008
23835 24225
23838 23999
23838 24213
23839 23861
23842 23912
23842 23969
23844 23861
23844 24161
23845 24106
23846 24062
23847 23848
23847 23952
23847 24181
23854 23857
23854 23954
23854 24107
23855 23928
23855 24064
23855 24078
23856 23857
23856 23954
23856 24107
23856 24218
23856 24241
23857 23954
23857 23991
23859 24344
23859 24402
23859 24434
23861 24451
23862 23863
23862 23953
23862 24074
23863 23980
23863 24253
23864 24168
23865 24067
23870 23923
23870 24096
23871 23977
23871 24287
23871 24398
23872 23970
23874 23915
23874 23916
23874 24071
23875 23984
23877 24242
23878 23931
23879 24103
23879 24106
23881 23957
23881 24040
23882 23937
23882 24080
23882 24296
23883 23912
23884 24412
23885 24204
23887 23997
23887 24038
23887 24087
23889 23890
23889 24323
23889 24405
23890 24323
23890 24405
23891 24213
23892 24174
23892 24417
23893 23894
23896 24147
23896 24148
23896 24281
23896 24387
23897 23998
23899 23900
23899 23950
23899 24022
23900 23950
23901 24055
23901 24433
23903 24192
23905 23906
23908 24146
23908 24160
23908 24310
23909 23912
23909 24070
23909 24363
23910 23977
23910 24398
23912 23961
23912 24070
23912 24415
23913 23998
23913 24062
23914 23984
23915 23916
23915 24026
23915 24071
23915 24372
23916 24004
23916 24243
23917 23939
23918 24216
23918 24251
23920 24048
23921 23974
23921 24197
23922 24164
23922 24348
23924 23930
23927 24273
23928 24064
23928 24252
23929 24088
23932 24091
23932 24162
23933 24435
23935 24230
23936 24120
23938 24101
23938 24102
23938 24452
23942 23976
23943 24397
23947 23962
23947 23975
23948 24403
23949 24067
23949 24319
23949 24321
23951 24122
23951 24153
23951 24387
23952 23999
23952 24181
23952 24384
23952 24434
23953 23997
23954 24107
23955 24307
23955 24309
23956 24065
23960 23978
23960 24305
23961 23969
23961 24376
23962 24366
23964 24451
23966 23968
23966 24414
23967 24076
23969 24111
23969 24339
23969 24474
23971 23996
23972 23986
23973 24099
23974 24204
23977 24287
23977 24398
23978 24238
23979 24164
23980 24155
23981 24480
23982 24459
23983 24200
23985 24104
23985 24428
23987 24112
23987 24443
23990 24397
23991 24424
23997 24072
23999 24052
23999 24053
23999 24082
24000 24183
24000 24437
24002 24245
24002 24329
24002 24414
24003 24395
24004 24401
24006 24132
24006 24275
24007 24110
24008 24478
24009 24158
24010 24287
24010 24398
24012 24085
24012 24116
24012 24312
24012 24489
24013 24461
24016 24043
24016 24134
24016 24452
24017 24240
24019 24189
24020 24176
24020 24225
24022 24252
24026 24243
24026 24372
24029 24044
24030 24158
24031 24439
24032 24116
24032 24328
24032 24446
24035 24231
24036 24083
24036 24321
24038 24087
24041 24428
24043 24050
24043 24452
24044 24149
24046 24129
24047 24398
24048 24074
24048 24154
24048 24325
24049 24354
24049 24364
24049 24448
24050 24217
24050 24259
24051 24053
24054 24388
24055 24433
24056 24427
24058 24275
24059 24253
24059 24270
24059 24378
24065 24273
24067 24173
24067 24291
24067 24362
24070 24477
24073 24383
24075 24164
24078 24435
24079 24210
24080 24296
24081 24186
24083 24228
24083 24380
24084 24225
24085 24116
24089 24215
24091 24216
24092 24149
24092 24225
24092 24386
24093 24154
24093 24481
24094 24439
24097 24175
24097 24411
24099 24100
24101 24102
24112 24171
24113 24114
24113 24218
24114 24115
24114 24218
24115 24357
24116 24225
24116 24312
24117 24281
24118 24120
24119 24195
24119 24311
24121 24469
24122 24277
24123 24125
24123 24180
24125 24126
24129 24156
24131 24215
24132 24275
24133 24225
24135 24285
24138 24139
24141 24172
24141 24407
24143 24412
24145 24480
24146 24160
24152 24428
24155 24253
24155 24266
24155 24378
24156 24173
24158 24175
24158 24176
24158 24390
24162 24216
24162 24442
24164 24247
24166 24279
24167 24249
24167 24308
24168 24325
24172 24407
24173 24410
24174 24188
24174 24417
24175 24176
24176 24225
24182 24302
24182 24409
24182 24473
24183 24184
24183 24431
24184 24431
24184 24437
24188 24417
24191 24192
24191 24289
24192 24193
24195 24311
24198 24266
24200 24225
24201 24340
24201 24341
24201 24462
24202 24464
24206 24214
24206 24277
24207 24208
24207 24357
24208 24263
24208 24357
24211 24298
24211 24475
24212 24304
24214 24277
24216 24251
24217 24452
24218 24426
24221 24222
24225 24246
24225 24389
24225 24391
24227 24242
24235 24236
24235 24301
24236 24237
24239 24269
24243 24359
24245 24414
24246 24312
24248 24421
24253 24266
24254 24401
24256 24300
24256 24318
24257 24345
24257 24367
24258 24260
24259 24452
24260 24261
24262 24293
24262 24396
24263 24357
24265 24267
24265 24461
24267 24461
24269 24414
24272 24427
24275 24430
24277 24470
24278 24414
24279 24309
24279 24423
24281 24379
24283 24403
24283 24485
24284 24365
24284 24401
24284 24487
24287 24398
24288 24406
24291 24321
24298 24374
24302 24383
24303 24339
24303 24484
24304 24305
24307 24309
24313 24444
24319 24321
24323 24405
24326 24407
24330 24414
24335 24454
24336 24382
24338 24354
24338 24445
24338 24448
24340 24462
24340 24464
24341 24462
24346 24369
24347 24456
24347 24472
24352 24404
24353 24438
24355 24447
24358 24469
24359 24393
24363 24463
24370 24371
24380 24385
24383 24409
24389 24391
24390 24391
24397 24399
24397 24420
24402 24406
24402 24434
24403 24485
24406 24434
24410 24458
24439 24462
24447 24449
24447 24450
24462 24464
