0 747
1 126
1 580
1 1222
1 2194
1 2204
1 2639
1 4257
1 5735
1 6478
1 7146
2 6
2 562
2 1492
2 4154
2 5179
2 5303
2 7128
3 272
3 1351
3 1728
3 2013
3 2107
3 2900
3 3381
3 4319
3 4433
3 4560
3 5060
3 5823
3 5943
3 6046
3 6095
3 6503
3 6940
3 7089
4 5770
5 5454
6 167
6 342
6 598
6 667
6 870
6 1284
6 1462
6 1492
6 1551
6 1834
6 3079
6 3291
6 4405
6 5856
6 6180
6 6283
6 7128
6 7279
6 7340
7 177
7 428
7 2142
7 2854
7 6243
7 6250
7 6931
7 7589
8 1686
9 246
9 366
9 1795
9 3843
9 4481
9 6053
9 6441
10 5489
11 618
11 1325
11 2412
11 4919
11 5240
12 3807
12 5274
13 110
13 524
13 620
13 866
13 1223
13 1509
13 1794
13 1817
13 1850
13 1937
13 2266
13 2789
13 2835
13 3316
13 3557
13 3559
13 3971
13 4606
13 4770
13 4860
13 4904
13 5355
13 5385
13 5857
13 6152
13 6298
13 6565
13 6712
13 7315
14 2155
14 3086
14 5862
14 6438
15 3029
15 3530
15 5274
15 7580
16 38
16 131
16 550
16 766
16 773
16 1005
16 1016
16 1349
16 1677
16 1799
16 1905
16 1956
16 2530
16 2626
16 2751
16 3103
16 3324
16 3410
16 3699
16 4008
16 4184
16 4968
16 5072
16 5088
16 5725
16 6101
16 6126
16 6446
16 6544
16 6567
16 7296
16 7435
17 951
17 1334
17 1337
17 3165
17 4242
17 6105
17 7237
18 421
18 478
18 2788
18 3163
18 3581
18 3596
18 3820
18 4042
18 4212
18 4319
18 4775
18 5139
18 6136
18 6372
18 6436
18 6816
18 7185
18 7614
19 1501
19 2625
19 2692
19 6703
20 1316
20 2689
20 4151
20 4462
20 5941
20 6463
21 3026
21 5764
22 5127
23 646
23 1854
23 3493
23 7317
24 3643
25 3544
26 5345
27 1558
27 1896
27 3565
27 4066
27 6339
27 6396
28 1658
28 4900
28 7224
29 543
29 907
29 2711
29 2838
29 4626
29 6652
29 7287
29 7579
30 683
30 924
30 2644
30 3499
30 3525
30 5564
30 5854
31 1457
31 3418
31 5274
32 607
32 1020
32 1166
32 1312
32 2195
32 3136
32 3155
32 4187
32 4845
32 5206
32 5676
32 6196
32 6709
33 407
33 765
33 1150
33 1973
33 2420
33 2626
33 2745
33 3103
33 3221
33 3452
33 3740
33 4040
33 4308
33 5617
33 6101
33 7074
34 2944
34 3927
34 4408
34 4717
34 5875
35 2040
35 2045
35 2301
35 4235
35 4246
35 5283
35 6475
35 6747
35 6887
35 7035
36 719
37 3991
38 2637
38 3023
38 3794
38 6288
38 7565
39 1349
40 1678
40 4908
40 5564
41 524
41 3562
41 3591
41 3950
41 5414
42 2647
42 3592
42 4335
43 2893
43 4681
44 3597
44 6507
44 6870
44 7042
45 865
45 3340
45 3527
45 3912
45 3986
45 4527
45 4852
45 5099
45 5896
45 7537
46 2414
46 2442
47 397
47 538
47 1789
47 1792
47 2985
47 3128
47 3833
47 3845
47 4657
47 5314
47 5378
47 6207
47 6408
47 6458
47 6637
47 6876
47 6991
47 7489
48 1761
48 3250
49 2072
49 2510
49 2892
49 3038
49 3360
49 3361
49 3400
49 5510
49 6096
49 6605
49 7224
50 4415
51 7135
52 2510
52 6840
53 1230
53 1390
54 187
54 1005
54 1469
54 2303
54 2368
54 2422
54 2626
54 3300
54 3565
54 3911
54 4147
54 4973
54 5195
54 5600
54 5725
55 494
55 1932
55 5474
56 1457
56 2902
56 3008
56 4128
57 7349
58 1150
58 2551
58 3302
58 3726
58 5108
58 5578
58 6323
58 7411
59 1564
59 2414
59 6004
59 6300
60 4344
60 6504
61 1680
61 2940
62 4792
63 4166
63 4284
63 4616
63 6221
64 4355
64 5162
65 2916
65 6407
66 5605
67 2416
67 2604
67 2670
67 4638
67 4777
67 7555
68 2882
68 3279
68 5600
68 6101
68 6323
68 6718
68 6972
69 6101
70 900
70 1135
70 2707
70 3949
70 4702
70 4925
70 5048
70 7097
71 3994
71 6147
72 5966
73 1005
73 2205
73 3852
73 4091
73 5455
73 6424
73 6544
73 6968
74 3035
75 520
75 541
75 2447
75 4042
75 4217
75 5632
75 6154
75 7079
75 7165
76 1830
77 6752
78 1216
78 1328
78 2194
78 2332
78 3495
78 3520
78 4587
78 4632
79 550
79 718
80 666
80 1230
80 5441
80 6171
81 130
81 1393
81 1555
81 3218
81 4242
81 5033
82 2086
82 2809
83 5857
84 1932
85 1689
85 3444
85 4658
85 4899
85 5753
85 5998
85 6126
86 149
87 6115
88 955
89 6757
90 2498
91 313
91 1345
91 6932
92 974
92 2475
92 4479
93 662
94 5042
94 6564
95 1020
95 2158
95 2347
95 3296
95 3430
95 3602
95 3757
95 5224
95 5277
95 5832
95 5876
95 7352
96 4811
97 3126
97 3833
97 4146
97 4657
97 5892
98 299
98 2077
98 2854
98 3450
98 3900
98 4106
98 4225
98 5625
98 6441
99 1795
100 5361
101 2391
101 2967
101 3698
101 3873
101 5862
101 7010
102 113
102 290
102 1495
102 2648
102 3334
102 3544
102 5433
102 7226
103 211
103 1671
103 1793
103 3715
103 3773
103 6302
103 6838
103 6860
103 7224
104 522
104 771
104 899
104 955
104 1046
104 1296
104 1989
104 2145
104 2768
104 2943
104 3096
104 3486
104 3536
104 3956
104 4235
104 4246
104 4338
104 4671
104 5281
104 5283
104 5587
104 5918
104 6228
104 6884
105 5581
106 212
106 296
106 326
106 1327
106 1691
106 1786
106 3096
106 4906
106 5715
106 5791
106 7045
106 7542
107 2775
107 3450
107 4227
107 6999
108 647
108 2616
108 3192
108 3826
108 6445
108 7574
109 1233
109 3039
109 6272
110 151
110 152
110 252
110 485
110 524
110 813
110 866
110 1149
110 1223
110 1268
110 1447
110 1509
110 1560
110 1639
110 1850
110 1875
110 1876
110 2037
110 2199
110 2265
110 2266
110 2267
110 2308
110 2492
110 2577
110 2615
110 2628
110 2790
110 2826
110 2933
110 2976
110 2982
110 3024
110 3056
110 3377
110 3399
110 3502
110 3763
110 3766
110 3950
110 4180
110 4396
110 4606
110 4624
110 4640
110 4666
110 4716
110 4770
110 4850
110 4875
110 4904
110 4931
110 5174
110 5242
110 5489
110 5612
110 5725
110 5761
110 5857
110 5893
110 5988
110 6001
110 6217
110 6380
110 6410
110 6442
110 6455
110 6546
110 6712
110 6752
110 6810
110 6812
110 6818
110 6958
110 6973
110 7001
110 7059
110 7141
110 7533
110 7536
110 7560
111 1222
111 1621
111 5961
112 232
112 484
112 504
112 574
112 706
112 982
112 1497
112 1534
112 1571
112 2526
112 2897
112 2967
112 2995
112 3058
112 3342
112 3381
112 3450
112 3530
112 3873
112 3876
112 3900
112 4036
112 4163
112 4270
112 4433
112 4502
112 4536
112 5127
112 5216
112 5687
112 5734
112 6648
112 6955
112 7457
112 7488
113 290
113 380
113 398
113 427
113 1325
113 1334
113 1555
113 1838
113 2488
113 2571
113 3240
113 3614
113 3701
113 3961
113 4754
113 4809
113 5402
113 5644
113 5854
113 6108
113 6369
113 6391
113 6621
113 6792
113 7179
113 7226
113 7237
114 2848
114 5817
114 7061
115 5653
116 4511
116 4701
116 6207
117 1412
117 1750
117 3800
118 1464
119 446
119 4000
119 7260
120 2641
120 3086
120 5078
120 5570
120 6888
121 518
121 2337
121 2948
121 4033
121 4941
121 5270
121 6905
122 1853
122 2358
122 2386
122 3173
122 3748
122 4145
122 4426
122 4684
122 4847
122 4945
122 5126
122 6428
122 6486
122 7280
123 1741
123 5864
123 5890
123 6576
123 7580
124 2988
124 4362
124 5194
125 2991
126 700
126 3119
126 5718
126 6562
126 6577
127 5454
128 290
129 1126
130 3165
130 5033
131 166
131 662
131 1349
131 1677
131 1833
131 2451
131 2676
131 3103
131 3852
131 4371
131 4710
131 4994
131 5308
131 5455
131 5457
131 5867
131 5929
131 6446
131 6544
131 6716
132 6339
133 585
133 684
133 724
133 1734
133 1918
133 3891
133 4149
133 4505
133 4705
133 5265
133 5787
133 6395
134 652
135 887
135 894
135 1304
135 1658
135 1988
135 3679
135 5977
136 271
136 499
136 657
136 1381
136 2238
136 2290
136 2373
136 2466
136 2848
136 3251
136 3504
136 4365
136 4563
136 4919
136 5392
136 5944
136 6037
136 6639
136 6857
136 6931
136 7284
137 4785
138 473
138 2133
138 2603
138 3597
138 6870
139 213
139 2645
139 2675
139 3315
139 5449
139 5463
139 6664
139 6800
139 7029
139 7274
140 341
140 435
140 2840
140 3450
140 3530
140 3641
140 4839
140 5543
140 5646
140 6638
140 6738
140 7190
141 212
141 1691
141 2369
141 3446
141 7542
142 2541
142 4100
142 6809
143 3520
144 2555
144 3098
144 3103
144 6511
145 3133
145 5854
146 2759
146 3555
146 6873
147 6767
147 7336
148 4778
148 5578
149 1043
149 1254
149 1558
149 1799
149 1879
149 2300
149 2377
149 2669
149 3223
149 3590
149 5443
149 5578
149 5725
149 6101
149 6200
149 6339
149 7126
150 4847
151 524
151 1850
151 1934
151 5712
151 5893
152 5988
153 4392
153 4543
154 4042
155 2974
155 5624
155 5792
155 6192
156 2548
157 5062
158 346
158 2232
158 6564
159 399
159 1043
159 1902
159 5466
159 5578
159 6200
159 7367
159 7403
160 958
161 289
161 2150
161 2634
161 2792
161 4085
161 4254
161 5128
161 5278
161 5706
161 5746
162 1300
163 4708
164 972
164 2624
164 4880
165 5168
166 1005
166 1143
166 1677
166 2676
166 2811
166 3588
166 3842
166 4901
166 5308
166 5455
166 5457
166 6126
166 6424
166 7024
167 1834
167 2126
167 2470
167 2691
167 3079
167 3346
167 3906
167 4356
167 4933
167 5377
167 5668
167 5889
167 5968
167 6256
167 7534
168 3661
168 3714
168 6446
169 2735
169 3772
169 4031
169 4305
169 6178
169 7583
170 4785
171 1545
171 2754
171 2854
171 6232
171 7035
172 4617
173 4882
174 776
174 933
174 1954
174 5074
174 5277
175 491
175 1773
175 3666
175 5153
175 6061
175 6408
175 6590
175 7118
175 7415
176 4248
177 436
177 1145
177 2366
177 6385
177 6769
177 7329
178 2694
178 3042
178 3400
178 4122
178 4393
178 5220
178 6003
178 7123
178 7224
178 7608
179 1309
179 1462
179 2126
179 6965
180 4257
181 1557
181 3009
181 5831
181 7531
182 6524
183 667
183 1180
183 2747
183 3969
183 4937
183 5968
184 368
184 914
184 1005
184 1150
184 1973
184 3080
184 3103
184 3142
184 3680
184 4329
184 5095
184 5578
184 5725
184 6101
184 6323
184 6586
185 1295
185 3732
185 6108
186 997
186 1221
186 6704
187 723
187 1005
187 1468
187 1677
187 2626
187 2891
187 3259
187 3678
187 3911
187 4116
187 4141
187 4480
187 4968
187 5095
187 5359
187 5463
187 5640
187 5745
187 5758
187 6047
187 6175
187 7122
187 7565
188 3342
188 3450
188 6054
189 4811
190 860
190 5058
190 6085
190 6123
191 2083
191 6891
192 612
192 1549
192 5604
192 6101
193 2475
194 882
194 6372
195 2854
196 1544
197 2532
197 5043
197 6985
197 7373
198 272
199 2854
199 4929
200 7482
201 1010
201 3656
201 7248
202 2070
202 5568
203 2186
203 4538
203 5944
204 2650
204 3439
204 4183
204 5078
204 5454
204 6232
204 6408
205 6800
206 5057
206 6390
207 5884
208 313
208 1959
209 319
209 410
209 1814
209 2238
209 3251
209 3504
209 3597
209 4056
209 4135
209 5703
209 5817
209 5854
209 7237
210 1577
211 1658
211 2318
211 7301
212 296
212 448
212 778
212 927
212 936
212 956
212 1014
212 2145
212 2217
212 2234
212 2289
212 2458
212 2854
212 3446
212 4235
212 4474
212 4671
212 4871
212 4906
212 5293
212 5715
212 5722
212 5791
212 6417
212 6512
212 6696
212 6729
212 7035
212 7045
212 7054
212 7213
212 7417
212 7542
212 7551
213 259
213 550
213 612
213 645
213 719
213 834
213 985
213 1474
213 1677
213 1973
213 2170
213 2229
213 2566
213 2745
213 2781
213 3103
213 3497
213 3815
213 4349
213 4517
213 4630
213 5095
213 5108
213 5192
213 5463
213 5600
213 5725
213 6016
213 6101
213 6586
213 6800
213 7074
214 5762
214 7021
215 4611
216 422
216 840
216 918
216 1963
216 2039
216 2051
216 3026
216 3810
216 4318
216 5508
216 5764
216 6416
216 6811
216 6911
216 7084
217 1401
217 4257
217 4821
217 5547
217 6549
218 4250
218 4696
219 1665
219 2892
219 4393
219 7352
220 3807
221 379
221 463
221 508
221 787
221 976
221 982
221 1409
221 1497
221 1790
221 2426
221 2744
221 2897
221 2967
221 3184
221 3216
221 3381
221 3450
221 3530
221 3573
221 5687
221 5734
221 6506
221 6998
222 376
222 950
222 958
222 3039
222 4387
223 711
223 827
223 1628
223 4895
223 5534
223 6856
224 3597
225 988
225 1055
225 4170
225 6260
226 904
226 1872
226 2217
226 2236
226 2289
226 2794
226 3446
226 4304
226 4324
226 4338
226 5203
226 6515
226 6696
226 6729
226 7232
226 7342
227 2094
227 6613
228 296
228 804
228 879
228 1297
228 1327
228 1407
228 2458
228 3781
228 4214
228 6022
228 6538
228 7338
228 7551
229 2186
229 4538
230 277
230 1460
230 5301
230 6224
231 5807
231 6970
232 237
232 2107
232 2897
232 3342
232 3442
232 3530
232 3876
232 4163
232 5127
232 6955
233 4528
233 5866
233 6036
234 2647
234 4231
235 6816
236 5793
238 1853
238 2358
238 7351
239 3376
239 3663
239 5524
240 3530
240 5487
241 667
241 3344
241 5888
241 7534
242 6044
243 1396
243 2337
243 2706
243 3227
243 5254
243 7009
244 345
244 451
244 552
244 743
244 799
244 1017
244 1381
244 1920
244 1998
244 2042
244 2083
244 2685
244 2798
244 3405
244 3597
244 4759
244 5019
244 5151
244 5596
244 6437
244 6953
245 7135
246 632
246 6441
247 7483
248 4944
249 1495
249 4052
250 806
251 562
251 601
251 679
252 524
252 1937
252 2835
252 3377
252 3557
252 6217
252 6958
252 7001
253 550
253 1469
253 2303
253 4263
253 6164
253 7440
254 1439
254 6179
255 2798
255 4003
255 7237
256 3325
257 876
257 1610
257 2036
257 2938
257 3231
257 3462
257 3822
257 3855
257 4330
257 5610
257 7162
258 1964
259 672
259 2260
259 4470
260 1849
260 3189
260 3530
260 3650
260 4095
260 4275
260 5663
260 6436
260 6673
261 5370
262 7357
263 3481
264 6323
265 3259
266 506
266 648
266 1292
266 1506
266 1956
266 4521
266 5095
266 6176
267 5206
268 376
268 4041
269 438
270 5169
271 286
271 378
271 2238
271 3409
271 3871
271 4900
271 4908
271 5937
271 6514
272 463
272 2680
273 3073
273 3519
274 7191
275 2470
275 3298
276 4811
277 660
277 2910
277 4873
277 5601
278 1211
278 4275
279 659
279 3597
280 347
280 980
280 1008
280 3602
280 5577
280 6027
281 1555
281 3597
282 599
282 5329
282 5643
282 6483
282 6730
283 645
283 1956
283 2804
283 3259
283 3268
283 4680
283 6571
284 1387
284 5788
285 433
285 601
285 1907
285 3311
285 3531
285 3615
285 4154
285 4848
285 5251
285 5814
285 6194
285 6941
285 6970
285 7133
286 1334
286 2980
286 7237
287 458
287 523
287 659
287 2815
287 3210
287 3889
288 1875
289 2143
289 2624
289 3530
289 5128
289 6919
290 367
290 380
290 763
290 924
290 951
290 1129
290 1234
290 1244
290 1260
290 1393
290 1524
290 1678
290 1866
290 1891
290 2014
290 2083
290 2089
290 2445
290 2452
290 2647
290 2666
290 2714
290 2725
290 2734
290 2928
290 2980
290 3047
290 3085
290 3108
290 3165
290 3283
290 3387
290 3544
290 3592
290 3614
290 3869
290 3961
290 4069
290 4086
290 4103
290 4202
290 4797
290 4809
290 4900
290 5564
290 5750
290 5759
290 5853
290 5854
290 5978
290 6108
290 6140
290 6146
290 6391
290 6521
290 6633
290 6649
290 6666
290 6797
290 7075
290 7226
290 7237
290 7284
290 7349
290 7391
290 7484
290 7517
291 823
291 1005
291 1940
291 2162
291 2772
291 2813
291 3139
291 3852
291 4008
291 4800
291 6952
291 7568
292 5274
293 6817
294 2074
295 942
295 4257
295 5793
296 778
296 804
296 879
296 936
296 1014
296 1107
296 1275
296 1278
296 1297
296 1327
296 1786
296 1844
296 1859
296 2145
296 2289
296 2458
296 3781
296 4474
296 4902
296 4906
296 5060
296 5285
296 5791
296 6285
296 7045
297 2844
297 3039
298 3435
299 643
299 666
299 1346
299 1849
299 1897
299 2004
299 2024
299 2065
299 2494
299 3650
299 4007
299 4216
299 4932
299 6063
300 1795
300 2232
301 1226
301 3701
301 4712
302 365
302 1057
302 4364
302 6647
303 4279
303 5516
304 6017
305 6034
305 6829
306 738
306 3368
306 3437
306 3855
306 3992
306 4755
306 4934
306 5610
306 5790
306 7015
306 7046
307 661
307 1792
307 2017
307 3786
307 4146
307 4657
307 6408
307 6480
308 1944
308 4719
308 6115
309 1952
309 4276
310 1529
311 799
311 6912
311 7171
312 760
312 2056
312 3134
312 3845
312 4934
312 5610
313 586
313 1851
313 2096
313 2351
313 2495
313 2500
313 3293
313 4328
313 4609
313 4750
313 5594
313 6145
313 6932
313 7069
313 7555
313 7620
314 1464
314 1799
314 2790
314 2885
314 4023
314 4985
314 7098
315 602
315 4647
315 4705
316 5640
316 7303
316 7327
317 6884
318 1348
318 4943
319 847
319 2239
319 3297
319 6387
320 7284
321 1325
321 3529
321 7281
322 3715
322 5011
322 6470
323 1384
323 3666
323 5517
323 5646
324 1752
324 4585
324 7437
325 2674
325 2711
325 3707
325 7579
326 1327
326 2854
326 3474
326 3928
326 4983
326 6902
326 7542
327 3571
328 2332
328 6097
329 2391
329 2995
329 4211
329 4516
329 4880
330 1404
331 5159
332 725
333 1784
333 6129
334 3544
335 1207
335 1233
335 1316
335 1945
335 2259
335 2456
335 2591
335 2707
335 2912
335 3612
335 4561
335 5218
335 5593
335 6519
335 7535
336 1689
336 7224
337 1935
337 2540
337 2854
338 1618
338 7048
339 3073
340 958
341 2569
341 3530
341 3585
341 3755
341 5632
341 6102
341 7030
342 667
342 1284
342 1492
342 4627
342 5303
343 846
343 907
343 2711
343 2838
343 7287
343 7579
344 2229
344 3350
344 4309
346 3549
346 4260
346 4368
346 5887
346 6564
346 7041
348 3728
348 4436
349 1005
349 1677
349 2164
349 2205
349 3842
349 3852
349 4394
349 5308
349 5455
349 6126
349 6424
350 1932
350 6498
351 2241
352 6410
353 1551
354 2011
355 710
355 6918
356 3039
357 4555
358 756
358 1556
358 2142
358 2635
358 3468
358 3653
358 4567
358 5416
358 6477
358 7465
359 1849
360 406
360 1555
360 2029
360 2083
360 2412
360 2798
360 4919
360 5866
360 6234
361 431
361 861
361 1464
361 3584
361 6206
362 6419
363 4453
363 4785
363 5041
364 2980
364 3659
364 4573
364 5062
364 6649
364 7237
366 1795
366 6970
367 951
367 2014
367 2186
367 2476
367 2767
367 3709
367 4900
367 5369
368 1705
368 1973
368 2170
368 3689
368 6101
368 6192
368 6859
369 1897
369 1939
369 4149
369 5486
369 6362
369 6775
370 1940
370 2162
370 2404
370 2772
370 7100
370 7568
371 1386
371 5414
372 2510
373 5665
373 6722
374 1700
374 1778
374 2820
374 2913
374 3279
374 4326
374 5911
374 7160
374 7602
375 573
375 3634
375 3855
375 4193
375 4738
375 5012
375 5065
375 5610
376 634
376 2629
376 3879
376 4484
377 899
378 406
378 473
378 951
378 1334
378 1348
378 1555
378 1838
378 2238
378 2326
378 2724
378 2725
378 2798
378 2876
378 2878
378 3108
378 3165
378 3240
378 3397
378 3499
378 3504
378 3544
378 3597
378 3701
378 3961
378 4754
378 4809
378 4900
378 5079
378 5090
378 5402
378 5510
378 5530
378 5556
378 5703
378 5769
378 5854
378 6105
378 6108
378 6296
378 6789
378 7237
378 7284
378 7575
379 3530
379 7501
380 847
380 1831
380 2055
380 2094
380 2791
380 2848
380 3251
380 4900
380 5454
380 5694
380 6036
380 6105
380 6223
380 6326
380 6369
380 6841
380 6870
380 6931
380 7226
380 7237
380 7252
381 1706
381 1881
381 1910
381 2944
381 2998
381 3120
381 3469
381 3926
381 4544
381 5491
381 5675
381 6587
381 6757
381 6916
381 7227
381 7334
381 7405
382 6129
382 7098
383 1132
383 3530
383 3751
384 4456
385 433
385 860
385 2621
385 4437
385 4877
385 4879
385 6085
386 1674
387 5643
387 6813
388 7301
389 2998
389 5875
389 5962
390 2259
390 7224
391 2513
391 4785
392 1376
392 3807
393 601
393 1462
393 1834
393 5063
394 1414
394 6162
395 1495
395 1966
396 1600
396 4431
396 6799
397 1792
397 5956
397 6207
398 1316
398 1861
398 2031
398 2725
398 3614
398 4317
398 4901
399 3240
399 5827
400 581
400 3405
400 3597
400 3948
400 4198
400 4754
400 5370
401 6199
402 440
402 6477
403 4006
404 2670
405 3249
406 739
406 912
406 951
406 1026
406 1348
406 1381
406 1555
406 1831
406 2083
406 2571
406 2725
406 3047
406 3108
406 3240
406 3251
406 3397
406 3464
406 3504
406 3544
406 4086
406 4353
406 4360
406 4843
406 5090
406 5717
406 6105
406 6108
406 6750
406 6870
406 7075
406 7202
406 7237
406 7284
407 765
407 2162
407 3710
407 3774
407 4012
407 5895
407 5916
407 7450
408 4785
409 2810
409 3020
409 3581
409 3830
409 4085
409 4257
409 5194
409 5595
409 5835
409 7052
410 739
410 743
410 2238
410 3597
410 6105
410 6639
410 6846
411 686
411 5711
412 2765
413 5909
413 6004
414 424
414 1704
414 5319
414 5984
414 6059
415 2854
415 6390
416 3509
416 3948
416 7521
417 5944
417 6105
418 524
418 1447
418 1956
418 2615
418 2677
418 2835
418 3557
418 4146
418 4850
418 4931
418 5174
418 5642
418 5653
418 7001
418 7141
419 3571
420 1334
420 1582
420 4843
420 6595
420 6891
421 916
421 958
421 1221
421 1887
421 3039
421 3651
421 3807
421 3921
421 5230
421 5543
421 5706
421 5876
421 5894
421 6262
421 7028
421 7607
422 1657
422 4019
422 5755
422 5851
422 6911
422 7076
423 4155
424 2439
424 5984
425 2340
426 1312
426 2129
426 3751
426 3807
426 4123
426 4359
426 4692
426 4930
426 5404
426 6577
426 7595
427 473
427 763
427 851
427 1264
427 1334
427 1348
427 1555
427 1831
427 2029
427 4353
427 4900
427 5079
427 5124
427 5402
427 5831
427 6146
427 6695
427 6792
427 7237
427 7284
429 607
429 876
429 1020
429 1166
429 1569
429 2738
429 3430
429 3757
429 5277
429 5289
429 6661
429 6820
429 6964
430 5962
431 3350
432 3701
432 5988
433 1614
433 2415
433 3237
433 3325
433 4877
433 5164
433 5434
433 5623
433 6085
433 6149
433 6349
433 6624
434 2896
434 6363
435 5543
436 1993
436 4239
436 7129
437 1445
437 6965
438 543
438 907
438 3988
438 5905
438 7149
438 7468
439 1677
439 3356
439 4046
440 519
440 2510
440 3725
440 3736
440 3767
440 3977
440 4098
440 4549
440 4941
440 6881
440 6898
440 7601
441 4298
441 4726
441 7238
442 2967
442 5315
443 1859
443 3642
443 4331
443 7306
444 612
444 2184
444 3932
444 4588
445 1303
445 4257
446 854
446 2892
446 3400
446 4523
447 2126
448 778
448 2217
448 2511
448 7045
449 524
449 4284
450 7021
451 1372
451 1381
451 1891
451 6354
452 1164
452 1338
452 3321
452 3330
453 1057
453 6241
454 630
454 1425
454 2902
454 6259
454 7028
455 2913
456 7078
457 4069
459 7328
460 7066
460 7335
461 1520
461 1792
461 3822
461 3845
461 7182
462 2874
462 5534
462 5539
462 6018
462 6358
464 817
464 1371
464 1376
464 1953
464 2713
464 3319
464 3450
464 3840
464 4799
464 5454
464 5626
464 7395
465 5854
465 6613
465 7272
465 7284
466 2488
467 5600
467 6304
468 1381
468 2412
468 4459
468 4574
468 4883
468 6857
468 6912
469 1170
469 1389
469 2186
469 2361
469 2480
469 3198
469 3580
469 4064
469 4335
469 4910
469 5097
469 5111
469 5222
469 5252
469 5519
469 6037
470 3341
471 538
471 828
471 1536
471 1792
471 2017
471 2985
471 3093
471 3833
471 3845
471 4146
471 4511
471 4636
471 4653
471 4657
471 4720
471 5118
471 6207
471 6408
471 6427
471 7402
472 6888
472 7304
473 1001
473 1264
473 1334
473 1891
473 2476
473 2725
473 2734
473 3161
473 3594
473 3669
473 3701
473 4467
473 4754
473 4883
473 4967
473 5079
473 5312
473 5479
473 5530
473 5556
473 5769
473 6168
473 6193
473 6369
473 7237
474 1228
474 2160
474 2944
474 3738
474 4175
474 4381
474 5132
474 5872
474 6476
474 6757
474 7477
475 1464
476 711
476 5274
477 745
477 1767
477 7597
478 611
478 2088
478 3755
478 6431
479 1921
479 2341
479 5159
480 522
480 4671
480 4823
480 6822
481 5718
482 566
482 1405
482 1691
482 2854
482 4647
482 6441
483 4811
484 504
484 574
484 832
484 2093
484 2155
484 3095
484 3342
484 3530
484 3873
484 3895
484 4163
484 4211
484 4452
484 5127
484 5216
484 5862
484 6022
485 524
486 926
486 4989
486 6809
487 1923
487 2146
487 2298
487 3479
487 4766
487 5000
487 5138
487 5298
487 5529
487 6694
488 503
488 1632
488 2858
488 3264
488 3657
488 3948
488 3968
488 5370
488 5769
488 6140
488 6891
488 7237
488 7511
489 6316
490 1127
490 3701
490 3708
492 2616
492 2672
492 2690
492 3467
492 5218
493 4732
494 1932
494 4232
494 6459
495 2422
496 3110
496 3711
496 4432
496 4817
496 6016
496 6720
496 7080
496 7364
497 2820
498 2225
498 2798
498 3145
498 5854
499 3198
500 1226
500 1891
500 2029
500 2870
500 5866
500 6803
501 3521
501 4146
501 4717
501 6233
502 1559
502 1651
502 1921
502 1941
502 1945
502 2259
502 2349
502 2418
502 2912
502 4238
502 4527
502 4785
502 5335
502 6330
503 1891
503 2798
503 5079
503 5082
503 5688
503 6695
504 2967
504 3342
504 3450
504 3530
504 3873
504 4163
504 4211
504 6648
505 3103
505 5895
506 3181
507 4795
508 1626
508 2157
508 4059
508 4560
508 5127
508 7156
509 2692
510 4257
511 2413
512 3182
512 5700
513 1287
513 3107
513 4183
513 5331
514 1689
514 3463
514 4788
514 6463
515 2004
515 2579
515 4346
515 5261
515 5897
516 4593
517 1372
517 1400
517 2603
517 5040
517 6728
517 7226
517 7237
517 7558
518 2684
518 2902
518 3665
518 6905
519 4098
519 4844
519 5384
519 6460
519 6477
519 7601
520 903
520 933
520 958
520 1203
520 1384
520 3854
520 5638
520 5646
520 6154
520 7030
520 7110
520 7600
521 594
521 1008
521 1020
521 1166
521 1305
521 1960
521 2056
521 2896
521 3940
521 4320
521 5065
521 5324
521 6065
521 7159
521 7162
522 4338
522 4374
522 4671
522 4823
524 614
524 640
524 705
524 813
524 830
524 839
524 866
524 1149
524 1186
524 1223
524 1268
524 1320
524 1360
524 1386
524 1417
524 1447
524 1448
524 1509
524 1560
524 1672
524 1776
524 1794
524 1817
524 1850
524 1933
524 1934
524 1937
524 1958
524 1981
524 2015
524 2085
524 2130
524 2199
524 2265
524 2267
524 2492
524 2499
524 2538
524 2566
524 2614
524 2615
524 2628
524 2642
524 2696
524 2732
524 2835
524 2884
524 2885
524 2933
524 2953
524 2970
524 2982
524 3053
524 3056
524 3061
524 3069
524 3118
524 3213
524 3279
524 3308
524 3316
524 3377
524 3390
524 3399
524 3448
524 3470
524 3502
524 3508
524 3559
524 3647
524 3694
524 3864
524 3950
524 3971
524 4031
524 4146
524 4180
524 4195
524 4197
524 4305
524 4315
524 4389
524 4391
524 4434
524 4537
524 4640
524 4728
524 4749
524 4784
524 4850
524 4893
524 4899
524 4964
524 5047
524 5355
524 5575
524 5731
524 5756
524 5761
524 5795
524 6001
524 6073
524 6092
524 6217
524 6287
524 6290
524 6298
524 6321
524 6423
524 6442
524 6455
524 6565
524 6616
524 6712
524 6810
524 6818
524 6862
524 6866
524 6959
524 6993
524 7001
524 7059
524 7064
524 7082
524 7144
524 7257
524 7315
524 7354
524 7360
524 7452
524 7533
524 7540
524 7560
525 1877
525 4373
525 5817
525 5842
526 3211
527 1119
527 5192
527 5725
528 7100
529 1312
530 4595
530 6908
531 2176
531 2439
532 3042
533 7375
534 1689
534 7224
534 7339
535 540
535 4212
536 3262
536 6234
537 1282
537 3042
537 5839
537 6746
538 1471
538 2017
538 2120
538 2193
538 3210
538 3833
538 4676
538 5892
538 5993
538 6207
538 6408
538 6419
538 6458
538 6770
538 6991
538 7256
538 7294
539 1685
539 3080
539 3726
539 5540
539 5711
539 6101
540 1608
540 2579
540 2926
540 3407
540 3751
540 5454
540 5560
541 1230
541 2425
541 2788
541 6171
541 6415
542 1140
542 3645
543 593
543 810
543 846
543 907
543 1594
543 1633
543 2041
543 2637
543 2711
543 2730
543 2737
543 2838
543 3072
543 3584
543 3988
543 4164
543 4888
543 5115
543 5130
543 5318
543 5335
543 5346
543 5758
543 5873
543 5905
543 6000
543 6204
543 6332
543 6440
543 6640
543 6720
543 7468
543 7579
544 2510
544 4006
545 1423
546 3095
546 4036
547 5466
547 6377
548 1001
549 1054
549 7100
550 645
550 718
550 1349
550 1905
550 1933
550 2122
550 2208
550 2229
550 2396
550 2519
550 2797
550 2843
550 2899
550 3571
550 3898
550 3911
550 4280
550 5533
550 5544
550 5578
550 5640
550 5906
550 6317
550 6339
550 6367
550 6462
550 6479
550 7074
550 7184
550 7186
550 7416
551 1942
552 4754
553 947
553 1039
553 1381
553 7621
554 4785
555 1674
555 2890
556 5020
557 1402
557 2515
557 7569
558 1456
558 3039
558 3225
558 3991
559 3597
559 4900
559 6322
560 627
560 5397
560 6397
561 4875
562 601
562 1391
562 5058
563 1658
563 4112
563 4549
564 6632
565 5988
566 1077
566 1213
566 2345
566 2975
566 3181
566 4916
566 5454
566 6174
566 6449
566 7488
567 2390
567 3701
567 3878
568 2980
569 1618
569 3904
570 5790
570 6408
571 3227
571 4033
571 4089
571 4600
571 7009
571 7132
572 3223
572 5600
573 651
573 3507
573 4576
573 5660
575 5004
575 5303
576 6436
576 7453
577 3903
578 6644
579 7228
582 1190
582 1636
582 1792
582 1884
582 4359
582 4636
582 5921
582 6876
582 7294
583 3181
584 2753
584 3374
584 5263
584 6341
585 3793
585 6451
587 5580
588 3530
589 5564
590 2816
590 3866
590 4348
591 1635
591 1721
591 2414
591 3998
591 7031
591 7552
592 4616
594 980
594 1008
594 1746
594 2414
594 2906
594 3136
594 3385
594 5741
594 6755
595 709
595 5514
596 618
596 6523
597 5223
598 667
598 870
598 1284
598 2091
598 2930
598 3382
598 5968
598 6180
599 647
599 957
599 1300
599 2524
599 3103
599 3238
599 4954
599 5095
599 5643
599 6101
600 1344
600 2160
600 3045
600 3564
600 3584
600 5132
600 5188
600 6379
600 7623
602 1585
602 1795
602 2880
602 3615
602 3844
602 4205
602 4581
602 5219
602 6600
602 7105
602 7439
603 3423
603 3526
603 3643
603 6439
604 6004
605 3039
606 5561
606 5972
607 2549
607 2896
607 5676
607 5829
607 6378
607 6529
607 6969
607 7162
607 7352
608 7482
609 1409
609 3450
609 5274
610 758
611 1783
611 1890
611 1961
611 2589
611 6899
612 1005
612 1292
612 1493
612 2192
612 2487
612 2745
612 3571
612 3620
612 6101
612 6129
612 7225
613 1698
613 2566
613 5609
614 2615
614 4666
615 3418
615 3530
615 3960
615 5646
615 5965
615 6885
615 7462
616 3888
617 1355
617 2703
617 3176
617 5386
617 7004
618 991
618 1946
618 2361
618 6523
619 2155
619 2897
619 5127
619 5687
619 6063
621 647
621 1665
622 3703
622 4719
623 1658
623 2510
623 3038
623 5453
623 7123
624 3410
625 1346
625 3638
625 4780
626 1941
627 4146
628 1376
628 1849
628 3073
628 6581
628 7190
629 1838
630 643
630 1045
630 2830
630 3418
630 3807
630 3887
630 4419
630 5274
630 5707
630 5894
630 6258
630 6309
630 7019
630 7119
630 7228
631 2072
631 6832
632 3615
632 4688
632 5819
633 1945
633 2474
633 2591
633 3544
633 4785
633 5811
634 958
634 2447
634 2910
634 3921
634 7147
634 7502
635 2456
635 2784
635 3478
635 6330
635 7245
635 7588
636 5610
637 1325
638 706
638 3873
639 743
639 1618
640 1699
640 1776
640 1902
640 2308
640 2933
640 3502
640 3678
640 4131
640 4931
640 5848
640 6074
640 6217
640 6818
640 6959
641 918
641 1657
641 2039
641 2182
641 4019
641 4829
641 5755
641 5764
641 6038
642 3895
642 5735
643 989
643 1849
643 3418
643 3650
643 7423
644 2687
644 7320
645 718
645 1005
645 1300
645 1542
645 1677
645 1799
645 1875
645 2127
645 2205
645 2359
645 2516
645 2524
645 2626
645 2911
645 3410
645 3647
645 3842
645 3852
645 3911
645 4008
645 4014
645 4624
645 4698
645 4981
645 4994
645 5308
645 5485
645 5640
645 5725
645 5906
645 6101
645 6126
645 6424
645 6622
645 6839
645 7184
645 7275
646 845
646 1244
646 2412
646 4305
646 7234
647 1147
647 1281
647 1316
647 1665
647 2818
647 3400
647 3715
647 4550
647 4561
647 4928
647 5121
647 5334
647 5768
647 6514
647 7083
647 7117
648 1875
649 1766
649 3181
650 4407
650 5674
650 5866
651 1680
651 2796
651 4738
651 6293
651 7204
651 7212
652 1954
652 4126
652 7352
653 4429
654 3850
654 5292
654 5314
654 5383
654 5881
655 848
655 933
656 5372
658 2782
659 1595
659 1618
659 2344
659 2763
659 6398
660 3271
660 3530
660 4707
660 5646
660 6466
661 1262
661 1792
661 2985
661 3833
661 4657
661 4676
661 4720
662 3103
662 5025
663 5751
664 2798
664 2825
664 7293
665 1025
666 1668
666 4650
667 777
667 1180
667 1907
667 2387
667 2747
667 2800
667 2939
667 3079
667 3582
667 3969
667 4220
667 4428
667 4512
667 4558
667 5814
667 6137
667 6256
667 6341
667 6636
667 6941
667 7133
667 7534
668 1372
668 1512
668 2257
668 6409
669 3073
670 1391
670 4368
670 6564
671 1057
671 1378
671 2886
671 3574
671 4145
671 4711
671 5123
671 5836
671 6471
673 835
673 2069
673 2267
673 3550
674 1171
674 1321
674 1381
674 1706
674 2029
674 3461
674 5669
674 5854
674 6351
674 7237
675 7089
676 4785
677 1229
678 7480
679 4153
679 4428
679 5180
680 6316
681 3240
681 7414
682 1610
682 1919
682 3368
682 3460
682 4054
682 5790
682 6755
683 800
683 1641
683 1846
683 2029
683 2151
683 3948
683 6894
683 7237
683 7414
684 724
684 6395
685 1127
685 1270
685 3701
685 3708
685 5146
685 5564
686 1464
686 2422
686 5725
686 7233
687 1265
687 1715
687 5260
688 1008
688 3231
688 4711
688 4785
688 5876
689 3084
689 4957
690 2854
691 1941
691 3355
691 3959
691 4789
692 3642
692 4121
693 5162
694 1239
694 2229
694 3279
694 3565
694 3636
694 6323
695 7213
696 5885
697 1563
697 7528
698 5274
699 7353
700 3572
700 3827
701 6912
702 1625
702 2473
702 3020
702 4771
703 5352
703 7580
704 2236
704 2969
704 4609
704 4900
704 6394
704 6424
705 1699
705 1794
705 1937
705 3308
705 3336
705 4931
705 6073
705 6298
705 6616
706 1534
706 2013
706 2157
706 3295
706 3755
706 3829
706 3939
706 4880
706 4989
706 5315
706 6505
706 7089
706 7178
707 4919
707 7284
708 1253
708 1341
708 2854
708 2873
708 5040
708 5557
708 5850
708 6293
708 6914
708 7300
709 1875
709 3226
709 3905
709 6567
709 6835
710 1250
710 1316
710 2570
710 3038
710 3935
710 6619
710 7295
711 1261
711 1376
711 3755
711 4864
711 4880
711 5034
711 5534
711 5611
711 6272
711 7538
712 1535
713 2854
713 4039
714 954
715 2326
715 3597
715 3961
715 4584
715 5111
716 3993
717 5110
718 1489
718 1646
718 1797
718 2519
718 2843
718 2899
718 4497
718 4624
718 5396
718 5544
718 5640
718 7435
719 4687
719 5267
720 1262
720 3189
720 4916
720 5110
721 1878
721 2566
721 3103
721 4228
721 4243
721 4786
721 5571
722 5127
723 4572
723 5359
723 5578
723 6074
725 3965
725 4726
725 6673
725 6699
725 6888
726 2203
726 3431
726 5013
726 6746
727 4330
728 2391
728 2995
728 5636
728 5859
728 5943
728 7254
729 1848
729 2058
729 2921
729 4756
729 4993
729 5449
729 5463
729 6273
729 7383
730 2094
730 4820
731 6547
732 3206
732 4312
732 7409
733 1808
733 2854
733 5137
733 5426
733 5984
733 6872
733 6954
734 3855
735 3073
736 1236
736 2276
736 2541
736 2744
736 3086
736 3137
736 3285
736 4960
736 5948
737 1329
737 5290
738 5081
738 6342
738 7489
739 1348
739 3286
739 3597
739 5111
739 7237
739 7282
739 7284
740 5539
741 3165
742 2201
742 5370
743 951
743 1381
743 1555
743 2083
743 2349
743 2725
743 3165
743 4563
743 4574
743 4757
743 4883
743 5402
743 5556
743 5730
743 6105
743 6891
743 7398
744 1318
744 2708
744 2742
744 4941
744 6316
746 1879
746 3223
747 2020
747 3683
747 3855
747 4704
747 5610
747 5892
747 6363
748 766
748 4441
748 5262
749 4611
750 1721
750 1919
750 5277
750 5676
750 6378
751 1524
751 6960
752 3584
753 1774
754 2603
755 2762
755 7501
757 2924
757 3798
757 4978
757 5600
757 5899
758 788
758 1304
758 1701
758 2194
758 5845
758 7090
758 7563
759 816
759 3588
759 4586
759 5466
760 2545
760 3134
760 3855
761 4485
762 4158
763 951
763 1047
763 1555
763 1838
763 2014
763 2029
763 2083
763 2213
763 2326
763 2476
763 2571
763 2763
763 2876
763 2878
763 3165
763 3397
763 3499
763 3613
763 3644
763 3756
763 3961
763 4086
763 4325
763 4681
763 4754
763 4759
763 4809
763 4900
763 5124
763 5402
763 5403
763 5530
763 5769
763 5854
763 5944
763 6205
763 6234
763 6391
763 6405
763 6797
763 6870
763 6891
763 7075
763 7226
763 7237
764 1308
764 4858
764 5849
765 2162
765 3770
765 3774
765 5725
766 930
766 1392
766 1413
766 1506
766 1799
766 1879
766 1905
766 2300
766 2396
766 2504
766 3682
766 3735
766 4146
766 4649
766 4691
766 4927
766 5455
766 5578
766 5938
766 6269
766 6544
766 6622
766 7199
767 3038
768 5205
769 1850
770 1141
771 1046
771 1637
771 1989
771 2145
771 4324
771 5587
771 6228
771 6675
772 1349
774 2492
775 3077
775 3466
775 6289
776 1025
776 2347
776 5801
777 1159
777 2800
777 3092
777 3237
778 1014
778 2217
778 2289
778 2458
778 2511
778 2854
778 4902
778 5285
778 5791
779 2744
779 5127
779 7254
779 7602
780 4070
780 5691
780 6021
780 6194
781 2599
781 3654
782 2414
783 4693
784 3324
785 1276
785 5850
785 5927
785 7335
786 4341
786 5305
787 7317
788 5497
788 5845
789 2510
790 3314
791 1808
792 1622
792 3094
792 3130
792 3836
792 4785
792 5854
793 798
793 1304
793 1658
793 1806
793 2063
793 3042
793 3853
793 6094
793 7123
794 1791
794 3181
794 4203
795 7431
795 7480
796 4414
797 3117
798 1271
798 1658
798 2028
798 2510
798 2892
798 3224
798 3633
798 3768
798 4393
798 4549
798 4614
798 5212
798 5342
799 1381
799 5831
799 5944
801 1555
801 3409
802 1350
803 1391
803 5878
803 6382
805 3338
805 4883
805 5769
805 5904
805 6789
805 7237
805 7398
806 1351
806 2391
806 4036
806 5127
806 5459
806 6046
806 6319
806 6940
806 7587
807 2805
807 3477
808 4444
808 6295
809 1047
809 4303
809 7409
810 1594
810 2711
810 4164
810 7346
811 4019
811 6811
812 7061
813 1029
813 1937
813 2037
813 5355
813 6380
814 1503
815 1376
815 1442
815 3538
816 1875
817 1131
817 1849
817 2874
817 2897
817 3530
817 5274
817 6450
817 7610
818 6577
819 3339
819 5544
820 4935
820 6559
821 3227
821 4033
821 4279
821 4300
821 4555
821 6190
821 7086
822 2892
822 3716
823 3139
824 2510
824 7061
825 6389
826 3300
827 1497
827 2482
827 2609
827 2829
827 3135
827 3530
827 3667
827 5632
827 6955
827 7165
828 1232
828 1789
828 1792
828 2347
828 2985
828 3093
828 3809
828 4511
828 4657
828 5454
828 7242
829 1956
829 2600
829 2996
830 1937
830 4230
830 5438
830 6712
830 7043
831 3080
831 3103
832 3450
832 4095
833 2854
833 6537
835 2069
836 3853
837 1942
837 2001
837 3584
838 1002
838 3240
839 1360
839 3377
839 5023
839 5988
840 1315
840 2039
840 3810
840 4019
840 5106
840 6416
840 6811
841 5319
842 953
842 1785
842 2250
842 2510
842 3360
842 4835
842 5793
842 6906
843 1376
843 2271
843 2640
843 3530
843 3551
843 3867
843 4125
843 5411
843 5994
843 6315
843 6855
844 4461
844 7363
845 1529
845 4763
845 4825
846 907
846 2838
846 3897
846 4104
846 4164
846 7468
846 7579
847 1381
847 2014
847 5854
847 6036
847 7226
847 7237
848 4735
848 4811
848 5701
848 6896
849 4078
849 7024
850 7482
851 1226
851 3975
852 3701
853 5343
854 887
854 1140
854 2349
854 2828
854 3038
854 3121
854 4000
854 4561
854 5526
855 4399
855 6653
856 7532
857 5578
858 2203
858 2204
858 2510
858 2694
858 2761
858 3097
858 3341
858 3400
859 1017
860 1885
860 2062
860 4384
860 5131
860 6106
860 7207
860 7337
862 7078
862 7381
863 4934
863 5105
863 7118
864 2916
864 7471
865 2180
865 3429
865 4783
865 6454
865 6685
865 7129
866 1468
866 1560
866 1902
866 1933
866 2835
866 3508
866 4455
866 4539
866 4931
866 5355
866 5731
866 5857
866 6217
866 6712
866 6818
866 6958
866 7001
866 7383
866 7406
867 1674
867 2670
867 2890
867 3081
867 4021
867 4900
867 5413
867 5703
867 6369
868 3546
868 4310
869 6283
869 7549
870 1284
870 1491
870 1492
870 1643
870 3703
870 4719
871 5175
872 4811
873 3313
873 3584
873 3870
873 6989
874 3905
874 4023
875 2158
876 1166
876 1842
876 3440
876 4087
876 6065
876 7352
877 2341
878 2072
879 905
879 1297
879 1407
879 2854
879 2947
879 3096
879 3781
879 4214
879 4474
879 6538
879 7073
879 7338
879 7551
880 4129
880 7058
881 1677
881 2113
881 4635
881 6796
882 2535
882 4093
882 5735
883 2916
883 3818
884 3530
884 4452
884 5127
884 7488
885 1794
885 1937
885 3390
885 3399
886 2510
886 3269
886 5510
887 1141
887 1658
887 1664
887 1665
887 1793
887 1798
887 1995
887 3400
887 4549
887 5168
887 5526
887 7123
887 7339
887 7437
887 7563
888 1534
888 3764
888 4536
888 5127
888 5274
889 1617
889 3530
889 3807
889 4080
889 4948
889 7228
890 1464
890 6206
891 998
891 2212
891 2465
891 4082
891 4612
891 5178
891 6191
891 7199
891 7410
891 7623
892 3062
893 3528
894 1359
894 1566
894 2892
894 3038
894 3157
894 3269
894 3360
894 3361
894 3420
894 3706
894 3747
894 4000
894 4350
894 4622
894 5526
894 6003
894 6614
894 7224
894 7339
895 2028
895 2510
895 7421
896 1849
897 1300
897 4338
897 4432
897 5276
897 5478
897 6670
897 7100
897 7359
898 1213
898 1903
898 2893
898 5243
898 5268
898 5454
898 5796
898 6441
898 7199
899 2624
899 5020
900 2158
900 2814
900 3400
900 5421
900 6656
900 7421
901 1683
901 3538
902 2420
902 5390
902 5640
903 3718
903 6331
904 936
904 1107
904 1872
904 2145
904 2217
904 2605
904 3446
904 4304
904 4324
904 4338
904 4409
904 6512
904 6515
904 6729
904 7232
905 1395
906 2488
907 1594
907 1633
907 2433
907 2838
907 3196
907 3598
907 3897
907 5115
907 6598
907 6640
907 6652
907 6662
907 7468
907 7579
908 2734
908 5944
909 5854
910 5927
911 6163
911 7032
912 2571
913 2680
914 6129
915 1563
916 1271
916 4364
916 5949
916 6241
917 6194
918 2039
919 3028
919 3450
919 4125
919 4319
919 5410
919 6095
919 7595
920 1005
920 2524
920 3663
920 4162
920 6101
920 6509
921 1059
922 3173
922 4364
923 3085
923 7284
924 1039
924 1698
924 2024
924 2644
924 5703
924 6140
924 6156
925 3000
925 3833
925 4020
925 4720
925 4842
925 5314
925 5892
925 5993
925 7256
926 1132
926 1182
926 3095
926 3829
926 4516
926 5315
928 2629
928 3263
928 3317
928 5706
928 5949
928 6262
929 1681
929 2474
929 5865
929 6519
930 1506
930 2260
930 2368
930 3359
930 3970
930 4174
930 5640
930 6016
930 7173
931 4124
932 2713
932 4298
932 4865
932 4914
932 6987
933 1065
933 1203
933 1384
933 1898
933 3158
933 3530
933 3854
933 4261
933 4762
933 5127
933 5527
933 5632
933 5706
933 5751
933 6154
933 7110
933 7205
934 6639
935 1121
935 5454
935 6408
936 1137
936 1200
936 1844
936 1859
936 1872
936 2605
936 2794
936 3446
936 4214
936 4304
936 4338
936 5203
936 6515
936 6538
937 2348
937 5274
938 2864
938 3470
938 6220
938 6263
939 4785
940 5231
941 4085
942 4212
942 4811
942 5631
943 1107
944 2798
944 4467
944 5402
944 7012
944 7606
945 1133
945 1892
945 2831
945 3855
946 3175
948 4457
949 4433
950 2589
950 3039
950 7028
950 7063
951 1067
951 1348
951 1555
951 1760
951 1779
951 1967
951 2083
951 2201
951 2434
951 2452
951 2476
951 2571
951 2648
951 2725
951 2734
951 2876
951 2878
951 3108
951 3165
951 3244
951 3397
951 3408
951 3498
951 3504
951 3537
951 3560
951 3961
951 4086
951 4242
951 4809
951 4908
951 4980
951 5090
951 5412
951 5556
951 5769
951 6105
951 6108
951 6391
951 6403
951 6555
951 6789
951 6792
951 6891
951 7072
951 7075
951 7187
951 7430
952 3346
952 4348
953 1701
953 2197
953 2204
953 2807
953 4549
954 5266
954 6250
955 1317
955 2040
955 2045
955 2145
955 2472
955 6475
955 6747
955 6884
955 6887
956 6417
956 7054
958 1064
958 1384
958 1783
958 1898
958 2910
958 3060
958 3305
958 3482
958 3921
958 3987
958 4426
958 4753
958 7023
958 7079
958 7607
959 5245
959 6093
959 7496
960 1651
960 1689
960 2591
960 2818
960 4000
960 4785
960 5011
960 5829
960 6519
961 1849
961 4136
961 4298
961 5274
961 5868
961 6118
961 6314
961 6673
961 7400
961 7448
961 7618
962 2691
962 6941
963 4259
964 3873
965 4339
965 6325
966 4301
966 5126
966 5580
967 5578
968 1406
968 1486
968 3507
968 3822
968 3845
968 4995
969 5643
970 1879
970 2021
970 2960
970 3616
970 4460
971 3584
972 2304
972 2515
972 2729
972 2840
972 3450
972 4095
972 4206
972 5663
972 6278
973 1357
973 1680
973 3330
973 7262
974 1226
974 1328
975 2039
976 2658
976 4085
976 6399
977 982
977 1466
977 2755
978 5181
978 6474
979 2983
980 1022
980 1424
980 1721
980 2442
980 3385
980 3998
980 5939
980 6709
981 3530
982 1466
982 1571
982 2755
982 3450
982 3530
982 3873
982 4270
982 5127
982 5496
982 5598
982 5948
982 6245
983 1543
983 2452
983 3165
983 4809
983 5121
983 5222
983 6105
983 6391
983 6618
983 6792
984 1795
984 4178
984 5608
985 1016
985 1300
985 2615
985 3103
985 3130
985 3514
985 3711
985 4410
985 5335
985 5448
985 5604
985 7199
986 7212
987 1684
988 2363
988 3550
988 4356
988 4423
988 7024
988 7415
989 1813
989 1897
989 4384
989 4801
989 5581
989 5592
989 5611
989 5942
989 7199
989 7482
990 2408
990 7129
992 4262
993 7362
994 2160
994 2586
994 3564
994 6476
994 6942
994 7334
994 7604
995 7488
996 4775
996 6562
997 1690
997 1936
997 3073
997 3396
997 5248
997 6946
997 7021
998 1056
998 1677
998 1745
998 2058
998 2101
998 2160
998 2663
998 2998
998 3564
998 3857
998 4175
998 4612
998 4717
998 5178
998 5962
998 6201
998 6233
998 6476
998 7014
998 7047
998 7215
998 7604
998 7623
999 1787
999 3110
999 3898
999 5095
999 5359
1000 4257
1000 6629
1001 1920
1001 2503
1001 2644
1001 3597
1001 4377
1001 4618
1001 5070
1001 5885
1001 7237
1001 7547
1002 2421
1002 7606
1003 2707
1003 4925
1004 3544
1004 7237
1005 1161
1005 1289
1005 1300
1005 1349
1005 1474
1005 1509
1005 1677
1005 1799
1005 1833
1005 1875
1005 1956
1005 2164
1005 2205
1005 2411
1005 2420
1005 2524
1005 2637
1005 2676
1005 2891
1005 3103
1005 3410
1005 3565
1005 3842
1005 3852
1005 3995
1005 4008
1005 4032
1005 4091
1005 4162
1005 4981
1005 4994
1005 5095
1005 5308
1005 5455
1005 5457
1005 5463
1005 5485
1005 5600
1005 5615
1005 5658
1005 5783
1005 5828
1005 5867
1005 6002
1005 6056
1005 6062
1005 6101
1005 6110
1005 6111
1005 6126
1005 6323
1005 6339
1005 6424
1005 6544
1005 6567
1005 6972
1005 6983
1005 6990
1005 7013
1005 7068
1005 7100
1005 7131
1005 7225
1006 1348
1006 1831
1006 2476
1006 3544
1006 5090
1006 5854
1006 6789
1007 1293
1007 4563
1007 7237
1008 1166
1008 1721
1008 3204
1008 3404
1008 3430
1008 3606
1008 4126
1008 5577
1008 6378
1008 6969
1008 7050
1008 7162
1008 7352
1009 1234
1009 1250
1009 1706
1009 2014
1009 2611
1009 3165
1009 4202
1009 7226
1010 1465
1010 2654
1010 3172
1010 4341
1010 7248
1011 1292
1011 1462
1011 2552
1011 3454
1011 4521
1011 7030
1012 1174
1012 1645
1012 1678
1012 3594
1012 4198
1012 5370
1013 4284
1014 5791
1015 1034
1015 1674
1015 2670
1015 2890
1015 3081
1015 4021
1015 6536
1016 2745
1016 3103
1016 4952
1016 5604
1016 6383
1016 7297
1016 7397
1017 1280
1017 1293
1017 1348
1017 2238
1017 2791
1017 3544
1017 3597
1017 5176
1017 5582
1017 5674
1017 5944
1017 6552
1017 6737
1017 6870
1017 6912
1017 6931
1017 6953
1017 7091
1017 7237
1018 4069
1019 1768
1019 3681
1019 7237
1020 1166
1020 1569
1020 3440
1020 3845
1020 5224
1020 6065
1020 6733
1020 7374
1021 3873
1023 5659
1023 6776
1024 4516
1025 1454
1025 2036
1025 2158
1025 2191
1025 2896
1025 3602
1025 3855
1025 5053
1025 5324
1025 7388
1026 2647
1027 1665
1027 1945
1027 3937
1027 5721
1028 1944
1028 6365
1029 1506
1030 5933
1031 3411
1031 3755
1031 4725
1031 5370
1032 7028
1033 7199
1034 4021
1035 1583
1035 6101
1036 6977
1037 4555
1038 5703
1039 1408
1039 1831
1039 2083
1039 2798
1039 3125
1039 3251
1039 3701
1039 5079
1039 5320
1039 6391
1039 6633
1039 7284
1040 2020
1040 3683
1040 3822
1040 3855
1041 1436
1041 2142
1041 2854
1041 3538
1041 5056
1041 5933
1041 6026
1041 7035
1042 1808
1043 1558
1043 2122
1043 2401
1043 3780
1043 4131
1043 5466
1044 6666
1047 4935
1047 7409
1047 7621
1048 7488
1049 1527
1049 1837
1049 3175
1050 1464
1050 1882
1050 3350
1050 3647
1050 3905
1050 4414
1050 5354
1051 2337
1051 2966
1051 3428
1051 4445
1052 4261
1053 2902
1053 6190
1054 1080
1054 1439
1054 1771
1054 1882
1054 1973
1054 4691
1054 7364
1054 7586
1055 1443
1055 1929
1055 2730
1055 4356
1055 4993
1055 5068
1055 6159
1055 6178
1055 6252
1056 2160
1056 2586
1056 2663
1056 2998
1056 4612
1056 5872
1056 7215
1056 7604
1057 1604
1057 2109
1057 2386
1057 2793
1057 3260
1057 3309
1057 3574
1057 3748
1057 4847
1057 5126
1057 5198
1057 5287
1057 5423
1057 5444
1057 5476
1057 5580
1057 5773
1057 6848
1058 2562
1058 4426
1059 2674
1059 2711
1060 2510
1060 3057
1060 3314
1061 6704
1062 4811
1063 4016
1063 7501
1064 5646
1064 6415
1065 1384
1065 3290
1065 3854
1065 4261
1065 5646
1065 6617
1065 6973
1066 2471
1066 3363
1066 7028
1067 4760
1068 1622
1068 1671
1068 2707
1068 3880
1068 4785
1068 7473
1068 7499
1069 1083
1070 3584
1071 5083
1072 4253
1072 5006
1073 1743
1074 1838
1074 2029
1074 2798
1074 3397
1074 4900
1074 5269
1074 5854
1074 6788
1074 7226
1075 1689
1076 4335
1077 1243
1077 2291
1077 3439
1077 4536
1077 4916
1077 5110
1078 5624
1078 5692
1078 7100
1079 2535
1080 5095
1081 1794
1082 2381
1083 4968
1083 4994
1083 7326
1083 7383
1084 1382
1084 2341
1084 4852
1085 2159
1086 5159
1087 5672
1087 6116
1087 7071
1088 3343
1088 5882
1088 7024
1089 3488
1089 3792
1089 4834
1089 5390
1089 7509
1090 3530
1090 4960
1091 6495
1092 2961
1092 3454
1092 7024
1093 5277
1093 6709
1093 7015
1094 1204
1094 3986
1095 1376
1095 3173
1096 6741
1097 2199
1098 1737
1098 3348
1098 4042
1098 4619
1098 6771
1099 5261
1099 5646
1100 2823
1101 1821
1102 2580
1102 3571
1102 3962
1102 7100
1102 7216
1103 2644
1103 3597
1104 4469
1105 3614
1106 2327
1106 2854
1107 1275
1107 1278
1107 1297
1107 1327
1107 1407
1107 1751
1107 1844
1107 2217
1107 2458
1107 2854
1107 2947
1107 3951
1107 4189
1107 5838
1107 6417
1107 6528
1107 6538
1107 6592
1107 7338
1107 7551
1107 7592
1108 1567
1108 2798
1108 5370
1108 6654
1109 4098
1109 6477
1109 7601
1110 1795
1110 4384
1111 1891
1112 6408
1113 3303
1113 3571
1113 7080
1114 3038
1114 3042
1115 4785
1115 5200
1115 6860
1116 6969
1117 2141
1117 2663
1117 3120
1117 5178
1117 5962
1117 6167
1118 1225
1118 2337
1118 4929
1118 7163
1119 1956
1119 2961
1119 3103
1119 3389
1119 4147
1119 5578
1119 7416
1120 3022
1121 4828
1121 5467
1122 5593
1123 6608
1123 6817
1124 4811
1125 2707
1126 3185
1126 5120
1126 6165
1126 6991
1127 3701
1127 3708
1127 3878
1127 5146
1128 3796
1128 3895
1128 4385
1128 6022
1128 6245
1128 7251
1129 2452
1129 2565
1129 2734
1129 3165
1129 3240
1129 3597
1129 5651
1129 6318
1129 6521
1129 6792
1130 1891
1130 4442
1130 4508
1130 5370
1130 6558
1131 2744
1131 2995
1131 6888
1132 2033
1132 2108
1132 3696
1132 3807
1132 3820
1132 4319
1132 4433
1132 5735
1132 5931
1132 6125
1133 1758
1133 5236
1133 5610
1133 6282
1133 6637
1134 1963
1134 6416
1135 3472
1135 3949
1135 4702
1135 4925
1135 5048
1136 3831
1136 5454
1136 7039
1137 1200
1137 1297
1137 1327
1137 1786
1137 2145
1137 2217
1137 2289
1137 2511
1137 2854
1137 2947
1137 3181
1137 3474
1137 5838
1137 7045
1137 7172
1137 7338
1137 7551
1138 1956
1139 6690
1140 2892
1140 6678
1141 2892
1141 3391
1141 3853
1141 7437
1141 7503
1142 1351
1144 4093
1146 1570
1146 1812
1146 3419
1146 3434
1146 3450
1146 7030
1147 1665
1147 2286
1147 2616
1148 5595
1148 7378
1149 1447
1149 1509
1149 1560
1149 1677
1149 1817
1149 1937
1149 2668
1149 3336
1149 4230
1149 4666
1149 4904
1149 4931
1149 5857
1149 6616
1149 6712
1149 7533
1150 1506
1150 1731
1150 1986
1150 2170
1150 2281
1150 2451
1150 2693
1150 2698
1150 3080
1150 3103
1150 3268
1150 3636
1150 5095
1150 5207
1150 5505
1150 5725
1150 6016
1150 6446
1150 6567
1150 7173
1150 7225
1150 7235
1150 7416
1151 5857
1152 1158
1152 4285
1152 6859
1153 4873
1154 2835
1154 4539
1154 4904
1154 6958
1155 4030
1155 7226
1156 3950
1156 5612
1157 5128
1158 2834
1158 3711
1158 4012
1158 4040
1158 4634
1158 4846
1158 6710
1158 6859
1159 1180
1159 2691
1159 6404
1160 5578
1161 6126
1161 6323
1162 3450
1163 4053
1163 4975
1164 1521
1164 2111
1164 3321
1164 3330
1164 5516
1165 1230
1165 2473
1165 3141
1165 5026
1166 1610
1166 1842
1166 2938
1166 3231
1166 4330
1166 5065
1166 6065
1166 6574
1166 6661
1166 6858
1166 6964
1167 4632
1168 1221
1168 3073
1168 4081
1168 4811
1169 5127
1170 2186
1170 5097
1170 5222
1171 4486
1172 2958
1173 2998
1173 6476
1174 1524
1174 2014
1174 3544
1174 4069
1174 5866
1175 3873
1175 7587
1176 5602
1176 7100
1177 2809
1178 3130
1178 5489
1178 7199
1179 2289
1179 7592
1180 1795
1180 3237
1180 3403
1180 4154
1180 4428
1180 4705
1180 5055
1180 5825
1180 5968
1180 6180
1180 6611
1180 6795
1180 7365
1180 7534
1180 7546
1181 1271
1183 3210
1183 3530
1183 4298
1183 5274
1184 1893
1185 4329
1185 5658
1185 6672
1185 7331
1186 5988
1187 1704
1187 4009
1187 6350
1188 5897
1189 1804
1189 2080
1189 3103
1189 6672
1190 4359
1190 4583
1190 4842
1191 4121
1192 2901
1192 3027
1193 2384
1193 2514
1193 2557
1193 3284
1193 5538
1194 1794
1195 2095
1196 2337
1197 2510
1198 4147
1198 5192
1198 6776
1199 1406
1199 7488
1200 1297
1200 6022
1201 6025
1201 6685
1201 6759
1202 3617
1202 4406
1202 5450
1202 7328
1203 1384
1203 2088
1203 4868
1203 5632
1203 5751
1203 7110
1203 7607
1205 1213
1205 1462
1205 3906
1206 4204
1207 1559
1207 1665
1207 1945
1207 4456
1207 4561
1207 4785
1207 5111
1207 5593
1207 5650
1207 6013
1207 6023
1207 7226
1208 3130
1208 4303
1209 1610
1209 6593
1210 5461
1210 6805
1210 7011
1211 5883
1212 2168
1212 3450
1214 7226
1215 2422
1216 1328
1216 2194
1216 2993
1216 3862
1216 4632
1216 6925
1217 3589
1218 3530
1219 1833
1219 2096
1219 3565
1219 3643
1219 3804
1219 4994
1219 6718
1219 7598
1220 6551
1220 7135
1221 2937
1221 4938
1221 7021
1222 1621
1222 1870
1222 2001
1222 2475
1222 2498
1222 4364
1222 4730
1222 4863
1222 4922
1222 5158
1222 6241
1222 6668
1222 7351
1223 1509
1223 1817
1223 2614
1223 2615
1223 2642
1223 2790
1223 2835
1223 2982
1223 3316
1223 3377
1223 4434
1223 5756
1223 5988
1223 6546
1223 6993
1223 7141
1224 2289
1224 4399
1224 4621
1225 2854
1225 4929
1225 7163
1226 2798
1226 4507
1226 6376
1227 5578
1228 1735
1228 3564
1228 4381
1228 5178
1228 5872
1228 6476
1228 6757
1228 7334
1229 2783
1229 6714
1229 7255
1230 1442
1230 1508
1230 2122
1230 3589
1230 4261
1230 4968
1230 5527
1230 5894
1230 6154
1230 6171
1230 7573
1231 3798
1231 6802
1231 7565
1232 2168
1232 2985
1232 3632
1232 6207
1232 6852
1232 6876
1233 1500
1233 2591
1233 3515
1233 3612
1233 4309
1233 4697
1233 5388
1233 5710
1233 6519
1233 7224
1234 2024
1234 3597
1234 4335
1234 6666
1234 6891
1235 1689
1236 1534
1236 2144
1236 2276
1236 3086
1236 3530
1236 5078
1237 4139
1237 6495
1237 6696
1238 4258
1238 4914
1238 6272
1239 1996
1239 5725
1240 1522
1240 3732
1240 4444
1241 6338
1242 6186
1245 2142
1246 1409
1246 2143
1246 3873
1246 4870
1247 2887
1248 5895
1248 7450
1249 1834
1249 1897
1249 4937
1249 6907
1250 1459
1250 1546
1250 2812
1250 3084
1250 3148
1250 3713
1250 3729
1250 3772
1250 3906
1250 3925
1250 4175
1250 4839
1250 4846
1250 5245
1250 6708
1250 6878
1250 7199
1251 5580
1251 6338
1252 2645
1253 2854
1253 3873
1253 7300
1254 1677
1254 2782
1254 3259
1254 6446
1255 1479
1255 1610
1255 2206
1255 5277
1256 4536
1257 7549
1258 2180
1258 2591
1258 2707
1258 4880
1258 5724
1259 3750
1259 4136
1260 1678
1260 1971
1260 2644
1260 7541
1262 1471
1262 3786
1262 4146
1262 5454
1262 5543
1262 5993
1262 6480
1262 7256
1263 1310
1263 1368
1263 3965
1264 2029
1264 2724
1264 4353
1264 4444
1264 6234
1264 6507
1264 7237
1265 1710
1265 1795
1265 2112
1265 2123
1265 5150
1265 5260
1265 6284
1266 4356
1267 1857
1267 3933
1267 6603
1268 1639
1268 1937
1269 3084
1270 6124
1271 1281
1271 1316
1271 1642
1271 1665
1271 2028
1271 2313
1271 2510
1271 2600
1271 2707
1271 2892
1271 3038
1271 3228
1271 3360
1271 3826
1271 3853
1271 4000
1271 4309
1271 4561
1271 4785
1271 4961
1271 5015
1271 5579
1271 7090
1271 7224
1271 7498
1271 7563
1272 3518
1272 5854
1273 4335
1274 1334
1274 6618
1275 1751
1275 1756
1275 2234
1275 2854
1275 3304
1275 3951
1275 5020
1275 5285
1275 5454
1275 7592
1277 1401
1277 4261
1278 5060
1279 2160
1279 2586
1280 1381
1280 2685
1280 2854
1280 3568
1280 4610
1280 5769
1280 5944
1280 6077
1280 6870
1280 6912
1280 6931
1280 7091
1280 7206
1280 7252
1280 7460
1281 1665
1281 2097
1281 2204
1281 3341
1281 3360
1281 3400
1281 3898
1281 4393
1281 4549
1281 4554
1281 4561
1281 6003
1281 6419
1281 7608
1282 1616
1282 4386
1283 7482
1284 1492
1284 1986
1284 3575
1284 5303
1284 7128
1285 2108
1285 2391
1285 4536
1285 5202
1285 6112
1285 7488
1286 4988
1287 2805
1287 4183
1287 4284
1287 6602
1288 6167
1289 1852
1289 6110
1290 6734
1291 1792
1291 2017
1291 3833
1291 4657
1291 5029
1291 5314
1292 2601
1292 3034
1292 3647
1292 5618
1292 6734
1292 7428
1293 1381
1293 2452
1293 2476
1293 2571
1293 3251
1293 3597
1293 4563
1293 4900
1293 5033
1293 5944
1293 7237
1294 6941
1296 1533
1296 2430
1296 4671
1296 6009
1296 6884
1297 1327
1297 1407
1297 2289
1297 6528
1298 5936
1299 3905
1300 1467
1300 1738
1300 2516
1300 2524
1300 2745
1300 2781
1300 2962
1300 3103
1300 3504
1300 3817
1300 4952
1300 4969
1300 5095
1300 5344
1300 5448
1300 5578
1300 5725
1300 6101
1300 6446
1300 7074
1300 7359
1301 5643
1302 7100
1303 2872
1304 1658
1304 1725
1304 1806
1304 2194
1304 2204
1304 4955
1304 4961
1304 5212
1304 7123
1305 1721
1305 2414
1305 2424
1305 2896
1305 3158
1305 3247
1305 3855
1305 4704
1305 5820
1305 6709
1305 6845
1305 6964
1305 7162
1305 7352
1306 3130
1306 3431
1306 5210
1306 5454
1307 2505
1307 3792
1310 1497
1310 2391
1310 2515
1310 3381
1310 3450
1310 4163
1310 4452
1310 4678
1310 6699
1311 3071
1312 1329
1312 1530
1312 1744
1312 1818
1312 2224
1312 2376
1312 2497
1312 2498
1312 2557
1312 2578
1312 3572
1312 3737
1312 3889
1312 4375
1312 4602
1312 4788
1312 5045
1312 5127
1312 5225
1312 5274
1312 5507
1312 5581
1312 5698
1312 6309
1312 6572
1312 6576
1312 7175
1313 5643
1314 3872
1314 5079
1314 5370
1315 2051
1315 3810
1315 6626
1316 1373
1316 1665
1316 1995
1316 2570
1316 2892
1316 2901
1316 2912
1316 3341
1316 3360
1316 3614
1316 3653
1316 3826
1316 4000
1316 4034
1316 4561
1316 4747
1316 4763
1316 4990
1316 5168
1316 5218
1316 5324
1316 5334
1316 5526
1316 6519
1316 6756
1316 6787
1316 6851
1316 7268
1317 2234
1317 2289
1317 3956
1317 4235
1317 6747
1319 1642
1319 2707
1319 3495
1319 4632
1320 2790
1320 4606
1320 4860
1320 4904
1320 5857
1320 5988
1320 7141
1321 1381
1321 2390
1321 3461
1321 5915
1322 2028
1323 7320
1324 2868
1325 1575
1325 1838
1325 3529
1325 4748
1325 6051
1325 7259
1325 7270
1325 7442
1326 1919
1326 2158
1326 4208
1326 4243
1327 2458
1327 3781
1327 3928
1327 4983
1327 6528
1327 7551
1328 1523
1328 2194
1328 3097
1328 3520
1328 3779
1328 3949
1328 4663
1328 4925
1328 5065
1329 3889
1329 4811
1329 6463
1330 3070
1331 1675
1332 2132
1332 6165
1333 1897
1334 1567
1334 1838
1334 2029
1334 2031
1334 2083
1334 2186
1334 2238
1334 2571
1334 2734
1334 2798
1334 2878
1334 3165
1334 3397
1334 3408
1334 3544
1334 3597
1334 3644
1334 3961
1334 4086
1334 4461
1334 4883
1334 4901
1334 5090
1334 5121
1334 5124
1334 5363
1334 5388
1334 5402
1334 5530
1334 5769
1334 6105
1334 6391
1334 6695
1334 6789
1334 7075
1334 7226
1334 7237
1334 7284
1334 7352
1334 7398
1334 7547
1334 7548
1335 4621
1335 4671
1336 4611
1337 2434
1337 4809
1337 6105
1337 7237
1338 1521
1338 2216
1338 2992
1338 3321
1338 3330
1338 5516
1339 2854
1339 3627
1340 2008
1340 2510
1340 3224
1340 3269
1340 5670
1341 1616
1341 2854
1341 7061
1342 7482
1343 3918
1344 3120
1344 3564
1345 2495
1345 4580
1345 4609
1345 6932
1346 2065
1346 3039
1346 4136
1346 7495
1347 3239
1347 4040
1348 1381
1348 1543
1348 2238
1348 2854
1348 3219
1348 3240
1348 3251
1348 3397
1348 3504
1348 3544
1348 3882
1348 3961
1348 4712
1348 4846
1348 4900
1348 5392
1348 5954
1348 6105
1348 6232
1348 6234
1348 6403
1348 6644
1348 7075
1348 7237
1349 1506
1349 1799
1349 1905
1349 2205
1349 2626
1349 2676
1349 2719
1349 2899
1349 2911
1349 3414
1349 3813
1349 3842
1349 3858
1349 4141
1349 4492
1349 4624
1349 4981
1349 5440
1349 5455
1349 5457
1349 5466
1349 5578
1349 5615
1349 5725
1349 6101
1349 6199
1349 6200
1349 6424
1349 6446
1349 6544
1349 6622
1349 6734
1349 6813
1349 6823
1349 7244
1349 7416
1349 7435
1349 7476
1350 1384
1350 2143
1350 3292
1350 3596
1350 4614
1350 5646
1350 6646
1351 4433
1351 5127
1351 5687
1352 3073
1352 6478
1353 1388
1353 3184
1354 3715
1354 3986
1354 4785
1354 6429
1355 2244
1355 4564
1355 5191
1355 5386
1355 5771
1355 6256
1355 6447
1355 7101
1356 1444
1357 3959
1358 3733
1359 3327
1361 2719
1361 5396
1362 1795
1362 7312
1363 5817
1364 5671
1364 6259
1365 3584
1366 7500
1367 2556
1367 6707
1367 7226
1369 1376
1370 4008
1370 4969
1370 6446
1372 1713
1372 1838
1372 3171
1372 3183
1372 3544
1372 4219
1372 6950
1372 6953
1373 1689
1374 3174
1374 5753
1375 4785
1376 1577
1376 1849
1376 2004
1376 2006
1376 2140
1376 2557
1376 2954
1376 3073
1376 3418
1376 3450
1376 3652
1376 3686
1376 3737
1376 4007
1376 4011
1376 4158
1376 4319
1376 4338
1376 4811
1376 4866
1376 5534
1376 5581
1376 5926
1376 6029
1376 6080
1376 6135
1376 6136
1376 6281
1376 6390
1376 6431
1376 6463
1376 6676
1376 6724
1376 7238
1377 5612
1379 4069
1379 6666
1380 1587
1380 3643
1380 5708
1380 5714
1380 6461
1380 7598
1381 1920
1381 1998
1381 2083
1381 2213
1381 2685
1381 2791
1381 2848
1381 2870
1381 2878
1381 3108
1381 3251
1381 3597
1381 3701
1381 3961
1381 4086
1381 4144
1381 4479
1381 4563
1381 4578
1381 4754
1381 4883
1381 4919
1381 5090
1381 5403
1381 5556
1381 5568
1381 5694
1381 5769
1381 6141
1381 6857
1381 6912
1381 6931
1381 6953
1381 6988
1381 7284
1381 7460
1381 7532
1381 7548
1382 1519
1382 3159
1383 1420
1383 2897
1383 3530
1383 3818
1384 1538
1384 1898
1384 2547
1384 2705
1384 2819
1384 2914
1384 2988
1384 3348
1384 3411
1384 3426
1384 3530
1384 3666
1384 3854
1384 3880
1384 4466
1384 4514
1384 4673
1384 4762
1384 5128
1384 5278
1384 5435
1384 5517
1384 5632
1384 5638
1384 5646
1384 5706
1384 5751
1384 5894
1384 6125
1384 6415
1384 6421
1384 6431
1384 6547
1384 6617
1384 6722
1384 6889
1384 7205
1384 7600
1385 4063
1385 5012
1386 4439
1386 5414
1388 3184
1388 3900
1388 4385
1388 4452
1388 6527
1389 3198
1389 5222
1389 5252
1389 5854
1390 3879
1391 2049
1391 3109
1391 4028
1391 4149
1391 5878
1391 6382
1393 2958
1393 3165
1393 3544
1393 6108
1393 6142
1393 6792
1394 1584
1394 1879
1394 3970
1394 4491
1394 5561
1396 2228
1396 5338
1396 5671
1396 6190
1396 6235
1396 6259
1396 7009
1396 7081
1397 2239
1397 3170
1397 6561
1398 6241
1399 1944
1399 4719
1400 3171
1401 2844
1401 3059
1401 3149
1401 3670
1401 6628
1401 7582
1401 7614
1402 1546
1402 3342
1402 3381
1402 5274
1402 5663
1403 3578
1403 4734
1404 2988
1404 4735
1404 4811
1405 2854
1405 6022
1406 2854
1406 4941
1406 7459
1407 2458
1407 2854
1407 6528
1407 6538
1408 6048
1408 7572
1409 2609
1409 3873
1409 4870
1409 5454
1410 2854
1410 3267
1410 4420
1410 6745
1411 1946
1413 2229
1413 3324
1413 5468
1413 5658
1413 6016
1413 6323
1413 6339
1414 3186
1414 7365
1415 3450
1415 6195
1415 7610
1416 2912
1416 4542
1417 6217
1418 2661
1418 2854
1419 4597
1420 2897
1421 1626
1421 2391
1421 2995
1421 5549
1422 7178
1423 3153
1423 6459
1424 2738
1424 3424
1424 5676
1424 6709
1424 7162
1425 2384
1425 2966
1425 3517
1425 3846
1426 3324
1426 3373
1426 6957
1427 1657
1427 3345
1427 5764
1428 2498
1429 4683
1429 6408
1430 1718
1430 3080
1431 5676
1432 4197
1432 5723
1433 7063
1434 2186
1434 2254
1434 3307
1434 3504
1434 3544
1434 5392
1434 5559
1434 6398
1435 2523
1436 1618
1436 2854
1437 2617
1437 4110
1438 5127
1439 1498
1439 3238
1439 4591
1439 4649
1439 4691
1439 7553
1440 2420
1441 3038
1442 3538
1442 3596
1444 1658
1444 1725
1444 2194
1444 2197
1444 5212
1444 5328
1444 5985
1444 7123
1444 7339
1445 7199
1446 2670
1446 5677
1446 6369
1447 1509
1447 1850
1447 1937
1447 2577
1447 2835
1447 4432
1447 4904
1447 5575
1447 5988
1447 6958
1447 7001
1448 2267
1448 3056
1449 7100
1450 2272
1450 2707
1450 3949
1450 4785
1450 5099
1450 7301
1451 4785
1452 2850
1452 5578
1453 2368
1453 4078
1454 2191
1455 2510
1455 2761
1455 5670
1455 6794
1455 7498
1456 3900
1457 3008
1457 3418
1457 4876
1457 5226
1457 7030
1457 7214
1458 1835
1459 3920
1461 3909
1462 1769
1462 1834
1462 2020
1462 2800
1462 3382
1462 5498
1462 5814
1462 6137
1462 6347
1462 6502
1463 1528
1464 1498
1464 1882
1464 2444
1464 2455
1464 2769
1464 3137
1464 3339
1464 3350
1464 3905
1464 3932
1464 4022
1464 4023
1464 4201
1464 4414
1464 4649
1464 4691
1464 4803
1464 4907
1464 5109
1464 5135
1464 5242
1464 5667
1464 5951
1464 6179
1464 6524
1464 6703
1464 6765
1464 7098
1464 7233
1464 7605
1465 7248
1467 1554
1467 2229
1467 2440
1467 2516
1467 2843
1467 3898
1467 6908
1468 1933
1468 3678
1468 5047
1468 5731
1468 6047
1468 6074
1468 7476
1469 2303
1469 7100
1470 2502
1470 5465
1470 6194
1471 2972
1471 3128
1471 3833
1471 4146
1471 4720
1471 5314
1471 5430
1471 6134
1471 6202
1471 6231
1471 6419
1471 6427
1471 6852
1471 6967
1472 3462
1473 4705
1474 2170
1474 2229
1474 3497
1474 3565
1474 4228
1474 4272
1474 6002
1474 7553
1475 5543
1476 2029
1476 5679
1477 2974
1477 7427
1478 6949
1479 3961
1480 1776
1481 1830
1481 2354
1481 5095
1481 6567
1482 2207
1483 7162
1484 4940
1484 6254
1485 7300
1485 7447
1486 1610
1486 1792
1486 2424
1486 5277
1486 5446
1486 5909
1486 6251
1486 6337
1486 7015
1486 7162
1487 1856
1488 4156
1488 4172
1488 4196
1488 4282
1488 5818
1488 6533
1488 6796
1488 7137
1488 7260
1488 7358
1490 4452
1491 1643
1491 5488
1492 5303
1492 7128
1494 1830
1494 1942
1495 1966
1495 4682
1495 5319
1495 7527
1496 1622
1496 2060
1496 2237
1496 2707
1496 2941
1496 3853
1496 4527
1496 4607
1496 6519
1496 6860
1497 3181
1497 3342
1497 3450
1497 3530
1497 3895
1497 4163
1497 5411
1497 5454
1497 6648
1497 6955
1497 7030
1497 7488
1498 1882
1498 3301
1498 4691
1498 5936
1499 3450
1499 5085
1500 4785
1501 2625
1501 7476
1502 2977
1502 5797
1503 3236
1503 6345
1503 6481
1504 4811
1504 6551
1505 2994
1506 2019
1506 2637
1506 3223
1506 3722
1506 4329
1506 4907
1506 5072
1506 5396
1506 5602
1506 6339
1506 6882
1507 4645
1507 5089
1507 5764
1508 3062
1508 3141
1508 3589
1508 6171
1509 1627
1509 1639
1509 1677
1509 1937
1509 2015
1509 2199
1509 2615
1509 2835
1509 3336
1509 3694
1509 4259
1509 4556
1509 4666
1509 4716
1509 4860
1509 4931
1509 5047
1509 5355
1509 5391
1509 5643
1509 5857
1509 5988
1509 6616
1509 6818
1509 6882
1509 6958
1509 7106
1509 7382
1509 7476
1509 7533
1509 7536
1510 2377
1510 3137
1510 4396
1510 5095
1511 5703
1511 6296
1511 7284
1512 6391
1513 4338
1514 4444
1515 4810
1516 1615
1516 3085
1517 5817
1518 5884
1519 1599
1519 3130
1519 3837
1519 5099
1519 5159
1519 5200
1519 5313
1520 1792
1520 3845
1520 5029
1520 6408
1521 2216
1521 3321
1521 3330
1521 3552
1521 5516
1522 3518
1522 4444
1522 5817
1522 6295
1524 2673
1524 2685
1524 3251
1524 3518
1525 4692
1526 2754
1526 5319
1527 4470
1527 5793
1528 3039
1528 5189
1529 3746
1530 6407
1531 2887
1531 3038
1531 3645
1531 3679
1531 4523
1531 5170
1532 5387
1532 7075
1532 7490
1533 2040
1533 3837
1533 3956
1533 4374
1533 5781
1533 5918
1533 6212
1533 6887
1534 2276
1534 2679
1534 4876
1534 5943
1535 1734
1535 3325
1535 3569
1536 1624
1536 1636
1536 1792
1536 3006
1536 6070
1536 6207
1536 7162
1537 3852
1538 1887
1538 3854
1538 5128
1538 5638
1538 5646
1539 6209
1539 6256
1540 4373
1541 7237
1542 6839
1543 1802
1543 4900
1543 6105
1543 7130
1543 7606
1544 3662
1544 6364
1544 6748
1544 6837
1544 6873
1544 7129
1546 2515
1546 3381
1546 3450
1546 4275
1546 4298
1546 4726
1546 5663
1546 7587
1547 5090
1547 5817
1547 5854
1548 1762
1548 3994
1549 5871
1550 6330
1551 2380
1551 4699
1551 5004
1551 5138
1551 5303
1551 6283
1551 7279
1552 6185
1553 1603
1553 2132
1553 2288
1553 2583
1553 3210
1553 3530
1553 4125
1553 5454
1553 5543
1553 5964
1553 7488
1554 2422
1554 6015
1554 7362
1555 1678
1555 2083
1555 2571
1555 2876
1555 3108
1555 3264
1555 3397
1555 3409
1555 3701
1555 3756
1555 3896
1555 3961
1555 4900
1555 4917
1555 5124
1555 5402
1555 5582
1555 5703
1555 5769
1555 6105
1555 6193
1555 6891
1555 7398
1556 2510
1557 3009
1557 5101
1558 1879
1558 2300
1558 2552
1558 2627
1558 2669
1558 4124
1558 5466
1558 5578
1558 6200
1558 7403
1559 1606
1559 1945
1559 2305
1559 2591
1559 2707
1559 3107
1559 3946
1559 4456
1559 4785
1559 5141
1559 5334
1559 5343
1559 6087
1559 6487
1559 6997
1559 7226
1560 1933
1560 1937
1560 2265
1560 2615
1560 3336
1560 3557
1560 4770
1560 4860
1560 4899
1560 4904
1560 5174
1560 5355
1560 5988
1560 6217
1560 6958
1560 7533
1561 6012
1562 2848
1562 2942
1562 7237
1563 1843
1563 2198
1563 3225
1563 3398
1563 3873
1564 2414
1565 3708
1565 7237
1567 1883
1567 4233
1567 7404
1568 3679
1568 6705
1569 1954
1570 2702
1570 3530
1570 3631
1570 7595
1571 3381
1571 6112
1571 6638
1571 7488
1571 7610
1572 6755
1573 2244
1574 1649
1574 2693
1574 3441
1574 5514
1574 7100
1575 7536
1576 1887
1576 2619
1576 3119
1576 5763
1576 5949
1577 3258
1578 3985
1579 4811
1580 5046
1580 7052
1580 7413
1581 7504
1582 3614
1583 2580
1583 3221
1584 1879
1584 3970
1584 4691
1584 5561
1584 5630
1584 6433
1584 6886
1585 2235
1585 5607
1585 6901
1586 3571
1587 3526
1588 4356
1589 3353
1589 3856
1590 5944
1591 3548
1592 4498
1592 5294
1592 5800
1592 6083
1592 7063
1593 7540
1594 2711
1594 2838
1594 4888
1594 7579
1595 2223
1595 4757
1595 7339
1596 6197
1597 3932
1598 2020
1598 3855
1598 5277
1598 5610
1599 1642
1599 2194
1599 2318
1599 2707
1599 3483
1599 3520
1599 4453
1599 4506
1599 4632
1599 4808
1599 4852
1599 7464
1600 1684
1600 4185
1600 5178
1600 7334
1600 7604
1601 5461
1601 7285
1602 2039
1602 2989
1602 3127
1602 5764
1602 6911
1603 3450
1603 5274
1603 5543
1604 5198
1604 6241
1605 3231
1606 2305
1606 2591
1606 3272
1606 3612
1606 6081
1606 6519
1606 6597
1606 7226
1607 6611
1607 7291
1608 3807
1608 3924
1609 5779
1609 7099
1610 1635
1610 2243
1610 3097
1610 3164
1610 3312
1610 3460
1610 4054
1610 4330
1610 5215
1610 5790
1610 5921
1610 6207
1610 6755
1610 7015
1610 7046
1610 7352
1611 1706
1611 1845
1611 3544
1611 3743
1611 4737
1611 5077
1611 6018
1611 6698
1612 7237
1613 2029
1613 2186
1613 2734
1613 3597
1613 4809
1613 4900
1613 4908
1613 5222
1613 5854
1613 6403
1613 6857
1614 1727
1614 2880
1614 3325
1614 4611
1614 6008
1614 6149
1615 2019
1615 4067
1615 4367
1615 7094
1616 5454
1618 1622
1618 2841
1618 2854
1618 3210
1618 3890
1618 4757
1618 4785
1618 5454
1618 6139
1618 6197
1618 6342
1618 7044
1619 5147
1620 7199
1621 6338
1622 1671
1622 1941
1622 3986
1622 5724
1623 4873
1624 1792
1624 2347
1624 3632
1624 4438
1624 4701
1624 4865
1624 5430
1624 5454
1624 6070
1624 6293
1624 6566
1625 1741
1625 7408
1626 2391
1626 2744
1626 2897
1626 2986
1626 2995
1626 3442
1626 3818
1626 3829
1626 3900
1626 4270
1626 4422
1626 4536
1626 6267
1626 7595
1627 3565
1627 3829
1627 4213
1627 5732
1628 2428
1628 3718
1628 5751
1628 7600
1629 4527
1629 6519
1629 6621
1629 7266
1630 1830
1630 4599
1630 5514
1631 4632
1632 2476
1632 3264
1632 3409
1632 4377
1632 6891
1632 7237
1633 3897
1633 5115
1633 6000
1633 6640
1633 6652
1633 7579
1634 5461
1635 2056
1635 3234
1635 3855
1635 5277
1636 2721
1636 3371
1636 3632
1636 5454
1636 5993
1636 6207
1636 6458
1637 1872
1637 4324
1637 4338
1637 4592
1638 5072
1638 7358
1639 2102
1639 4134
1639 4197
1639 4666
1639 6725
1639 7536
1640 4000
1641 2338
1642 2341
1642 2474
1642 3495
1642 3679
1642 3853
1642 3972
1642 4000
1642 4119
1642 4337
1642 4607
1642 4632
1642 6519
1642 6621
1642 7301
1642 7608
1643 4719
1643 4934
1643 6365
1644 1698
1644 5274
1644 6946
1645 2047
1645 3081
1645 3262
1645 3395
1645 3868
1645 5388
1645 5596
1645 6293
1645 7237
1646 2082
1646 2440
1647 2337
1647 4475
1647 7591
1648 4811
1649 2528
1649 5951
1650 2744
1650 2897
1650 3163
1650 3285
1650 3530
1650 4211
1650 4289
1650 4870
1650 6095
1650 6125
1650 7304
1650 7368
1651 3105
1651 4607
1651 4785
1651 5044
1651 6519
1652 2510
1652 3853
1653 2798
1653 5717
1654 3520
1654 4527
1655 2047
1656 4811
1657 2039
1657 3067
1657 3345
1657 3358
1657 5106
1657 5764
1657 5851
1658 1752
1658 1806
1658 2510
1658 2956
1658 3038
1658 3042
1658 3269
1658 3352
1658 3361
1658 3946
1658 4000
1658 4119
1658 4122
1658 4961
1658 5168
1658 5220
1658 6043
1658 6705
1658 6807
1658 6838
1658 6925
1658 7447
1658 7498
1659 5194
1660 7361
1661 3530
1661 5127
1662 3256
1662 3408
1663 2204
1663 2510
1663 2761
1663 3400
1663 5212
1664 4034
1665 1689
1665 2507
1665 2509
1665 2591
1665 2616
1665 2892
1665 2912
1665 3162
1665 3824
1665 3946
1665 4151
1665 4337
1665 4350
1665 4456
1665 4561
1665 4608
1665 4785
1665 4990
1665 5218
1665 5307
1665 5579
1665 5768
1665 5963
1665 5979
1665 6094
1665 6838
1665 6883
1665 7083
1665 7224
1666 2807
1667 6621
1668 4387
1668 4650
1668 7487
1669 3916
1670 4651
1670 4725
1670 4745
1670 6506
1671 1941
1671 2862
1671 3986
1671 4309
1671 4527
1671 5159
1671 6621
1671 7170
1671 7472
1672 1817
1672 3766
1672 6217
1672 6321
1672 6712
1672 7533
1673 4572
1673 6544
1673 6924
1674 2086
1674 2416
1674 2670
1674 2682
1674 2890
1674 3745
1674 4777
1674 4900
1674 5427
1674 5854
1674 6090
1674 6536
1675 2182
1676 3795
1677 1799
1677 1875
1677 1878
1677 1937
1677 1973
1677 2164
1677 2170
1677 2229
1677 2295
1677 2533
1677 2626
1677 2637
1677 2891
1677 3103
1677 3336
1677 3356
1677 3410
1677 3565
1677 3841
1677 3842
1677 3852
1677 4008
1677 4394
1677 4572
1677 4931
1677 4981
1677 5080
1677 5149
1677 5455
1677 5457
1677 5485
1677 5578
1677 5600
1677 5615
1677 5828
1677 5867
1677 5929
1677 6002
1677 6056
1677 6110
1677 6446
1677 6567
1677 6767
1677 6839
1677 6983
1677 7100
1677 7275
1677 7476
1678 1891
1678 2476
1678 2522
1678 2791
1678 3133
1678 3264
1678 3968
1678 5317
1678 5788
1678 6141
1678 6142
1678 6236
1678 6351
1678 6797
1678 7237
1678 7621
1679 5967
1680 2337
1680 2802
1680 2854
1680 5984
1680 7513
1682 3039
1684 2190
1684 3584
1684 6735
1685 3080
1685 3726
1685 3798
1685 5108
1685 5578
1685 6175
1685 6200
1685 7001
1686 2321
1686 6490
1687 2900
1688 2470
1688 4992
1688 6160
1689 1995
1689 2110
1689 2509
1689 2608
1689 3046
1689 3653
1689 3826
1689 3935
1689 4183
1689 4247
1689 4440
1689 4456
1689 4561
1689 4767
1689 4915
1689 5236
1689 5574
1689 5884
1689 5985
1689 6255
1689 6261
1689 6463
1689 6682
1689 6794
1689 7089
1689 7118
1689 7339
1689 7574
1691 1927
1691 2289
1691 2854
1691 3006
1691 4543
1691 5005
1691 5293
1691 6022
1691 6186
1691 7335
1692 6120
1692 6591
1693 1746
1693 2414
1693 3158
1693 3317
1693 3822
1693 4934
1693 5215
1693 5876
1693 6266
1693 6352
1693 7162
1694 4002
1694 4872
1694 5436
1694 7314
1695 2844
1695 4099
1696 2624
1696 4880
1696 6847
1697 6022
1698 1774
1698 2140
1698 2376
1698 3686
1698 3775
1698 3821
1698 4257
1698 4655
1698 4811
1698 5043
1698 5591
1698 6309
1698 6609
1698 7199
1699 1958
1699 2308
1699 3399
1699 4728
1699 5414
1699 6785
1699 6959
1700 2775
1700 2805
1701 1725
1701 2194
1701 3224
1701 3633
1701 4955
1702 4357
1703 4811
1704 3011
1704 4009
1704 6350
1705 1973
1705 3080
1705 3103
1705 3497
1705 4814
1705 6012
1705 6101
1706 3544
1706 4335
1706 4757
1706 5362
1706 5395
1706 6649
1706 7532
1707 5117
1708 3273
1709 5884
1710 2123
1710 3654
1710 4348
1711 2204
1711 4038
1712 5371
1712 5912
1713 2029
1713 3387
1713 4335
1713 4620
1713 5866
1714 5229
1714 6491
1715 5260
1715 6084
1715 6116
1716 2162
1716 3774
1717 2298
1717 5058
1718 1848
1718 1902
1718 2177
1718 4124
1718 6175
1718 6200
1719 3272
1719 4102
1720 2151
1720 2207
1720 4891
1720 4967
1721 1960
1721 2007
1721 2191
1721 2424
1721 3075
1721 3158
1721 3430
1721 3822
1721 3855
1721 3998
1721 4088
1721 4720
1721 5215
1721 5520
1721 5577
1721 5610
1721 5676
1721 5892
1721 5939
1721 6357
1721 6378
1721 7352
1721 7581
1722 2750
1723 4326
1723 6537
1724 1795
1724 1897
1724 1938
1724 2369
1724 4916
1724 5304
1724 6360
1724 6564
1724 6761
1725 1982
1725 2194
1725 2197
1725 2250
1725 2707
1725 2892
1725 3042
1725 3503
1725 3633
1725 4664
1725 5212
1725 5328
1725 6043
1726 2854
1727 3793
1727 5605
1728 2013
1728 4966
1728 5598
1728 5720
1728 5734
1728 6046
1728 6503
1728 6638
1728 7089
1728 7395
1729 2357
1729 3221
1729 3571
1729 4589
1729 6990
1729 7584
1730 7498
1731 2698
1731 5468
1732 3070
1733 3544
1734 2245
1734 2613
1734 3182
1734 3325
1734 3793
1734 4149
1734 4249
1734 4505
1734 5268
1734 5585
1734 6451
1734 6564
1734 7008
1734 7153
1734 7550
1735 6757
1736 6960
1737 1937
1737 3450
1737 6269
1738 4952
1738 6062
1738 6383
1738 7296
1738 7397
1739 3622
1739 4785
1739 7442
1740 4896
1740 5653
1741 1992
1741 2557
1741 3839
1741 4042
1741 4181
1741 6080
1742 5110
1742 6703
1742 6825
1743 3264
1744 2510
1744 4836
1744 5274
1744 7595
1745 2160
1745 7604
1746 2007
1746 3136
1746 5610
1746 6300
1747 1848
1747 2371
1748 4811
1749 2162
1749 2165
1749 2979
1749 3103
1749 3553
1749 3770
1749 3774
1749 4040
1749 5346
1749 5725
1749 5895
1751 2289
1751 3304
1752 2624
1752 3038
1752 3520
1752 3853
1752 4254
1752 5210
1752 7032
1753 3530
1754 4744
1755 4886
1756 6022
1756 7366
1757 4946
1758 6134
1759 2993
1761 2145
1761 2968
1761 3152
1761 3250
1761 4246
1761 5203
1761 6495
1761 6887
1761 7213
1762 4356
1763 1795
1763 2059
1763 4070
1763 4154
1763 4705
1763 6021
1763 6970
1764 3600
1764 5862
1765 6101
1766 2014
1767 3064
1767 3243
1767 4221
1767 6562
1767 7458
1769 5184
1770 2414
1770 3296
1770 5815
1770 6004
1771 2354
1771 3112
1771 4691
1771 6567
1771 7216
1771 7364
1771 7553
1772 4785
1775 1995
1776 1933
1776 3399
1776 3613
1776 4931
1776 5957
1776 6047
1776 6249
1776 6656
1777 7237
1778 3873
1778 4794
1778 5884
1779 6142
1780 6101
1781 2693
1781 2816
1781 3544
1781 5493
1781 6219
1782 4503
1784 2970
1785 3934
1785 4811
1786 2217
1786 4906
1786 7045
1786 7551
1787 3588
1787 4338
1788 4257
1789 2347
1789 2385
1789 2576
1789 3809
1789 4636
1789 4657
1789 5892
1789 5956
1792 1950
1792 2385
1792 2576
1792 2832
1792 2836
1792 2991
1792 3006
1792 3083
1792 3093
1792 3129
1792 3138
1792 3181
1792 3398
1792 3507
1792 3786
1792 3822
1792 3847
1792 3855
1792 3856
1792 3994
1792 4146
1792 4193
1792 4244
1792 4359
1792 4511
1792 4720
1792 5243
1792 5454
1792 5892
1792 5921
1792 5964
1792 5993
1792 6207
1792 6412
1792 6427
1792 6458
1792 6876
1792 6967
1792 6991
1792 7162
1792 7199
1792 7256
1792 7350
1792 7482
1792 7489
1793 1921
1793 1941
1793 1943
1793 2955
1793 3038
1793 3366
1793 3622
1793 3715
1793 4388
1793 5159
1793 5710
1793 6519
1793 6597
1793 6693
1794 1937
1794 2889
1794 5355
1794 6298
1794 6455
1795 1834
1795 2059
1795 2777
1795 2785
1795 2827
1795 3181
1795 3322
1795 3570
1795 3891
1795 4159
1795 4336
1795 4369
1795 4457
1795 4482
1795 4515
1795 4546
1795 4705
1795 4805
1795 5103
1795 5131
1795 5153
1795 5304
1795 5361
1795 5470
1795 5562
1795 6341
1795 6564
1795 7133
1795 7199
1795 7543
1796 2284
1796 3660
1796 3743
1796 5946
1796 6359
1798 2510
1798 4955
1798 5670
1798 6838
1799 1905
1799 1906
1799 1956
1799 2117
1799 2300
1799 2396
1799 2544
1799 2566
1799 2600
1799 2751
1799 2781
1799 2961
1799 3016
1799 3306
1799 3761
1799 3835
1799 3911
1799 4023
1799 4127
1799 4248
1799 4329
1799 4846
1799 5351
1799 5600
1799 5613
1799 5658
1799 5908
1799 6206
1799 6367
1799 6446
1799 6968
1799 7098
1799 7240
1799 7303
1799 7321
1799 7480
1800 6797
1801 2341
1801 2591
1801 6197
1801 6519
1803 2881
1803 4297
1803 6194
1804 2669
1804 3620
1804 3680
1804 4110
1804 4349
1804 4594
1804 4969
1804 5095
1804 6016
1804 6339
1805 4284
1806 2028
1806 2510
1806 3042
1806 3269
1806 3360
1806 3853
1806 4119
1806 4554
1806 7123
1806 7224
1807 4811
1808 2854
1808 3555
1808 4575
1808 4977
1808 5799
1808 6759
1808 7224
1809 4527
1810 4785
1811 4785
1811 5710
1812 5162
1812 5646
1812 6929
1812 7071
1812 7237
1814 2992
1814 4977
1815 4843
1816 1897
1817 1937
1817 2615
1817 4666
1817 4728
1817 4964
1817 5857
1817 6217
1817 6321
1817 6712
1817 6752
1817 6921
1817 7533
1818 2135
1819 6441
1820 5514
1821 5596
1822 2854
1823 3356
1824 2013
1824 2108
1824 2541
1824 2776
1824 4100
1824 6809
1825 2590
1825 4069
1826 4798
1826 7605
1827 2512
1827 6928
1828 4116
1828 6641
1829 6042
1830 1929
1830 2354
1830 2927
1830 3384
1830 4037
1830 4666
1830 4819
1830 5072
1830 7143
1830 7216
1831 2083
1831 2673
1831 2724
1831 2798
1831 3240
1831 3644
1831 3701
1831 4582
1831 5953
1831 6048
1831 6141
1831 7237
1832 3313
1833 3852
1833 5867
1833 6544
1834 2660
1834 2747
1834 4937
1834 6180
1834 6347
1834 7022
1834 7340
1835 3390
1835 4029
1835 4718
1835 5300
1835 5653
1835 5896
1835 6459
1835 6484
1835 6656
1835 6944
1835 7245
1836 2617
1836 6068
1837 4364
1837 6241
1838 3644
1838 4754
1838 5121
1838 5402
1838 7349
1839 3080
1839 3103
1839 4786
1840 2453
1840 2645
1841 4816
1842 3266
1842 3440
1842 4087
1842 5662
1842 6027
1842 7189
1844 2217
1844 2947
1844 4324
1845 2418
1845 3208
1845 6147
1846 2131
1846 6642
1846 6912
1846 7171
1847 6728
1848 1902
1848 1956
1848 2183
1848 2422
1848 2751
1848 3898
1848 3980
1848 4184
1848 4280
1848 4460
1848 5364
1848 5463
1848 5578
1848 5652
1848 6175
1848 7088
1848 7355
1849 2132
1849 2773
1849 3019
1849 3189
1849 3381
1849 3630
1849 3790
1849 4007
1849 4049
1849 4125
1849 4128
1849 4206
1849 4216
1849 4960
1849 5663
1849 5749
1849 5920
1849 6063
1849 6724
1849 6766
1849 7145
1849 7170
1849 7400
1849 7487
1849 7569
1849 7587
1849 7618
1850 1937
1850 2015
1850 2037
1850 2154
1850 2267
1850 3056
1850 3213
1850 3591
1850 4031
1850 4125
1850 4434
1850 4728
1850 4860
1850 4904
1850 5383
1850 5683
1850 6001
1850 6086
1850 6739
1850 7141
1851 6145
1851 7069
1852 1875
1852 2626
1852 6110
1852 6567
1852 7612
1853 2386
1853 2904
1853 6241
1853 7351
1853 7483
1854 1875
1854 3326
1854 3454
1854 3561
1854 4259
1854 4698
1855 2021
1855 4280
1855 7274
1856 2206
1856 3039
1856 3116
1856 3639
1856 3666
1856 4152
1856 4257
1856 4811
1856 5949
1857 2290
1857 2361
1858 6344
1858 7223
1859 1872
1859 1873
1859 4324
1859 4338
1859 5567
1859 5715
1859 6138
1859 6528
1859 6729
1860 3813
1860 5578
1861 3614
1861 6369
1861 6430
1862 2798
1863 2326
1863 2452
1863 4103
1864 6232
1865 5461
1865 7285
1867 4456
1867 4761
1868 4452
1869 4304
1870 6428
1871 2809
1871 5753
1872 2217
1872 2794
1872 2882
1872 3446
1872 4304
1872 4338
1872 6515
1872 6729
1873 2430
1873 2853
1873 2943
1873 5203
1873 7195
1874 5347
1875 1973
1875 2617
1875 2745
1875 3223
1875 4014
1875 4356
1875 4624
1875 4700
1875 4727
1875 4882
1875 5095
1875 5725
1875 6001
1875 6003
1875 6110
1875 6567
1875 6671
1875 7612
1876 2265
1876 2266
1876 4434
1876 4904
1876 5756
1876 5988
1876 6086
1876 7141
1877 4913
1877 5369
1877 5842
1878 3841
1878 4786
1878 4840
1878 7118
1878 7260
1879 2399
1879 2552
1879 2630
1879 3080
1879 3492
1879 3616
1879 3970
1879 4485
1879 4936
1879 4998
1879 5443
1879 5561
1879 5578
1879 5630
1879 5711
1879 5881
1879 6016
1879 6886
1879 7331
1880 4796
1880 5281
1880 6887
1881 2663
1882 2354
1882 2811
1882 3339
1882 3811
1882 4023
1882 4414
1882 4691
1882 5492
1882 6524
1882 7233
1883 6642
1883 7404
1884 2158
1884 4583
1885 5798
1885 6830
1886 4900
1887 1974
1887 2705
1887 3317
1887 3445
1887 4085
1887 4466
1887 5190
1887 5707
1887 6806
1887 7607
1888 5060
1889 2028
1890 3666
1890 6088
1891 2029
1891 2083
1891 2522
1891 2666
1891 2798
1891 3145
1891 3387
1891 5079
1891 5759
1891 5769
1891 5866
1891 6391
1891 6467
1891 6665
1891 7237
1891 7425
1892 2056
1892 6282
1893 3459
1893 4125
1894 6876
1894 7552
1895 2251
1896 2309
1896 3741
1896 4328
1896 6392
1897 2128
1897 3186
1897 3650
1897 4229
1897 5263
1897 5372
1897 5498
1897 6275
1897 6341
1897 6502
1897 6775
1897 6882
1897 7148
1897 7365
1897 7535
1898 2624
1898 3450
1898 4673
1898 5128
1898 5646
1899 3629
1899 4544
1899 6828
1899 7156
1900 2994
1900 4876
1901 4094
1901 5043
1902 1933
1902 2370
1902 2399
1902 3399
1902 3415
1902 3726
1902 4131
1902 4460
1902 4480
1902 4668
1902 4903
1902 5047
1902 5683
1902 5686
1902 5745
1902 6074
1902 7406
1903 3749
1903 5042
1904 2664
1904 3520
1904 5461
1905 2396
1905 3647
1905 3858
1905 4008
1905 4927
1905 5455
1905 5578
1905 6544
1906 4023
1906 6641
1907 2800
1907 5814
1907 6941
1908 2844
1909 2966
1909 4148
1909 4929
1910 2066
1910 6799
1911 4355
1911 6846
1911 7237
1912 4705
1912 4744
1913 4115
1914 5097
1915 3881
1915 3907
1916 4146
1917 2023
1917 3908
1917 5960
1918 3584
1918 5398
1919 2120
1919 2158
1919 2424
1919 4704
1920 3701
1920 5797
1920 6036
1921 1945
1921 2056
1921 2075
1921 2259
1921 2366
1921 3355
1921 3520
1921 4061
1921 4527
1921 5335
1921 6373
1921 6597
1921 6621
1922 6186
1922 7096
1924 2848
1924 4901
1925 3038
1925 3361
1925 3836
1925 5526
1925 6514
1925 6787
1925 6794
1925 7224
1926 7248
1927 6186
1928 3949
1929 2626
1929 3193
1929 3907
1929 4031
1929 6252
1929 7106
1929 7170
1930 5981
1931 4589
1931 7359
1932 2707
1932 3943
1932 4232
1932 4593
1932 5474
1932 6459
1932 6677
1932 7090
1932 7479
1933 2615
1933 2835
1933 3390
1933 3399
1933 3502
1933 3571
1933 3971
1933 4455
1933 4572
1933 4770
1933 4931
1933 5047
1933 5857
1933 6074
1933 6818
1933 7001
1933 7199
1934 2267
1934 3056
1934 5893
1934 6862
1935 4241
1936 3649
1936 3807
1937 1958
1937 2015
1937 2037
1937 2130
1937 2199
1937 2265
1937 2267
1937 2308
1937 2492
1937 2499
1937 2614
1937 2615
1937 2668
1937 2790
1937 2826
1937 2884
1937 2933
1937 3336
1937 3377
1937 3390
1937 3399
1937 3508
1937 3557
1937 3694
1937 3971
1937 4230
1937 4434
1937 4666
1937 4728
1937 4899
1937 4904
1937 4931
1937 5174
1937 5578
1937 5857
1937 5988
1937 6001
1937 6073
1937 6298
1937 6323
1937 6546
1937 6565
1937 6736
1937 6752
1937 6785
1937 6862
1937 6958
1937 6959
1937 7064
1937 7141
1937 7144
1937 7319
1937 7406
1937 7533
1938 4168
1938 6564
1939 6775
1940 2404
1940 2772
1940 2813
1940 4071
1940 6952
1940 7143
1941 2058
1941 2185
1941 2259
1941 2341
1941 2349
1941 2507
1941 2707
1941 2892
1941 3162
1941 3400
1941 3715
1941 3773
1941 3779
1941 4632
1941 4785
1941 5343
1941 5966
1941 6860
1942 3444
1942 5604
1942 6020
1942 6158
1942 6781
1943 4453
1943 4527
1945 1975
1945 2256
1945 2591
1945 2707
1945 2941
1945 2955
1945 3151
1945 3341
1945 3355
1945 3360
1945 3400
1945 3509
1945 3653
1945 3715
1945 3937
1945 4000
1945 4456
1945 4532
1945 4593
1945 5218
1945 5335
1945 5721
1945 6519
1945 6788
1945 7083
1945 7224
1945 7245
1945 7535
1946 2290
1946 3504
1946 5093
1947 3945
1947 5780
1947 5904
1947 6101
1947 7123
1948 3359
1948 6859
1949 6802
1949 6842
1950 2017
1950 4169
1950 6991
1951 5807
1952 3119
1952 4125
1952 4962
1953 3319
1953 7482
1954 3757
1954 7162
1954 7374
1955 4633
1955 4855
1956 1958
1956 2021
1956 2117
1956 2295
1956 2401
1956 2889
1956 2960
1956 3349
1956 3565
1956 3678
1956 4280
1956 4355
1956 4480
1956 4968
1956 5381
1956 5443
1956 5532
1956 5578
1956 5689
1956 5908
1956 6047
1956 6339
1956 6367
1956 6734
1956 7158
1956 7296
1956 7403
1956 7491
1956 7565
1957 2134
1957 3857
1957 7121
1958 3399
1958 3562
1958 4931
1958 5414
1958 5584
1958 5612
1958 5879
1958 6217
1958 6249
1958 6287
1958 6712
1958 6785
1959 6145
1960 3136
1960 5247
1960 5832
1960 5876
1960 7350
1961 3642
1962 5785
1963 2051
1963 3893
1963 4356
1963 5105
1963 5106
1963 6811
1964 2671
1964 6407
1965 4785
1966 3613
1967 2648
1967 6105
1968 6601
1968 6615
1968 6950
1969 2594
1970 5370
1971 2390
1971 5370
1972 5614
1972 6419
1973 1986
1973 2170
1973 2229
1973 2420
1973 3620
1973 3636
1973 3932
1973 4691
1973 4800
1973 5207
1973 5658
1973 6012
1973 6831
1973 6859
1973 7553
1974 4106
1975 3130
1975 5710
1975 6487
1976 5854
1977 5991
1978 7587
1979 2463
1979 4811
1979 4923
1980 2456
1980 4785
1980 5401
1980 5593
1980 6487
1980 6519
1981 4893
1982 2510
1982 3747
1982 3768
1982 3853
1982 4449
1982 6043
1983 6436
1984 7370
1985 2983
1985 5042
1986 3133
1986 3661
1986 7435
1987 2160
1987 2998
1987 3005
1987 3920
1987 6155
1987 6201
1988 3162
1989 2854
1989 3048
1989 4338
1989 4671
1989 6253
1989 6884
1990 3829
1991 4032
1991 6972
1991 7038
1992 5507
1993 5335
1994 2821
1994 3983
1994 6974
1995 2018
1995 2510
1995 2787
1995 3038
1995 3255
1997 3677
1998 4578
1998 6912
1999 2204
1999 2517
1999 4955
2000 3813
2001 3418
2001 3807
2001 5274
2002 6310
2003 3158
2004 4007
2004 4932
2004 5407
2004 6631
2004 7078
2005 4957
2005 6617
2005 7028
2005 7313
2008 2197
2008 2510
2008 2761
2008 3224
2008 3269
2008 3360
2008 3768
2008 5670
2009 6815
2010 5024
2011 3597
2011 6322
2012 4109
2012 5972
2013 2107
2013 3393
2013 3829
2013 4560
2013 4912
2013 6157
2014 2452
2014 2725
2014 2734
2014 2878
2014 3081
2014 3108
2014 3165
2014 3251
2014 3405
2014 3499
2014 3544
2014 3597
2014 3657
2014 3948
2014 4055
2014 4202
2014 4809
2014 5479
2014 5494
2014 5651
2014 5822
2014 5978
2014 6031
2014 6108
2014 6142
2014 6146
2014 7575
2015 2267
2015 2614
2015 2615
2015 3213
2015 3591
2015 4432
2015 4606
2015 5857
2015 5988
2015 6818
2015 7064
2015 7141
2016 5758
2016 6882
2017 3833
2017 4657
2017 4715
2017 5454
2017 6202
2017 6876
2017 7489
2018 5555
2019 2879
2019 4367
2020 2659
2020 2832
2020 3031
2020 3855
2020 4024
2020 4126
2020 5324
2020 5564
2020 7015
2020 7162
2020 7193
2021 2122
2021 2260
2021 2368
2021 2617
2021 2889
2021 3780
2021 4280
2021 5443
2021 5482
2021 6446
2022 5837
2022 6617
2023 2622
2023 2854
2023 5012
2023 6355
2024 3251
2024 3544
2024 4335
2024 6697
2024 7398
2025 4384
2026 2510
2027 4811
2028 2063
2028 3038
2028 4961
2028 4991
2028 5200
2028 6094
2028 7123
2028 7421
2029 2083
2029 2254
2029 2476
2029 2571
2029 3240
2029 3397
2029 3597
2029 3644
2029 4267
2029 4556
2029 4809
2029 4900
2029 5079
2029 5209
2029 6108
2029 6236
2029 6695
2029 7075
2029 7237
2029 7398
2030 2854
2030 4039
2031 2083
2031 2238
2031 2556
2031 3240
2031 4721
2031 4851
2031 5530
2031 6296
2031 7107
2031 7226
2031 7237
2031 7250
2032 7317
2034 3038
2034 4063
2034 4763
2034 5510
2035 2504
2036 2158
2036 2659
2036 3040
2036 3430
2036 3822
2036 3855
2036 4126
2036 5277
2036 5909
2036 7015
2036 7162
2037 2614
2037 2628
2037 3056
2037 4434
2037 4860
2037 4904
2037 5857
2037 5988
2037 6086
2037 6217
2037 6380
2037 7141
2038 4811
2039 2211
2039 3358
2039 5755
2039 5764
2039 5851
2040 3096
2040 5471
2042 5674
2042 6558
2042 7521
2043 7538
2044 5564
2044 6001
2045 2145
2045 3096
2045 4235
2045 4246
2045 4623
2045 4796
2045 5781
2045 5918
2046 5060
2047 3264
2047 4027
2047 4069
2047 4563
2047 7460
2048 5250
2049 3276
2050 2239
2050 2680
2050 6120
2051 3127
2051 4019
2051 4318
2051 4447
2051 5106
2051 5764
2051 5851
2051 6416
2051 6811
2051 6911
2052 2827
2052 6384
2053 3615
2053 4886
2054 4356
2055 5950
2056 2120
2056 2195
2056 3822
2056 3845
2056 4934
2056 5236
2056 5446
2056 5610
2056 5728
2056 6208
2056 6282
2056 6378
2056 6411
2056 7352
2057 4544
2057 6155
2057 6757
2058 2645
2058 2899
2058 5463
2058 5725
2058 6800
2058 6900
2059 6021
2060 3044
2060 3752
2060 4785
2060 4852
2061 3833
2061 4676
2061 6991
2063 6465
2064 7362
2065 3650
2065 7487
2066 2160
2066 2998
2066 3469
2066 3920
2066 3927
2066 4544
2066 5132
2066 5347
2066 7215
2066 7334
2067 3527
2067 6760
2068 5268
2068 5858
2069 3550
2070 2878
2070 7042
2071 4875
2071 5893
2072 2097
2072 3360
2072 6794
2072 7339
2073 2142
2073 2854
2073 4669
2073 7017
2073 7270
2074 5856
2075 4785
2075 5044
2076 2918
2077 3114
2077 5249
2077 5274
2077 5914
2078 3038
2078 3705
2079 7580
2080 2751
2080 6101
2080 6524
2081 2183
2081 7188
2081 7435
2083 2421
2083 2434
2083 2452
2083 2571
2083 2725
2083 2734
2083 2876
2083 3044
2083 3108
2083 3240
2083 3397
2083 3597
2083 3669
2083 3701
2083 4353
2083 4404
2083 4467
2083 4584
2083 4754
2083 4809
2083 4883
2083 4900
2083 5124
2083 5370
2083 5530
2083 5548
2083 5556
2083 5769
2083 5866
2083 6140
2083 6168
2083 6326
2083 6391
2083 6473
2083 6695
2083 6789
2083 7226
2083 7548
2083 7606
2083 7621
2084 4145
2085 2265
2085 2933
2085 3324
2085 5857
2085 6252
2085 7141
2086 3745
2086 4777
2086 6536
2087 2237
2087 4785
2088 3755
2088 4868
2088 5706
2089 2231
2089 7517
2090 5222
2090 5854
2090 6090
2091 2304
2091 2930
2091 3582
2091 7153
2091 7534
2092 4811
2093 2744
2093 3530
2093 4163
2093 7488
2094 4013
2094 4069
2094 4820
2094 5161
2094 6633
2094 6797
2094 6897
2095 3530
2095 3543
2096 2183
2096 2401
2096 2600
2096 2891
2096 3080
2096 3214
2096 3672
2096 4008
2096 4328
2096 4329
2096 4455
2096 4903
2096 6047
2096 6074
2096 6323
2096 6446
2096 6877
2096 7383
2098 2705
2099 4785
2099 5526
2099 6330
2100 2326
2100 7237
2101 6476
2102 5047
2103 5267
2104 4811
2105 6834
2105 7213
2106 4811
2107 2641
2107 4433
2107 5823
2107 6046
2107 6503
2107 6955
2107 7089
2108 3331
2108 6809
2109 3748
2110 7339
2111 7248
2112 6994
2114 6407
2115 5461
2116 5201
2117 2566
2117 2781
2117 3101
2117 6164
2117 7327
2117 7435
2118 5476
2118 6241
2118 6428
2119 7079
2121 5673
2122 2260
2122 3680
2122 3741
2122 3898
2122 3953
2122 4952
2122 5466
2122 5532
2122 5629
2122 6052
2122 6200
2122 6339
2122 7158
2122 7403
2123 2599
2123 5260
2124 2205
2124 2334
2124 6133
2124 6483
2125 4785
2125 5860
2126 4512
2127 2420
2127 3103
2127 3454
2127 6002
2128 4879
2128 4996
2128 6341
2128 7199
2128 7314
2128 7474
2129 2926
2129 3840
2129 5274
2129 7580
2130 2267
2130 3056
2130 5857
2132 3519
2132 5274
2132 6960
2132 7381
2133 2603
2134 3469
2134 3857
2134 7121
2136 3920
2137 3154
2137 5462
2137 6633
2138 4941
2138 6759
2139 5604
2140 2148
2140 2914
2140 3456
2140 3991
2140 4194
2140 5480
2140 6226
2140 6286
2140 6390
2140 6822
2141 6096
2141 6467
2141 7562
2142 2217
2142 2234
2142 2289
2142 2337
2142 2779
2142 4005
2142 4420
2142 5056
2142 5234
2142 6026
2142 6528
2142 7172
2143 2618
2143 3014
2143 3873
2143 3944
2143 4873
2143 4900
2143 6019
2143 7032
2144 2276
2144 3086
2144 5078
2144 5570
2145 2854
2145 4235
2145 4246
2145 4338
2145 5918
2145 7213
2146 2298
2146 2470
2146 5495
2147 6101
2149 3614
2149 4090
2149 4826
2149 4981
2149 6491
2151 2849
2151 3367
2151 3544
2151 4520
2151 5679
2151 6048
2151 6205
2151 7253
2151 7425
2152 2391
2153 2422
2154 3954
2154 6725
2155 5216
2155 5555
2155 5862
2155 6054
2155 6438
2156 4671
2157 2288
2157 3910
2157 4125
2157 5274
2157 5404
2157 5687
2157 6888
2158 2832
2158 3130
2158 3312
2158 3855
2158 5053
2158 6207
2158 7162
2158 7402
2159 3502
2159 4352
2159 6129
2160 2586
2160 2944
2160 2998
2160 3282
2160 3469
2160 3521
2160 3564
2160 3599
2160 3865
2160 4175
2160 5872
2160 5962
2160 6270
2160 6379
2160 6406
2160 6612
2160 6757
2160 7334
2161 2236
2162 3774
2162 4012
2162 4800
2162 7143
2163 3985
2163 4077
2163 5595
2163 6744
2164 2524
2164 3410
2164 3852
2164 5455
2164 5867
2164 6062
2164 6424
2164 6544
2165 5346
2166 4381
2167 5807
2169 2989
2170 2745
2170 2952
2170 3080
2170 3103
2170 3427
2170 3813
2170 4280
2170 4531
2170 5095
2170 5578
2170 5725
2170 6012
2170 7235
2170 7553
2171 4811
2171 6556
2172 3615
2173 2361
2174 2515
2174 5823
2174 7595
2175 6040
2177 2229
2177 2315
2177 2952
2177 3080
2177 4595
2177 5095
2177 5432
2177 5468
2177 5578
2178 2854
2178 3334
2178 4979
2179 7357
2180 2756
2180 4785
2180 6276
2181 7600
2183 2889
2183 4455
2183 5463
2183 6323
2184 3103
2184 3859
2185 4785
2185 7036
2186 2238
2186 2361
2186 2373
2186 2846
2186 2928
2186 3165
2186 3198
2186 3205
2186 3240
2186 3504
2186 3597
2186 4335
2186 4538
2186 4557
2186 5090
2186 5097
2186 5944
2186 6361
2186 6381
2186 6639
2186 6792
2186 6857
2187 4485
2187 5578
2188 2657
2188 2805
2189 2470
2189 3534
2189 4348
2189 4959
2189 6116
2190 7135
2190 7273
2191 2906
2191 3158
2191 4704
2191 5676
2191 5815
2191 6593
2191 6709
2191 7352
2192 4595
2192 4998
2192 5505
2192 7267
2193 4657
2193 5378
2193 6202
2193 6991
2194 2197
2194 2204
2194 2707
2194 3495
2194 3520
2194 3605
2194 3633
2194 3853
2194 3938
2194 4632
2194 4925
2194 4955
2194 7464
2195 3136
2195 3424
2195 3462
2195 3640
2195 3855
2195 5053
2195 5461
2195 6529
2195 7352
2196 3277
2196 3425
2196 3618
2196 4257
2196 4821
2196 6478
2196 7413
2196 7528
2197 2510
2197 2892
2197 3224
2197 3853
2197 5342
2197 6280
2197 7090
2199 2668
2199 2835
2199 3864
2199 5575
2199 5857
2199 5988
2199 6712
2199 6862
2199 7001
2200 2379
2200 4864
2200 6185
2201 3022
2201 3044
2201 3154
2201 4312
2201 4967
2201 5063
2201 5079
2201 5147
2201 6168
2201 6378
2201 6529
2201 6633
2201 6664
2202 5294
2204 2892
2204 3503
2204 3990
2204 4309
2204 4554
2204 4961
2204 5168
2204 5212
2204 5342
2204 5453
2204 5526
2205 2524
2205 2676
2205 6424
2206 3493
2206 5680
2206 5964
2207 3211
2207 3240
2207 3594
2207 3621
2207 3961
2207 4837
2207 5717
2207 7379
2209 5680
2210 5012
2211 2328
2211 5851
2212 5962
2213 3240
2213 3659
2213 3704
2213 5813
2213 7532
2214 6349
2215 4225
2216 2992
2216 3172
2216 4929
2216 5305
2216 7248
2217 2234
2217 2289
2217 2458
2217 2794
2217 3781
2217 4304
2217 5285
2217 5791
2217 6022
2217 6216
2217 6515
2217 6528
2218 4356
2219 4908
2220 5607
2221 6318
2221 6666
2221 6753
2222 3520
2222 4785
2222 5343
2224 3667
2225 3145
2225 3975
2226 4375
2227 2532
2228 7009
2229 2566
2229 2626
2229 2733
2229 2745
2229 2891
2229 2952
2229 2961
2229 3080
2229 3270
2229 3389
2229 3571
2229 3881
2229 3898
2229 4248
2229 4369
2229 4376
2229 4572
2229 4985
2229 5095
2229 5192
2229 5242
2229 5938
2229 6016
2229 6491
2229 6734
2229 6757
2229 7173
2229 7225
2229 7356
2230 6350
2232 3548
2232 4060
2232 4260
2232 4368
2232 4397
2232 6564
2233 2707
2233 3715
2233 3853
2233 4785
2233 4900
2233 6280
2234 2289
2234 3096
2234 4746
2234 7333
2234 7551
2234 7592
2235 6441
2236 4880
2236 6267
2237 2707
2237 4218
2238 3240
2238 4267
2238 4468
2238 4754
2238 5854
2238 5944
2238 6618
2238 6857
2239 2742
2239 3170
2239 5264
2239 6120
2240 3351
2240 3528
2240 5951
2241 3661
2241 4485
2241 4548
2241 7184
2242 3205
2242 3251
2244 2502
2244 4512
2244 5051
2244 7534
2246 3620
2247 2557
2247 4081
2247 6676
2248 3430
2248 5314
2249 6096
2249 7246
2251 2833
2251 3569
2251 4911
2251 7155
2251 7341
2252 3912
2253 3885
2253 6328
2254 2262
2254 2846
2254 3808
2254 4754
2254 4919
2254 5679
2254 5944
2255 2757
2255 3723
2256 3653
2258 2557
2259 2513
2259 2591
2259 2707
2259 2955
2259 3400
2259 3612
2259 3760
2259 4561
2259 4928
2259 5218
2259 5334
2259 5979
2259 6519
2259 6568
2259 6597
2259 6621
2259 7245
2260 2399
2260 2751
2260 4274
2260 7403
2260 7522
2261 3530
2261 3854
2262 2571
2262 3597
2262 4459
2263 2510
2263 6838
2264 7615
2265 2615
2265 2790
2265 2835
2265 3056
2265 4293
2265 4356
2265 4521
2265 4875
2265 4904
2265 4931
2265 5172
2265 5355
2265 5592
2265 5988
2265 6217
2265 6500
2265 6712
2265 6812
2265 7014
2265 7141
2266 4875
2266 6217
2266 6712
2266 7257
2267 3056
2267 4315
2267 4617
2267 4666
2267 4784
2267 6174
2267 6455
2267 7257
2268 4811
2269 4069
2269 4186
2270 4570
2271 2532
2271 3551
2271 4731
2271 5043
2272 3520
2272 4309
2273 3151
2274 4260
2274 5131
2274 5377
2275 2515
2275 3450
2275 3530
2276 2995
2276 3086
2276 5078
2276 5570
2276 6955
2277 4392
2277 4543
2277 6186
2278 3845
2279 5628
2279 7549
2280 2437
2280 2854
2280 3408
2280 6894
2280 7409
2282 4811
2283 5665
2285 7089
2286 4086
2287 5986
2288 6506
2289 2572
2289 2854
2289 3304
2289 3486
2289 3536
2289 3816
2289 3909
2289 3928
2289 3951
2289 4235
2289 4906
2289 5293
2289 5715
2289 5791
2289 5834
2289 6022
2289 6468
2289 6592
2289 7045
2289 7229
2289 7255
2289 7335
2289 7592
2290 2361
2290 6398
2292 2504
2293 3790
2294 3412
2295 2700
2295 6445
2296 6914
2297 4811
2298 5298
2298 5529
2298 7534
2299 3296
2299 3437
2299 4146
2299 7002
2299 7317
2299 7565
2300 2368
2300 2751
2300 4329
2300 6200
2300 6269
2300 6339
2300 6663
2301 4235
2301 4246
2301 6887
2302 7100
2302 7470
2303 7327
2304 2624
2304 2705
2304 4042
2304 5680
2305 2349
2305 3187
2305 5334
2305 5343
2305 6519
2305 6597
2305 7224
2306 3145
2306 3975
2306 5759
2307 6383
2308 2826
2308 3399
2308 4931
2308 5761
2308 6712
2308 6785
2310 7573
2311 7248
2312 3873
2313 3340
2314 2995
2314 5127
2314 6267
2315 4595
2316 3597
2316 5854
2317 3159
2317 3819
2317 4006
2318 4309
2318 5099
2318 5159
2318 6429
2319 7067
2319 7552
2320 3408
2321 6302
2321 7302
2322 2419
2322 2510
2322 5526
2323 7089
2324 7028
2325 4204
2326 2452
2326 2476
2326 2734
2326 2858
2326 3108
2326 3240
2326 3968
2326 6108
2326 6792
2326 6821
2326 7237
2326 7272
2327 3330
2327 4033
2327 6578
2327 7009
2328 2989
2328 3127
2328 4209
2328 5755
2328 5764
2328 5851
2328 6768
2329 4245
2329 7089
2330 3181
2331 2422
2332 3481
2332 5554
2333 3758
2334 3571
2334 7024
2335 2535
2335 4745
2336 7017
2337 2854
2337 2966
2337 3199
2337 3330
2337 3700
2337 3958
2337 4941
2337 4949
2337 5226
2337 5234
2337 5254
2337 5270
2337 5516
2337 6337
2337 6460
2337 6909
2337 7035
2337 7335
2337 7438
2339 5287
2340 3813
2340 5242
2341 3527
2341 3715
2342 6432
2343 6460
2344 3659
2344 5854
2344 6552
2345 3994
2345 4916
2345 6957
2346 3247
2347 2385
2347 2559
2347 2655
2347 2985
2347 2991
2347 3632
2347 3786
2347 3809
2347 3856
2347 4269
2347 4359
2347 4451
2347 4478
2347 4565
2347 4636
2347 4653
2347 5420
2347 5847
2347 6207
2349 2955
2349 3622
2349 4034
2349 4999
2349 5159
2349 5419
2349 5710
2349 6519
2350 3462
2350 6490
2352 3530
2353 2639
2354 4599
2354 7216
2355 6914
2356 5578
2356 6877
2356 7122
2356 7403
2356 7416
2357 2580
2357 3221
2357 3413
2357 3850
2357 4589
2357 7080
2358 2904
2359 3813
2359 6924
2360 6670
2361 2412
2361 3504
2361 6388
2361 7237
2361 7284
2362 5045
2364 4433
2365 6017
2366 3210
2366 4593
2367 3597
2368 3166
2368 3565
2368 4274
2368 4572
2368 5561
2368 5725
2368 6323
2369 2385
2369 3210
2369 5035
2369 6091
2370 5793
2371 4184
2371 7355
2372 2992
2372 3172
2372 3330
2372 4941
2372 5816
2373 2571
2373 5944
2373 6388
2374 3251
2375 2502
2376 3751
2376 4107
2376 4811
2376 5249
2377 6101
2377 6671
2377 7060
2378 7268
2378 7298
2380 5372
2381 3450
2381 3453
2381 4657
2381 4842
2381 4912
2381 5274
2381 6840
2381 7595
2382 3530
2382 5632
2382 7032
2383 2763
2384 4957
2384 5294
2384 7028
2384 7539
2385 3083
2385 3210
2385 4451
2386 3081
2386 3317
2386 3655
2386 4145
2386 4602
2386 4847
2386 5246
2386 5727
2386 5754
2386 6471
2386 6486
2386 6668
2387 2747
2387 2800
2387 2930
2387 4154
2387 5968
2387 6256
2387 6289
2387 7534
2387 7571
2388 5047
2389 2617
2389 3384
2389 7199
2390 2798
2390 3090
2390 3334
2390 3621
2390 3701
2390 4520
2390 4785
2390 5564
2390 5854
2390 7237
2391 2468
2391 2744
2391 2755
2391 2764
2391 2967
2391 2995
2391 3285
2391 3698
2391 4319
2391 4422
2391 4502
2391 4536
2391 4870
2391 5127
2391 5534
2391 5549
2391 5687
2391 6058
2391 6125
2391 6724
2391 6921
2391 7304
2391 7434
2392 2854
2393 7314
2394 4163
2395 6676
2396 5725
2396 6446
2396 7435
2397 6505
2398 5816
2398 7248
2399 3137
2399 4423
2399 5440
2399 5466
2400 5543
2401 4903
2401 5047
2401 5449
2401 6440
2402 7100
2402 7619
2403 3597
2403 4908
2403 7127
2404 2772
2405 2583
2405 6079
2405 7580
2406 7352
2407 6716
2408 2701
2408 3520
2408 7177
2409 2414
2410 6990
2412 2571
2412 4792
2412 4919
2412 5944
2412 7237
2413 3650
2413 5128
2413 5534
2413 7089
2414 2506
2414 2857
2414 2906
2414 3204
2414 3838
2414 3998
2414 5520
2414 5681
2414 5846
2414 5939
2414 6004
2414 6352
2414 7031
2414 7168
2415 4476
2415 5164
2416 2890
2416 4777
2416 5427
2416 5677
2416 7585
2417 5817
2417 6316
2418 2871
2418 4062
2419 2510
2419 3415
2419 4417
2419 4953
2419 6542
2420 2745
2420 3080
2420 3103
2420 3565
2420 3571
2420 4800
2420 5112
2420 5207
2420 6002
2420 6101
2421 4277
2421 4584
2422 3103
2422 3722
2422 4644
2422 5400
2422 5989
2422 6015
2422 6101
2422 6339
2422 6469
2422 7199
2422 7219
2422 7296
2423 6506
2423 7595
2424 2896
2424 3155
2424 3210
2424 3234
2424 3430
2424 3845
2424 5001
2424 5820
2424 6575
2424 6845
2424 7352
2425 5646
2425 6415
2425 7600
2427 2707
2427 3949
2428 2473
2428 3348
2428 3381
2428 3638
2428 3718
2428 3755
2428 4212
2428 4217
2428 5632
2428 6617
2429 2647
2429 4335
2429 6639
2430 4338
2430 5926
2430 6700
2430 7545
2431 2694
2432 4371
2433 2730
2433 2838
2433 4164
2433 4626
2433 6640
2434 3251
2434 3498
2434 3560
2434 4843
2434 6105
2434 6846
2434 7187
2434 7237
2435 5854
2435 5944
2436 3163
2436 3600
2438 6200
2439 3610
2439 5800
2440 5604
2441 2912
2441 7537
2442 3385
2442 3998
2442 5939
2442 7031
2443 2569
2443 3581
2444 2455
2444 3700
2444 3805
2446 3758
2447 7147
2448 3405
2448 6142
2448 7006
2449 3091
2449 3571
2450 2643
2450 3117
2450 6784
2451 3223
2451 5095
2451 5540
2451 6101
2451 6798
2452 2734
2452 3165
2452 3397
2452 3504
2452 3544
2452 3597
2452 3701
2452 4242
2452 4809
2452 4900
2452 5090
2452 5703
2452 6105
2453 2645
2453 6727
2454 4899
2455 2769
2455 3350
2455 3805
2455 5373
2456 2912
2456 3617
2456 5141
2456 5154
2456 6330
2456 6519
2456 7245
2456 7441
2457 5631
2458 2511
2458 4906
2458 5722
2458 5791
2458 6887
2458 7045
2459 6817
2460 7146
2461 3974
2462 5127
2463 3737
2463 4080
2464 4811
2465 4994
2467 2569
2467 2874
2467 4895
2468 2515
2468 2755
2468 2995
2468 3285
2468 4502
2468 4900
2468 5549
2468 7254
2469 6595
2470 2803
2470 3346
2470 4348
2470 4356
2470 4476
2470 4959
2470 4992
2470 5495
2470 6160
2470 6256
2470 6937
2470 7071
2470 7148
2470 7286
2472 5471
2472 6475
2472 6887
2473 3141
2473 3450
2473 4042
2473 4316
2473 5258
2473 5441
2473 5527
2473 6415
2473 6431
2473 7199
2473 7565
2474 2955
2474 4713
2474 4783
2474 5335
2474 6860
2476 2648
2476 2878
2476 3264
2476 3397
2476 5079
2476 5090
2476 5402
2476 5530
2476 5548
2476 5556
2476 5769
2476 5831
2476 6193
2476 6343
2476 6891
2476 7547
2476 7548
2477 6549
2478 2510
2478 2736
2479 3222
2479 5128
2480 3198
2480 7169
2481 3336
2481 6712
2482 3450
2482 3530
2482 5274
2483 3469
2483 5132
2483 6167
2484 4785
2485 6391
2485 7414
2486 4335
2487 2745
2488 2708
2488 3240
2488 3251
2488 4086
2488 5327
2488 6537
2489 6295
2490 5625
2491 3064
2492 2628
2492 5683
2492 5857
2492 6818
2493 4341
2494 4030
2494 4365
2494 5944
2496 6728
2497 4876
2497 6127
2497 7056
2498 3751
2498 4939
2498 5158
2498 5274
2498 6049
2498 6506
2498 7413
2499 3061
2499 4899
2499 6092
2499 6712
2500 6932
2501 4226
2501 4878
2501 5891
2501 6320
2501 6716
2501 7424
2502 4512
2502 6636
2503 5885
2504 2964
2504 4714
2504 5409
2504 6933
2505 3792
2507 2912
2507 4296
2507 5401
2507 6519
2508 2867
2508 4424
2509 5721
2510 2527
2510 2596
2510 2597
2510 2761
2510 2807
2510 2892
2510 2957
2510 3013
2510 3102
2510 3130
2510 3147
2510 3157
2510 3224
2510 3274
2510 3278
2510 3335
2510 3400
2510 3415
2510 3417
2510 3420
2510 3503
2510 3555
2510 3705
2510 3706
2510 3725
2510 3736
2510 3767
2510 3768
2510 3853
2510 3946
2510 3977
2510 4006
2510 4052
2510 4072
2510 4112
2510 4119
2510 4122
2510 4299
2510 4357
2510 4417
2510 4464
2510 4525
2510 4549
2510 4554
2510 4605
2510 4614
2510 4632
2510 4697
2510 4738
2510 4835
2510 4844
2510 4926
2510 5013
2510 5168
2510 5212
2510 5220
2510 5336
2510 5342
2510 5417
2510 5473
2510 5563
2510 5670
2510 5845
2510 6043
2510 6071
2510 6094
2510 6131
2510 6414
2510 6419
2510 6489
2510 6542
2510 6690
2510 6705
2510 6769
2510 6794
2510 6843
2510 6873
2510 6881
2510 6906
2510 7036
2510 7037
2510 7200
2510 7273
2510 7309
2510 7463
2510 7494
2510 7498
2510 7525
2510 7563
2511 2854
2511 4906
2511 6022
2511 7045
2512 4378
2512 4763
2513 2591
2513 3514
2513 3715
2513 3937
2513 4309
2513 6519
2514 3799
2514 4847
2514 5754
2515 3184
2515 3381
2515 3450
2515 3530
2515 4095
2515 4106
2515 4163
2515 4211
2515 4298
2515 4452
2515 4678
2515 5127
2515 5410
2515 5823
2515 6436
2515 6673
2515 6724
2515 6921
2515 7569
2515 7587
2516 2962
2517 3038
2517 7273
2518 4691
2518 5578
2520 3473
2520 4441
2520 4570
2520 5757
2521 4957
2521 6048
2521 6083
2522 6467
2523 4319
2524 2676
2524 3410
2524 4394
2524 4969
2524 5308
2524 6126
2524 6424
2524 6446
2525 5658
2526 3450
2528 2781
2529 4957
2529 6463
2530 4624
2530 6101
2530 6188
2530 6273
2531 3544
2532 3450
2532 3867
2532 5744
2532 7373
2534 6446
2534 7074
2535 3445
2535 3888
2535 4093
2536 4055
2536 6557
2537 4321
2538 3336
2538 3559
2538 7536
2539 4811
2540 5531
2541 3692
2541 4125
2541 5948
2541 6888
2542 4785
2543 3240
2543 4045
2543 6780
2544 5725
2546 4356
2547 5646
2547 6617
2548 6817
2548 7532
2549 6363
2549 7162
2549 7350
2550 3430
2550 5610
2551 5197
2551 5242
2551 6101
2551 6107
2552 2669
2552 3080
2552 4124
2553 2691
2554 4234
2556 3471
2556 4353
2557 3119
2557 4938
2558 3084
2559 3006
2559 6070
2559 6207
2560 2940
2560 3493
2560 5066
2560 5127
2560 5258
2560 6774
2561 4182
2561 5233
2561 6001
2562 3066
2562 3966
2563 2926
2564 3414
2564 4329
2564 4687
2564 5578
2566 3279
2566 3497
2566 4846
2566 5095
2566 6101
2566 7074
2567 2758
2568 2902
2569 2713
2569 2866
2569 3073
2569 3581
2569 5487
2569 6258
2570 4393
2570 4763
2571 3240
2571 3387
2571 3397
2571 3566
2571 3597
2571 3659
2571 5090
2571 5097
2571 6105
2571 6234
2571 7075
2572 3261
2572 3486
2572 3909
2573 6917
2574 5128
2574 5751
2575 2707
2576 4359
2576 5956
2577 6712
2577 7208
2578 5914
2579 5274
2580 3221
2580 6813
2580 6827
2580 6990
2580 7080
2581 4937
2582 3833
2583 2713
2583 2786
2583 3039
2583 3530
2583 3693
2583 5007
2583 5274
2584 2757
2585 3530
2586 2944
2586 3469
2586 3564
2586 3920
2586 5654
2586 5872
2586 5962
2586 6167
2586 6476
2586 6757
2586 6942
2586 7334
2586 7410
2587 2615
2587 4156
2588 6101
2589 2713
2589 2902
2589 3758
2589 4344
2589 5837
2589 5949
2589 6120
2591 2707
2591 3107
2591 4309
2591 4607
2591 5335
2591 5343
2591 5710
2591 5861
2591 5905
2591 5963
2591 6013
2591 6519
2591 6621
2592 5943
2593 2755
2594 6639
2595 4033
2596 2707
2596 5159
2598 6186
2599 3654
2599 5260
2599 6453
2599 7071
2600 2854
2600 3007
2600 3080
2600 3298
2600 3912
2600 4082
2600 4416
2600 4680
2600 5579
2600 5804
2600 6101
2600 6373
2600 6583
2600 6817
2602 6963
2604 5427
2605 5770
2606 3655
2606 4755
2607 4303
2607 5151
2607 5370
2607 7237
2607 7282
2609 3450
2609 5454
2609 7564
2610 3791
2610 6232
2612 3272
2613 5623
2614 2789
2614 4904
2614 5857
2614 6152
2614 6810
2614 6958
2615 2709
2615 2835
2615 2953
2615 2982
2615 3056
2615 3557
2615 3664
2615 3694
2615 4156
2615 4396
2615 4666
2615 4770
2615 4904
2615 5478
2615 5857
2615 6215
2615 6217
2615 6584
2615 6712
2615 6752
2615 6958
2615 7106
2615 7141
2615 7161
2615 7360
2615 7454
2616 3341
2616 4561
2616 5768
2617 4110
2617 5449
2617 5463
2617 5518
2617 5725
2617 6068
2618 3658
2619 6493
2620 2710
2621 3947
2622 4469
2623 3826
2623 4151
2624 3163
2624 3854
2624 4139
2624 4338
2624 4466
2624 4673
2624 4781
2624 4880
2624 6358
2624 6375
2624 6847
2624 7497
2626 2797
2626 3384
2626 5455
2626 5457
2626 5929
2626 6252
2626 6446
2626 6479
2626 7435
2628 3399
2628 5174
2628 5795
2629 5751
2629 5876
2630 2669
2630 6200
2631 3528
2631 3948
2631 5370
2631 6786
2632 5337
2633 3469
2634 4106
2634 5680
2634 5935
2636 5514
2636 7357
2637 2974
2637 3103
2637 3583
2637 4147
2637 4162
2637 4503
2637 4882
2637 6110
2637 6113
2637 6238
2637 6323
2637 6544
2637 6567
2637 6972
2637 7100
2638 4759
2638 6326
2639 3271
2639 3739
2639 3888
2639 4081
2639 5702
2639 5949
2639 5975
2639 6431
2639 6617
2640 3530
2641 2744
2641 3530
2641 3900
2641 4163
2641 5859
2643 3325
2644 2673
2644 3240
2644 3701
2644 5327
2644 5370
2644 5854
2644 6156
2644 6369
2644 6553
2644 6633
2644 7237
2645 5463
2645 6727
2645 7283
2646 7317
2647 2928
2647 3592
2647 4900
2647 5869
2648 3108
2648 3498
2648 4306
2648 5944
2648 7237
2649 4250
2649 6341
2651 5584
2652 6916
2653 5516
2654 3172
2656 5099
2656 6459
2659 2738
2659 3845
2659 3855
2659 4126
2659 5236
2659 5324
2659 5610
2662 4897
2663 4612
2663 5872
2663 7215
2665 3048
2666 2673
2666 6552
2667 4992
2668 3766
2668 6712
2669 5578
2670 2798
2670 3745
2670 4021
2670 4044
2670 4638
2670 5413
2670 5703
2670 6090
2672 3038
2672 3341
2672 7527
2673 2798
2673 3251
2673 3743
2673 3948
2673 5462
2673 6633
2673 6654
2673 6797
2673 7253
2674 2711
2675 7029
2676 3410
2676 3842
2676 4969
2676 4994
2676 5455
2676 5457
2676 5600
2676 5828
2676 5867
2676 6424
2676 6446
2676 6544
2676 6924
2678 5436
2680 7386
2681 6946
2683 3077
2684 6556
2686 3616
2686 4460
2687 7329
2688 5127
2689 5845
2689 5901
2690 3341
2691 3018
2691 3759
2691 4428
2691 4933
2691 5050
2691 5668
2691 6180
2691 6256
2691 6941
2691 7101
2691 7258
2692 3795
2693 3673
2693 6126
2693 7235
2694 3038
2694 3360
2694 3555
2694 4000
2694 4034
2694 4350
2694 5497
2694 6115
2694 6794
2695 4028
2695 4855
2697 6432
2699 3184
2699 3450
2699 3530
2699 4163
2699 4270
2699 5127
2699 5513
2700 4162
2700 4743
2700 6101
2703 4149
2703 5268
2703 5386
2703 7004
2704 3867
2705 4689
2705 5641
2705 6478
2706 2948
2706 6190
2706 7086
2707 3130
2707 3263
2707 3335
2707 3483
2707 3495
2707 3779
2707 4061
2707 4119
2707 4238
2707 4309
2707 4382
2707 4554
2707 4611
2707 4632
2707 4677
2707 4925
2707 4999
2707 5011
2707 5030
2707 5501
2707 5597
2707 5656
2707 6330
2707 6860
2707 7032
2707 7246
2707 7352
2707 7464
2708 4795
2708 6018
2709 5643
2710 4941
2710 5789
2710 7178
2710 7587
2711 2730
2711 2740
2711 2838
2711 2917
2711 2976
2711 3604
2711 3707
2711 3897
2711 4104
2711 4164
2711 5318
2711 6598
2711 7287
2711 7468
2711 7475
2712 5461
2713 5274
2713 5404
2713 5411
2713 5557
2713 6418
2713 6463
2713 6627
2713 6673
2713 6840
2713 7070
2713 7308
2713 7332
2713 7595
2715 3400
2715 4990
2716 6153
2717 3199
2717 6088
2718 4580
2719 3571
2719 3811
2719 5095
2719 6129
2720 3107
2721 4359
2722 6252
2723 3942
2723 4822
2723 4976
2723 6165
2723 6444
2724 3701
2724 5402
2725 2734
2725 3218
2725 3240
2725 3597
2725 4883
2725 4900
2725 5079
2725 5090
2725 5124
2725 5146
2725 5402
2725 5530
2725 5548
2725 6391
2725 6695
2725 6789
2725 6792
2725 7237
2725 7398
2726 3633
2727 3389
2727 4329
2727 5443
2727 6396
2728 6339
2729 3538
2729 6399
2730 3115
2730 3323
2730 3550
2730 4164
2730 4356
2730 4888
2730 6255
2730 6640
2730 7287
2730 7468
2730 7579
2731 7329
2732 5857
2732 5893
2733 2961
2733 3565
2733 3817
2734 2798
2734 2847
2734 3108
2734 3165
2734 3597
2734 3644
2734 4377
2734 4754
2734 4967
2734 4979
2734 5090
2734 5124
2734 5388
2734 5479
2734 5769
2734 6146
2734 6403
2734 6789
2734 6792
2734 7226
2734 7398
2734 7548
2735 7583
2738 3424
2738 3440
2738 3855
2738 4701
2738 4887
2738 6363
2738 6964
2738 7352
2739 6703
2740 3897
2741 3323
2741 3604
2741 4356
2741 6640
2742 4555
2742 4858
2742 6905
2742 7601
2743 2887
2743 4000
2744 2755
2744 2897
2744 3530
2744 4125
2744 4163
2744 4876
2744 5127
2744 5216
2744 5315
2744 6534
2744 6888
2744 7254
2744 7602
2745 3080
2745 3103
2745 3315
2745 3452
2745 3714
2745 3817
2745 4272
2745 5095
2745 5186
2745 6101
2745 6400
2745 6567
2745 6732
2746 6891
2747 2800
2747 3082
2747 3548
2747 5377
2747 6362
2748 2818
2749 4839
2750 4039
2751 3690
2751 4280
2751 4624
2751 4993
2751 6446
2752 4825
2752 6242
2753 6341
2753 6936
2753 7148
2754 2854
2755 2995
2755 3285
2755 3450
2755 4211
2756 6541
2757 3318
2757 3811
2757 3932
2758 3005
2758 5675
2758 6623
2758 6814
2758 7604
2759 4000
2759 6250
2759 6759
2760 4900
2761 3038
2761 3157
2761 3431
2761 3463
2761 3706
2761 4774
2761 5168
2761 5563
2763 6333
2763 6467
2765 5268
2765 6194
2766 4785
2768 4338
2768 4671
2770 3143
2771 2943
2771 4890
2771 6292
2773 3342
2774 7589
2775 2805
2775 3450
2775 3790
2775 4163
2775 5862
2775 7026
2775 7317
2775 7610
2776 5060
2776 6119
2777 5184
2778 5157
2780 7402
2781 6446
2781 6672
2781 6776
2782 3470
2782 4695
2782 7225
2783 6884
2784 7588
2786 3066
2787 2892
2787 3038
2787 3042
2787 3400
2787 3853
2787 4000
2787 4247
2787 5526
2787 5597
2787 7123
2787 7339
2788 3390
2788 3589
2788 3596
2788 6777
2790 2934
2790 3377
2790 3502
2790 4860
2790 4904
2790 5857
2790 5928
2790 7001
2791 3968
2791 5582
2791 5694
2791 6326
2791 6870
2791 7237
2792 5128
2792 6530
2794 6515
2795 4241
2797 6462
2798 2825
2798 2949
2798 3125
2798 3161
2798 3240
2798 3597
2798 3644
2798 3701
2798 3948
2798 4003
2798 4198
2798 4373
2798 4891
2798 4967
2798 5062
2798 5079
2798 5082
2798 5369
2798 5688
2798 5934
2798 6130
2798 6142
2798 6168
2798 6193
2798 6369
2798 6666
2798 6789
2798 6797
2798 6891
2798 7237
2798 7375
2798 7490
2798 7547
2799 3755
2799 5322
2799 5638
2800 3079
2800 4512
2800 5303
2800 6636
2801 4785
2802 3482
2803 3346
2803 3534
2803 4167
2803 7071
2803 7550
2804 4680
2805 2913
2805 2995
2805 3477
2805 4284
2805 5541
2805 5911
2805 7160
2806 6884
2807 3767
2807 6794
2808 3450
2808 5274
2808 5454
2808 6195
2808 7610
2809 3457
2809 4408
2809 7592
2813 6173
2814 3097
2814 5461
2814 5724
2814 6168
2814 7499
2816 3544
2816 4348
2817 7327
2818 4461
2818 5334
2818 5401
2818 5606
2818 5768
2818 6519
2819 6415
2820 5911
2821 3983
2821 6974
2822 6817
2823 3530
2824 7602
2826 4606
2826 4728
2826 4931
2828 3715
2829 3450
2830 7028
2831 5010
2831 5489
2831 6134
2832 2972
2832 3247
2832 5876
2832 6566
2832 7015
2832 7162
2833 4379
2833 7348
2834 4040
2834 4285
2834 4322
2834 6710
2834 6859
2835 2933
2835 3213
2835 3390
2835 3399
2835 3502
2835 3971
2835 4723
2835 4893
2835 4904
2835 5047
2835 5848
2835 5857
2835 5988
2835 6001
2835 6298
2835 6565
2835 6712
2835 7001
2835 7406
2836 2991
2836 3006
2836 3809
2836 6207
2837 4277
2838 3584
2838 3604
2838 3897
2838 4164
2838 4358
2838 4626
2838 4888
2838 5318
2838 5647
2838 6640
2838 6652
2838 6731
2838 7287
2838 7475
2838 7579
2839 6402
2839 7207
2840 3450
2840 3530
2840 3667
2840 4765
2840 4880
2840 5060
2840 6847
2840 6955
2841 2941
2841 4785
2842 3497
2843 3384
2843 5578
2843 6269
2843 6339
2843 6446
2843 6734
2843 7435
2844 3687
2844 6399
2844 6530
2844 7028
2845 6960
2846 3198
2846 5536
2846 5854
2846 5944
2846 6361
2846 6554
2847 4759
2847 5944
2848 2977
2848 3047
2848 3597
2848 4365
2848 4919
2848 5536
2848 5556
2848 5831
2848 5854
2848 6031
2848 6205
2848 6236
2848 6552
2848 6870
2848 7237
2849 4003
2850 5578
2850 6731
2850 7113
2851 3793
2851 5268
2852 6062
2854 2888
2854 3010
2854 3124
2854 3240
2854 3275
2854 3330
2854 3547
2854 3587
2854 3619
2854 3626
2854 3914
2854 3928
2854 4039
2854 4189
2854 4338
2854 4365
2854 4392
2854 4411
2854 4483
2854 4501
2854 4575
2854 4590
2854 4690
2854 4738
2854 4995
2854 5120
2854 5133
2854 5137
2854 5234
2854 5319
2854 5447
2854 5454
2854 5489
2854 5516
2854 5799
2854 5817
2854 5933
2854 6022
2854 6023
2854 6041
2854 6121
2854 6172
2854 6214
2854 6460
2854 6537
2854 6644
2854 6651
2854 6684
2854 6826
2854 6914
2854 6978
2854 7035
2854 7229
2854 7305
2854 7366
2854 7396
2854 7551
2855 3016
2855 6903
2856 7135
2857 6004
2858 5769
2858 6870
2858 7237
2859 6617
2860 2944
2861 7502
2862 2895
2863 3822
2863 3855
2863 6529
2863 6808
2863 7159
2864 3103
2864 3414
2864 3672
2864 3911
2864 4491
2864 5108
2864 5600
2864 6016
2864 6111
2864 6446
2864 6802
2864 7225
2865 3251
2865 6296
2867 4089
2867 4929
2868 2908
2868 2973
2868 3310
2868 6344
2868 6893
2869 4811
2870 4841
2870 4967
2870 5176
2871 6221
2872 3751
2872 6279
2874 3666
2874 5274
2874 5411
2875 5370
2876 3108
2876 3597
2876 3644
2876 4665
2876 5079
2876 7237
2877 7109
2878 3240
2878 3498
2878 4809
2878 4883
2878 5090
2878 5769
2878 5831
2878 5944
2878 6105
2878 6141
2878 6789
2878 7226
2878 7237
2878 7398
2879 4367
2879 7094
2880 4383
2880 6246
2880 7340
2881 5478
2881 6194
2883 6971
2884 5857
2886 5836
2887 4000
2887 6514
2889 5725
2889 6339
2889 6882
2890 4777
2890 5427
2890 5677
2890 6536
2891 4162
2891 5463
2891 5553
2892 3038
2892 3042
2892 3157
2892 3162
2892 3224
2892 3352
2892 3653
2892 3725
2892 3747
2892 3836
2892 3937
2892 3945
2892 3990
2892 4000
2892 4350
2892 4614
2892 4763
2892 4961
2892 4990
2892 5013
2892 5168
2892 5212
2892 5326
2892 5328
2892 5405
2892 5497
2892 5526
2892 5579
2892 5670
2892 6115
2892 6490
2892 6787
2892 7224
2892 7237
2892 7498
2892 7608
2893 3450
2893 5528
2894 4783
2894 4785
2896 2936
2896 2938
2896 3296
2896 3606
2896 4187
2896 5065
2896 5277
2896 5526
2896 5925
2896 6378
2896 6575
2897 2967
2897 3285
2897 3530
2897 3818
2897 3829
2897 3873
2897 3900
2897 4125
2897 4163
2897 4270
2897 4536
2897 5098
2897 5636
2897 5687
2897 6054
2897 6057
2897 6157
2897 6888
2897 7254
2897 7488
2898 3162
2899 4455
2899 5455
2899 5463
2899 6446
2899 7435
2900 3737
2902 3021
2902 3955
2902 5340
2902 5855
2902 6744
2903 5206
2905 4393
2905 4747
2905 5579
2906 3602
2906 5832
2907 5642
2908 2988
2908 4338
2908 5441
2909 4785
2910 3060
2910 3277
2910 4152
2910 5595
2910 5706
2911 5455
2912 4999
2912 6519
2912 6583
2912 6656
2912 7266
2913 3267
2914 4735
2914 4811
2914 5735
2914 6572
2914 7378
2915 4359
2917 5574
2917 6877
2918 3470
2918 6880
2919 6519
2920 4811
2921 5449
2922 4650
2923 4785
2924 5540
2925 3445
2926 5274
2928 3459
2928 3499
2928 3544
2928 3597
2928 4900
2928 5479
2928 5703
2928 5854
2929 5370
2930 4160
2930 5910
2930 6636
2931 5899
2931 7100
2932 5277
2932 6755
2933 3377
2933 4899
2933 5047
2933 5174
2933 5575
2933 5857
2933 6217
2933 6818
2933 7001
2933 7141
2935 6542
2938 3757
2938 4374
2938 5065
2939 3861
2939 5265
2939 6929
2941 5335
2941 6925
2942 3544
2942 7198
2943 4111
2943 4671
2943 4890
2943 6292
2944 2998
2944 3005
2944 3347
2944 5654
2944 5675
2944 6476
2944 7334
2944 7604
2945 7173
2946 6633
2947 3781
2950 3714
2951 3960
2951 5646
2951 7110
2951 7320
2952 3813
2952 5192
2952 6107
2953 7315
2954 4751
2954 5323
2955 3281
2955 3622
2955 6519
2955 6597
2957 4496
2958 5536
2959 2987
2959 4900
2959 5020
2959 6979
2960 6392
2961 4846
2961 6101
2961 7084
2961 7240
2963 3416
2964 3724
2964 6817
2965 5060
2965 6138
2965 6560
2966 3428
2966 4929
2966 5270
2966 6088
2966 6297
2967 3295
2967 3530
2967 7056
2968 7519
2970 3378
2970 3444
2971 3325
2971 4446
2972 3158
2972 3437
2972 3822
2972 5277
2972 6593
2972 7352
2973 3905
2973 4023
2973 4291
2973 4414
2973 4662
2973 6893
2973 7098
2974 4071
2974 5006
2974 5267
2974 7100
2976 6712
2977 4271
2977 5817
2978 3873
2978 5245
2979 3103
2979 3770
2979 5895
2980 3130
2980 3644
2980 5388
2980 6649
2980 7012
2980 7075
2980 7237
2980 7425
2980 7529
2980 7558
2981 5510
2982 3647
2982 4606
2982 5857
2982 5988
2982 6958
2982 7001
2983 5377
2984 6851
2984 7295
2985 2991
2985 3632
2985 3809
2985 4636
2985 4657
2985 5378
2985 6408
2985 6458
2986 2995
2986 7595
2987 4900
2988 3646
2988 3666
2988 4262
2988 4302
2988 4471
2988 4637
2988 4995
2988 5007
2988 5353
2988 5441
2988 5646
2988 5653
2988 6896
2988 6966
2988 7030
2989 3127
2989 4318
2989 5851
2990 6474
2991 3006
2991 3129
2991 3632
2991 3809
2991 4636
2991 5847
2991 7615
2992 3172
2992 3744
2992 4341
2992 5816
2993 3972
2993 4102
2994 3530
2994 3873
2994 4319
2994 5127
2994 5410
2994 5464
2994 6095
2994 6114
2994 6218
2994 6468
2994 6599
2994 6946
2994 7089
2994 7602
2995 3216
2995 3285
2995 3295
2995 4433
2995 4502
2995 5127
2995 5636
2995 5859
2995 5862
2995 6955
2995 7142
2995 7602
2996 3953
2996 4443
2996 4806
2996 5848
2996 6175
2996 7296
2997 7381
2998 3469
2998 3564
2998 4544
2998 5178
2998 5875
2998 6167
2998 6271
2998 6379
2998 6476
2998 7334
2998 7604
2998 7623
2999 3956
3000 6688
3001 7605
3002 5941
3003 7339
3004 7078
3005 3362
3005 3865
3005 3920
3005 4175
3005 6201
3005 7623
3006 3093
3006 3424
3006 3632
3006 4478
3006 4636
3006 5420
3006 6070
3008 4128
3009 3705
3009 5101
3009 6870
3010 4365
3012 6272
3013 5513
3013 7558
3014 4338
3014 7226
3015 7268
3016 3110
3016 5233
3016 5640
3017 7322
3017 7557
3018 5668
3020 4085
3020 4257
3020 6436
3020 6617
3020 6919
3020 7614
3021 6083
3022 3125
3022 3154
3022 3317
3022 3367
3022 3462
3022 3948
3022 4528
3022 4900
3022 5147
3022 5866
3022 6478
3023 3544
3023 4994
3023 5561
3024 6101
3024 6434
3025 5278
3026 3963
3028 3530
3029 3073
3030 4527
3030 7224
3032 3334
3032 5866
3033 5447
3035 3966
3036 5610
3037 5127
3038 3042
3038 3194
3038 3228
3038 3352
3038 3400
3038 3555
3038 3679
3038 3945
3038 4035
3038 4112
3038 4350
3038 4366
3038 4390
3038 4393
3038 4804
3038 4955
3038 4961
3038 5015
3038 5171
3038 5326
3038 5334
3038 5497
3038 5579
3038 6025
3038 6089
3038 6094
3038 6477
3038 6682
3038 6706
3038 6787
3038 6832
3038 7200
3038 7443
3038 7498
3038 7608
3039 3650
3039 4261
3039 4307
3039 4387
3039 4811
3039 5028
3039 5127
3039 5274
3039 5555
3039 5633
3039 5634
3039 5701
3039 5864
3039 5935
3039 6258
3039 6431
3039 6436
3039 6478
3039 7595
3040 6593
3041 4785
3041 7151
3042 3121
3042 3360
3042 3400
3042 3747
3042 3853
3042 4000
3042 4122
3042 5220
3042 5510
3042 5597
3042 6094
3042 7123
3042 7224
3042 7339
3043 5345
3044 4528
3044 4607
3044 5831
3044 7305
3045 3564
3045 3599
3045 5188
3045 5347
3045 6379
3045 7014
3045 7334
3047 3240
3047 3251
3047 3294
3047 3597
3047 3688
3047 5556
3047 6031
3047 6234
3047 6789
3047 6895
3047 7237
3047 7282
3048 4338
3049 4307
3050 4785
3051 6757
3052 4033
3054 3091
3055 6478
3056 3448
3056 3559
3056 3584
3056 4356
3056 4931
3056 5174
3056 5761
3056 5824
3056 5857
3056 5988
3056 6073
3056 6217
3056 6455
3056 6712
3056 6752
3056 7059
3060 4693
3060 4740
3060 5527
3060 6549
3061 5355
3062 3589
3063 7284
3064 3637
3065 6855
3066 4257
3068 5201
3069 7540
3070 4760
3070 4965
3071 5274
3071 7508
3073 3258
3073 3737
3073 3751
3073 5065
3073 6177
3073 6368
3073 6589
3073 6943
3073 7021
3073 7146
3074 3628
3074 6711
3075 3136
3075 5876
3075 6378
3075 7162
3076 5951
3077 3466
3077 4338
3077 5180
3077 5483
3077 6028
3077 6211
3077 6335
3078 7339
3079 3382
3079 5968
3079 6180
3079 7340
3080 3103
3080 3497
3080 3620
3080 3636
3080 3689
3080 3714
3080 3726
3080 3813
3080 3932
3080 4432
3080 4455
3080 4800
3080 5095
3080 5108
3080 5445
3080 6002
3080 6012
3080 6101
3080 6672
3080 7173
3080 7411
3081 3251
3081 3262
3081 4891
3081 4900
3081 6142
3081 7237
3081 7398
3082 4154
3082 4384
3083 3632
3083 5454
3083 6427
3083 6876
3084 3432
3084 3496
3084 5060
3084 6683
3084 7255
3086 4211
3086 5078
3086 5511
3086 5570
3086 5862
3086 7602
3087 4155
3087 4719
3087 5856
3087 6365
3087 6582
3088 4432
3088 6122
3089 3632
3090 5387
3090 5564
3092 4744
3093 3856
3093 4269
3093 4359
3093 4563
3093 4636
3093 5420
3093 6852
3093 7350
3094 5049
3095 4163
3095 4502
3095 5127
3095 6955
3095 7457
3096 4338
3096 5241
3096 5587
3097 3462
3097 3757
3097 3853
3097 4330
3097 4999
3097 5048
3097 6529
3097 7162
3098 5037
3099 3201
3099 4409
3100 3582
3100 5372
3101 5974
3102 3269
3103 3279
3103 3714
3103 3722
3103 3817
3103 3932
3103 4147
3103 4228
3103 4248
3103 4280
3103 4595
3103 4756
3103 4786
3103 4814
3103 4994
3103 5108
3103 5207
3103 5455
3103 5457
3103 5468
3103 5578
3103 6002
3103 6016
3103 6069
3103 6273
3103 6323
3103 6339
3103 6367
3103 6446
3103 6567
3103 7001
3103 7074
3103 7231
3103 7237
3104 4039
3105 3212
3105 3514
3105 4632
3105 4785
3105 4986
3105 7472
3106 4124
3106 4806
3107 3515
3107 5454
3107 6165
3108 3240
3108 3334
3108 3504
3108 4086
3108 4843
3108 5090
3108 5124
3108 5257
3108 5530
3108 5556
3108 5703
3108 5769
3108 6105
3108 6296
3108 6391
3108 6654
3108 6891
3108 7237
3108 7398
3110 5233
3110 6446
3111 6250
3112 4599
3112 6567
3112 7216
3113 4900
3115 4356
3117 3176
3117 5208
3117 6784
3118 6161
3118 6442
3119 4426
3119 6874
3119 7559
3120 3564
3120 3599
3120 5765
3120 6155
3120 6476
3120 7405
3121 3341
3121 3360
3121 4000
3121 7224
3122 7497
3123 3625
3123 6368
3125 3757
3127 3345
3127 3412
3127 4318
3127 4370
3127 5152
3127 5508
3127 5764
3127 5851
3127 6911
3128 3833
3128 5010
3128 6134
3128 6207
3128 6408
3128 6458
3128 6593
3128 6967
3129 3138
3129 3632
3130 3514
3130 3779
3130 4039
3130 4119
3130 4145
3130 4398
3130 4607
3130 4986
3130 5159
3130 5829
3130 6035
3130 6330
3130 6454
3130 6491
3130 6860
3130 7209
3130 7507
3131 5136
3131 5384
3131 6477
3132 4616
3134 5330
3134 5610
3136 3430
3136 4330
3136 4704
3136 4856
3136 5790
3136 5832
3136 5876
3136 6004
3136 6065
3136 6378
3137 3661
3137 4706
3137 5177
3137 5659
3137 6042
3138 3181
3138 3632
3138 4636
3138 5001
3139 7450
3140 7162
3141 4217
3141 5026
3141 6415
3143 4338
3144 3584
3145 3594
3145 4967
3145 6558
3145 7375
3146 3956
3147 4955
3147 5733
3149 3572
3150 5006
3152 3401
3153 4068
3153 5710
3154 3948
3154 4528
3154 6633
3155 4330
3155 5277
3155 6329
3155 6378
3155 7352
3156 6496
3157 3769
3158 3822
3158 5215
3158 5236
3158 5610
3158 5876
3158 6266
3158 6305
3158 7581
3159 4955
3160 3680
3161 3701
3161 6891
3161 7237
3162 3360
3162 3400
3162 3990
3162 4928
3162 5475
3162 6261
3162 6851
3162 7224
3162 7498
3163 4206
3163 6046
3163 6058
3164 6867
3165 3397
3165 4242
3165 4809
3165 4900
3165 5090
3165 5269
3165 5530
3165 5548
3165 6108
3165 6391
3165 6792
3165 7226
3165 7237
3166 5561
3167 3991
3168 3696
3169 4033
3169 4148
3169 4929
3169 5244
3171 7237
3172 3321
3172 4341
3172 5516
3173 4301
3173 5580
3173 6241
3173 7502
3177 3461
3178 5631
3178 7052
3179 5376
3180 4033
3180 4941
3181 3542
3181 3851
3181 3994
3181 4284
3181 4511
3181 4720
3181 4898
3181 4916
3181 5391
3181 5536
3181 5543
3181 5726
3181 6174
3181 6427
3181 6441
3181 6648
3181 6824
3181 7141
3181 7260
3182 7153
3184 3450
3184 3530
3184 3883
3184 3900
3184 4319
3184 4385
3184 4425
3184 4452
3184 4832
3184 5127
3184 5599
3184 6955
3184 7488
3185 3833
3185 4757
3185 7558
3186 7199
3187 6519
3188 3450
3188 4889
3189 3381
3189 4298
3189 5274
3189 5534
3189 6938
3189 7448
3190 3972
3190 4531
3191 5962
3192 3653
3192 3937
3192 4908
3193 4031
3195 4068
3195 4785
3197 7032
3197 7211
3198 4335
3198 4557
3198 4908
3198 5854
3199 6088
3200 6421
3202 3628
3202 4785
3203 4880
3204 5610
3207 3507
3207 4845
3208 3544
3208 6147
3209 5355
3210 3433
3210 3833
3210 4208
3210 4657
3210 5454
3210 5790
3210 5956
3210 5993
3210 6134
3210 6419
3210 6432
3210 6566
3211 5240
3211 6523
3212 4852
3212 7472
3213 3694
3213 5988
3213 6752
3213 7064
3214 3672
3214 5532
3215 3647
3215 6319
3216 3667
3216 3895
3216 4163
3216 5127
3216 7093
3217 4000
3217 6678
3218 7237
3220 5634
3221 3435
3221 3571
3221 3850
3221 3962
3221 4078
3221 4327
3221 4534
3221 4589
3221 5292
3221 7080
3222 3450
3222 4254
3223 3680
3223 3932
3223 4624
3223 5112
3223 5540
3223 6323
3223 6586
3223 7100
3224 3768
3224 3853
3224 5220
3225 3625
3225 3991
3225 4042
3225 7528
3227 4033
3227 4130
3227 4555
3227 4600
3227 5173
3227 5254
3227 6190
3227 6235
3227 6836
3227 7086
3228 3400
3228 5597
3229 4187
3230 3469
3230 3920
3230 3926
3231 5224
3231 6755
3232 4470
3233 4819
3233 7390
3234 3855
3234 5240
3234 6411
3235 7019
3237 4177
3239 3679
3239 3862
3239 4527
3239 5717
3240 3256
3240 3504
3240 3544
3240 3613
3240 3869
3240 4069
3240 4086
3240 4281
3240 4325
3240 4754
3240 4809
3240 4843
3240 4900
3240 4910
3240 5090
3240 5124
3240 5332
3240 5402
3240 5403
3240 5530
3240 5548
3240 5703
3240 5854
3240 5915
3240 5944
3240 6036
3240 6361
3240 6369
3240 6391
3240 6403
3240 6681
3240 6792
3240 6870
3240 7075
3240 7226
3240 7282
3240 7284
3241 4811
3241 7332
3242 5842
3244 6649
3244 6891
3244 7237
3245 3921
3245 5646
3245 6421
3246 4223
3246 4274
3247 3786
3247 3822
3247 5102
3247 5277
3247 5820
3247 6593
3247 7162
3248 4855
3249 4031
3249 4114
3249 5389
3249 5463
3250 6495
3251 3597
3251 3878
3251 4556
3251 5332
3251 5388
3251 5536
3251 5556
3251 5559
3251 5564
3251 5831
3251 5854
3251 5944
3251 6031
3251 6234
3251 6236
3251 6552
3251 6607
3251 6697
3251 6797
3251 6931
3251 7187
3251 7237
3251 7460
3251 7490
3252 4053
3253 5793
3253 6912
3254 6405
3257 5169
3258 4631
3258 6101
3259 4958
3259 7085
3260 5246
3260 6303
3260 6493
3262 7237
3263 7028
3264 3657
3264 5817
3264 6343
3264 7237
3265 4076
3265 5586
3265 6190
3266 4087
3266 5790
3266 6207
3266 7162
3267 4354
3267 4420
3268 5908
3269 3360
3269 6705
3269 7498
3270 6101
3272 3612
3272 4785
3273 3330
3273 4929
3273 7163
3279 4141
3279 5095
3279 5485
3280 5454
3281 4238
3281 4785
3281 5664
3281 6330
3281 6519
3282 3599
3282 4544
3282 4612
3282 5347
3282 6379
3282 6757
3282 7405
3282 7604
3283 4335
3285 4502
3285 6921
3285 7254
3285 7368
3286 7237
3287 5775
3288 6436
3289 7237
3290 5280
3291 4476
3291 4959
3291 7071
3293 4008
3293 4455
3293 6446
3293 6877
3294 6552
3294 7237
3295 3530
3295 4319
3296 3855
3296 6903
3296 7162
3296 7352
3299 5740
3300 5195
3302 5725
3302 6446
3303 3571
3303 4589
3303 5396
3303 5930
3304 3951
3305 3684
3305 3877
3305 5158
3305 6646
3305 6927
3308 3336
3308 4640
3309 4847
3309 6241
3309 6262
3311 4886
3311 5208
3312 5065
3313 6966
3314 3463
3314 3736
3314 4738
3314 6477
3314 6903
3314 7061
3315 4357
3315 5463
3315 6060
3316 5169
3317 5370
3317 5706
3317 6241
3317 6478
3317 6664
3318 3663
3318 3811
3318 3932
3320 5812
3320 5884
3323 7579
3325 3793
3325 4105
3325 4546
3327 4034
3327 5854
3327 6051
3327 7442
3328 5807
3329 4344
3330 3552
3330 3812
3330 4033
3330 4319
3330 4341
3330 4475
3330 4555
3330 4929
3330 5450
3330 5516
3330 6259
3330 7009
3330 7262
3331 4452
3331 5410
3331 6809
3332 5543
3333 3499
3333 3597
3333 5854
3334 3948
3334 5269
3334 5369
3334 5564
3334 5729
3334 6391
3335 3511
3335 5583
3336 4180
3336 6073
3336 6321
3336 6616
3336 6712
3337 7237
3338 3597
3338 5402
3338 6789
3338 7398
3339 6984
3339 7553
3340 5200
3341 3360
3341 3394
3341 3400
3341 3603
3341 3826
3341 3937
3341 4151
3341 4523
3341 4561
3341 4928
3341 5099
3341 5334
3341 5405
3341 5811
3341 6445
3341 6514
3341 7083
3341 7165
3341 7237
3341 7574
3342 3438
3342 3505
3342 3533
3342 3873
3342 4206
3342 5127
3342 5274
3342 6648
3342 7423
3344 3373
3344 3382
3344 4627
3344 5814
3344 7571
3345 5764
3345 5851
3346 4155
3346 4476
3346 4673
3346 4992
3346 5495
3346 7474
3347 5675
3347 6476
3348 4466
3348 4762
3348 5128
3348 5646
3348 7600
3349 3389
3349 3421
3349 5583
3349 5725
3350 4022
3350 4023
3350 5072
3350 7098
3350 7233
3352 3360
3352 4000
3352 4366
3352 4990
3352 7123
3352 7177
3354 6942
3355 6208
3357 6463
3358 4019
3358 5508
3358 5851
3358 6911
3359 4329
3359 5440
3359 5578
3359 6175
3359 6773
3360 3361
3360 3400
3360 3555
3360 3653
3360 3725
3360 3747
3360 3836
3360 3853
3360 3937
3360 4119
3360 4122
3360 4151
3360 4554
3360 4561
3360 4785
3360 4961
3360 5220
3360 5326
3360 5336
3360 5526
3360 5606
3360 6787
3360 6873
3360 7123
3360 7339
3360 7498
3361 3400
3361 3747
3361 4000
3361 4337
3361 5168
3361 5597
3361 6003
3364 4167
3364 4348
3364 5260
3365 3459
3365 5890
3365 7580
3367 3948
3367 4312
3367 5370
3367 7611
3368 3437
3368 5277
3368 7046
3369 4811
3370 4490
3370 4493
3370 7044
3371 3632
3371 4359
3372 4416
3373 5179
3374 3861
3374 5042
3374 5069
3374 5302
3375 4279
3375 4929
3377 3502
3377 3557
3377 4180
3377 4749
3377 4893
3377 5857
3377 6217
3377 6818
3377 7141
3379 4157
3379 5126
3379 5476
3379 7146
3380 3751
3380 4811
3380 7053
3381 3450
3381 3530
3381 3544
3381 3807
3381 4163
3381 4452
3381 4678
3381 4726
3381 4989
3381 5127
3381 5202
3381 5598
3381 5663
3381 5823
3381 5948
3381 5969
3381 6112
3381 6245
3381 6638
3381 6673
3381 6888
3381 7366
3381 7385
3381 7569
3381 7587
3382 4766
3382 5968
3383 6316
3385 3998
3385 5939
3386 3929
3387 3896
3387 5866
3387 5944
3387 6105
3387 6391
3388 4785
3389 3690
3389 4147
3389 4947
3389 5482
3389 5553
3389 5578
3389 6101
3389 7288
3390 3557
3390 4723
3390 5355
3390 5443
3390 5451
3390 6298
3390 6455
3391 7437
3392 5944
3392 6821
3392 6870
3394 7339
3395 4694
3395 6833
3396 5422
3396 6463
3397 3597
3397 3961
3397 4809
3397 4908
3397 5402
3397 5556
3397 6108
3397 6361
3397 7075
3397 7237
3397 7548
3399 3502
3399 4728
3399 5047
3399 5612
3399 5795
3399 5957
3399 6074
3399 6249
3399 6818
3399 6842
3399 7033
3400 3603
3400 3612
3400 3705
3400 3715
3400 3853
3400 3946
3400 4000
3400 4519
3400 4554
3400 4632
3400 4961
3400 4990
3400 5334
3400 5768
3400 5985
3400 6519
3400 6794
3400 7067
3400 7083
3400 7224
3400 7237
3400 7339
3400 7563
3401 4623
3401 6887
3402 5831
3402 6697
3402 6912
3403 6341
3403 6660
3403 7365
3404 4187
3404 6300
3405 4843
3405 4908
3406 5239
3406 6779
3408 3504
3408 3544
3408 4335
3408 6108
3408 6361
3408 7075
3408 7237
3409 6891
3410 3454
3410 3545
3410 3565
3410 4710
3410 5162
3410 5455
3410 6101
3410 6424
3410 6446
3410 6754
3410 6767
3410 7183
3410 7191
3411 3854
3411 4466
3411 4880
3411 5128
3413 3571
3413 7080
3414 6446
3416 4013
3416 6666
3417 4549
3418 3530
3418 3991
3418 4125
3418 4724
3418 5274
3418 5914
3418 5996
3418 6136
3418 6415
3418 6949
3418 7482
3420 5733
3422 4308
3422 6075
3423 3643
3423 5708
3423 5714
3423 6461
3424 5676
3424 6065
3425 4811
3426 6421
3426 6547
3426 6853
3427 4280
3427 5006
3427 6199
3428 4033
3428 5270
3430 3845
3430 4330
3430 4577
3430 5446
3430 5815
3430 5832
3430 5876
3430 6222
3430 6312
3430 7352
3431 6082
3431 6794
3432 6022
3432 7255
3434 7550
3435 6078
3436 3825
3436 6913
3437 3822
3437 3845
3437 3855
3437 4755
3437 5206
3437 5324
3437 5874
3437 6378
3437 6412
3437 6419
3437 6758
3437 7162
3438 3530
3439 3958
3439 4314
3439 5029
3439 5127
3439 5454
3439 7167
3440 4087
3440 4330
3440 5065
3440 5610
3440 6196
3440 6300
3441 6509
3443 3639
3444 7114
3445 3888
3445 7165
3446 4304
3446 4338
3447 5331
3447 6330
3449 3507
3449 4375
3449 5012
3450 3533
3450 3667
3450 3790
3450 3832
3450 3867
3450 3876
3450 3895
3450 3900
3450 3910
3450 4106
3450 4125
3450 4211
3450 4275
3450 4334
3450 4685
3450 4752
3450 4765
3450 4767
3450 4775
3450 4799
3450 4801
3450 4874
3450 4876
3450 4880
3450 5043
3450 5127
3450 5216
3450 5245
3450 5274
3450 5394
3450 5411
3450 5441
3450 5476
3450 5543
3450 5625
3450 5632
3450 5646
3450 5663
3450 5666
3450 5684
3450 5687
3450 5701
3450 5706
3450 5883
3450 6135
3450 6136
3450 6334
3450 6540
3450 6548
3450 6648
3450 6673
3450 6724
3450 6855
3450 6938
3450 6951
3450 6955
3450 6973
3450 6985
3450 6999
3450 7125
3450 7190
3450 7228
3450 7323
3450 7368
3450 7401
3450 7488
3450 7526
3450 7587
3450 7610
3451 6391
3452 6732
3453 3859
3453 4811
3454 4308
3454 7191
3454 7416
3454 7491
3455 3650
3458 3633
3459 5314
3460 4054
3460 5235
3460 6755
3461 3544
3461 4494
3461 7090
3461 7480
3462 3509
3462 4393
3462 5370
3462 5461
3462 6378
3463 4361
3463 4738
3463 6477
3463 6898
3463 7392
3463 7601
3465 6141
3466 6289
3468 3884
3468 4006
3468 4321
3468 6477
3469 3564
3469 4612
3469 6270
3469 7410
3470 4355
3470 4628
3470 5163
3470 6020
3470 6101
3470 6854
3471 3597
3471 5402
3471 7226
3472 3949
3472 4925
3473 4570
3473 7024
3475 3608
3475 7515
3476 7022
3478 7527
3479 4558
3480 4900
3480 6219
3481 4153
3481 4356
3482 6025
3482 6087
3483 4632
3483 4785
3483 7464
3484 4081
3485 4649
3486 3536
3486 4338
3487 4026
3489 7600
3490 6455
3491 5421
3492 3571
3492 3970
3492 5630
3492 5881
3492 7100
3493 6139
3494 5370
3496 5060
3496 7255
3497 4376
3497 4691
3497 5955
3497 6012
3497 6101
3498 4242
3498 4377
3498 5033
3498 6846
3498 7284
3499 3597
3499 4843
3499 4900
3499 4979
3499 5494
3499 5703
3499 6108
3499 6792
3499 7226
3499 7237
3499 7575
3500 3738
3500 4544
3500 6757
3500 7477
3501 4257
3501 5835
3502 4356
3502 4749
3502 5731
3502 5857
3504 3544
3504 3597
3504 4086
3504 4335
3504 4908
3504 5559
3504 5854
3504 6105
3504 6108
3504 6403
3504 7237
3506 4811
3507 5206
3507 7162
3507 7287
3507 7459
3508 4539
3508 5174
3508 5988
3509 4785
3509 5370
3509 5803
3509 6478
3510 3597
3510 4908
3510 5564
3510 6403
3510 6891
3512 6476
3513 4880
3514 4506
3514 4527
3514 4607
3514 6625
3514 6860
3516 6284
3516 7071
3518 3594
3519 6648
3520 4632
3520 5160
3520 5572
3520 5685
3520 6166
3520 6702
3520 7177
3521 4175
3521 5178
3521 6201
3521 6255
3521 6623
3522 5604
3523 3755
3523 7079
3524 4801
3524 5411
3525 4507
3526 3643
3526 5253
3526 5708
3526 6461
3526 7598
3527 7266
3528 3585
3528 4515
3528 5139
3528 7129
3529 7270
3530 3538
3530 3589
3530 3596
3530 3667
3530 3720
3530 3737
3530 3751
3530 3755
3530 3771
3530 3801
3530 3854
3530 3900
3530 3991
3530 4051
3530 4085
3530 4095
3530 4123
3530 4125
3530 4163
3530 4254
3530 4270
3530 4298
3530 4436
3530 4452
3530 4504
3530 4536
3530 4707
3530 4745
3530 4782
3530 4818
3530 4876
3530 4880
3530 4892
3530 4946
3530 4960
3530 5139
3530 5205
3530 5227
3530 5274
3530 5309
3530 5410
3530 5538
3530 5549
3530 5550
3530 5557
3530 5625
3530 5680
3530 5706
3530 5852
3530 5900
3530 5935
3530 6050
3530 6118
3530 6169
3530 6319
3530 6463
3530 6577
3530 6674
3530 6717
3530 6724
3530 6738
3530 6874
3530 6935
3530 7030
3530 7165
3530 7311
3530 7377
3530 7381
3530 7413
3530 7482
3530 7487
3530 7488
3530 7587
3530 7610
3532 4384
3533 4163
3533 4782
3533 6054
3533 7087
3534 7071
3535 4994
3536 4333
3536 4343
3536 6887
3536 7220
3538 7518
3539 4599
3540 6467
3541 7049
3542 3994
3543 6564
3544 3597
3544 3611
3544 3692
3544 3961
3544 4086
3544 4191
3544 4239
3544 4240
3544 4335
3544 4477
3544 4494
3544 4809
3544 4900
3544 5064
3544 5090
3544 5110
3544 5362
3544 5363
3544 5556
3544 5674
3544 6105
3544 6108
3544 6146
3544 6147
3544 6296
3544 6361
3544 6391
3544 6398
3544 6633
3544 6666
3544 6792
3544 6841
3544 6870
3544 6891
3544 7187
3544 7226
3544 7282
3544 7566
3545 6767
3546 7493
3547 6488
3548 4060
3548 5377
3549 4348
3550 3661
3550 5284
3550 7415
3550 7416
3551 5043
3552 7248
3553 6859
3554 6030
3554 6323
3555 3653
3555 4000
3555 4034
3555 4549
3555 5497
3555 6261
3555 6794
3555 7339
3556 6146
3557 3864
3557 4899
3557 4931
3557 5047
3557 6217
3557 6298
3557 7315
3558 6274
3559 4931
3559 5514
3559 6001
3559 6616
3559 7029
3560 4809
3560 7203
3561 4259
3561 6115
3561 7225
3562 6287
3563 4811
3564 3599
3564 3926
3564 5132
3564 5178
3564 5872
3564 5962
3564 6476
3564 6757
3564 6942
3564 7334
3564 7410
3564 7604
3565 4947
3565 5135
3565 5455
3565 6101
3565 6110
3565 6544
3566 4919
3566 5402
3566 5944
3566 6032
3566 6695
3566 6912
3567 3787
3567 3995
3567 4371
3567 6483
3567 7158
3568 3597
3569 3731
3569 3793
3569 4421
3569 6162
3569 6362
3569 7199
3570 3891
3571 3850
3571 4078
3571 5292
3571 5540
3571 6783
3571 6813
3571 7001
3571 7199
3571 7584
3573 5110
3573 6998
3574 4364
3574 4847
3574 6241
3574 7078
3575 4807
3575 7279
3576 4206
3577 5966
3578 3670
3579 5960
3580 5222
3580 6296
3581 5550
3581 5800
3581 5868
3581 7497
3582 3759
3582 4512
3582 6180
3582 7534
3584 3675
3584 3988
3584 4190
3584 4206
3584 4875
3584 4914
3584 5165
3584 5581
3584 5643
3584 5705
3584 5833
3584 6066
3584 6255
3584 6297
3584 6652
3584 6657
3584 6913
3584 7008
3584 7060
3584 7299
3585 6882
3586 3918
3588 4497
3588 6425
3588 7362
3589 4316
3589 5527
3590 6723
3591 6086
3592 4335
3592 5869
3593 7502
3594 3948
3594 4967
3594 5079
3594 6695
3594 6975
3595 6030
3595 6323
3595 7100
3596 4261
3596 4895
3596 5518
3596 5646
3596 7596
3597 3882
3597 3961
3597 4086
3597 4306
3597 4527
3597 4754
3597 4772
3597 4908
3597 4979
3597 5079
3597 5114
3597 5124
3597 5176
3597 5269
3597 5392
3597 5556
3597 5769
3597 5854
3597 5944
3597 6100
3597 6146
3597 6205
3597 6234
3597 6369
3597 6403
3597 6523
3597 6621
3597 6639
3597 6649
3597 6697
3597 6764
3597 6870
3597 6891
3597 6930
3597 6931
3597 7226
3597 7391
3599 5132
3599 5962
3600 3829
3600 4880
3601 4825
3602 4126
3603 4309
3603 4393
3603 5220
3603 6003
3603 6096
3603 7224
3606 6420
3606 7050
3606 7162
3607 5461
3609 5454
3610 3991
3610 4659
3610 4811
3610 5441
3610 6088
3610 6466
3611 3625
3611 5703
3612 3715
3612 4561
3612 5963
3612 6487
3613 5325
3614 4240
3614 4267
3614 4317
3614 4412
3614 5775
3614 5854
3614 6296
3614 6595
3614 6613
3614 7557
3615 4647
3615 4886
3616 3680
3616 4460
3616 5108
3616 5805
3617 4406
3617 4900
3617 5447
3617 7261
3617 7328
3618 4821
3620 3733
3620 4355
3620 5938
3621 6666
3622 4388
3622 4506
3622 6519
3623 4959
3624 4347
3624 6120
3624 7063
3625 3687
3625 3991
3625 4307
3625 5716
3625 7185
3626 3691
3628 4808
3632 3809
3632 4269
3632 4359
3632 4478
3632 4636
3632 5454
3632 6645
3632 7488
3633 3752
3633 4955
3633 7090
3634 4359
3635 4811
3636 5468
3636 6012
3636 6446
3636 6604
3637 4359
3638 3650
3639 3666
3641 4130
3641 7165
3642 4121
3642 4436
3642 4745
3642 5341
3643 5253
3643 5708
3643 5714
3643 6439
3643 6461
3643 7598
3644 4809
3644 5079
3644 5090
3644 5402
3644 5750
3644 5822
3644 7237
3644 7547
3645 6678
3647 4248
3647 4899
3647 5604
3647 6252
3648 6146
3649 5127
3649 7030
3650 4989
3650 5534
3650 5663
3650 6063
3650 6436
3650 6888
3650 7487
3651 4026
3651 4470
3652 5854
3653 3773
3653 3826
3653 3937
3653 4000
3653 4151
3653 4309
3653 4550
3653 4561
3653 4900
3653 4997
3653 4999
3653 5003
3653 6712
3653 6883
3653 7266
3653 7574
3654 6453
3655 3855
3655 4438
3655 4720
3655 7256
3659 5402
3659 5831
3659 6789
3659 7237
3659 7282
3661 4006
3663 3907
3665 6120
3666 5646
3666 6431
3666 6722
3666 7205
3666 7376
3667 3895
3667 4095
3667 4163
3667 4275
3667 6955
3668 7199
3669 4467
3669 5759
3669 5769
3669 6105
3669 6140
3669 7237
3670 4121
3670 4261
3670 4775
3670 4876
3670 5158
3670 5245
3670 6135
3670 6163
3670 6468
3670 6679
3671 4023
3671 4579
3671 7098
3672 3798
3672 4124
3672 4978
3672 5532
3672 6220
3672 6842
3672 6877
3672 7122
3674 6020
3674 6476
3676 6685
3677 4602
3678 6074
3678 6249
3678 7476
3678 7565
3679 3715
3679 4038
3679 4785
3679 5210
3679 5717
3679 6621
3679 6860
3679 7379
3680 5540
3680 5658
3680 6586
3681 6387
3681 7237
3681 7263
3682 3970
3682 6069
3682 6886
3683 3855
3685 4587
3686 4735
3686 5379
3686 5591
3687 5139
3689 5108
3692 4452
3693 6840
3694 4666
3694 4716
3694 5988
3694 7270
3694 7533
3694 7536
3694 7560
3695 4632
3695 5041
3695 6656
3696 6562
3697 7015
3697 7162
3698 4036
3698 4211
3698 5862
3698 6921
3698 7368
3699 6567
3701 3708
3701 3878
3701 3948
3701 4754
3701 4813
3701 4935
3701 4967
3701 5062
3701 5079
3701 5082
3701 5370
3701 5564
3701 5688
3701 5713
3701 5769
3701 5822
3701 6036
3701 6236
3701 6478
3701 6642
3701 6695
3701 6764
3701 7237
3701 7398
3702 4797
3702 7541
3703 5856
3705 3984
3705 5454
3705 5597
3705 7123
3707 6731
3708 3878
3708 4321
3708 5146
3708 6146
3708 7490
3712 4786
3714 4141
3714 4631
3714 6323
3714 7013
3714 7100
3715 4532
3715 4607
3715 4632
3715 5710
3715 5966
3715 6166
3715 6237
3715 6470
3715 6621
3716 4122
3716 5966
3716 6103
3717 3751
3718 7600
3719 7219
3720 4652
3720 7214
3721 5927
3721 7504
3722 4280
3722 5192
3722 5578
3722 7416
3724 4625
3724 6817
3725 3977
3725 4232
3725 5670
3725 7123
3725 7498
3725 7601
3726 5578
3726 7411
3727 5139
3730 4455
3731 4421
3732 4444
3732 4507
3734 6716
3735 5455
3736 6514
3737 3807
3737 4047
3737 4375
3737 4533
3737 4788
3737 5914
3737 6185
3737 6949
3738 4544
3738 6155
3738 6476
3738 6804
3738 7230
3738 7334
3740 4814
3741 5532
3741 6175
3742 5925
3742 6300
3743 5568
3744 4929
3744 5516
3747 4366
3747 7123
3747 7224
3748 4145
3748 4364
3748 5311
3748 6241
3750 3910
3750 4678
3750 4726
3750 4895
3750 5204
3750 7461
3751 3764
3751 4332
3751 4724
3751 4836
3751 5127
3751 5404
3751 5454
3751 6314
3751 6562
3751 6566
3751 6648
3751 6861
3752 4852
3753 4935
3754 7383
3754 7527
3755 4125
3755 4275
3755 4286
3755 4762
3755 4895
3755 5139
3755 5394
3755 5633
3755 5744
3755 5751
3755 5907
3755 6315
3755 7497
3755 7618
3756 5063
3756 5176
3756 5793
3756 5817
3756 6193
3756 7237
3756 7621
3757 3855
3757 5014
3757 5074
3757 5324
3757 6529
3757 6709
3757 6964
3757 7162
3757 7352
3758 4811
3759 4512
3759 5181
3760 6621
3761 7126
3762 4811
3764 5261
3764 6899
3765 5050
3766 4931
3766 5612
3766 6217
3766 6812
3767 6881
3768 5212
3769 7204
3771 4811
3773 4785
3773 4999
3773 5966
3773 6470
3774 3784
3774 4012
3774 6859
3774 7450
3775 7199
3776 4785
3777 4499
3777 4569
3777 4711
3777 5821
3777 6519
3778 6757
3779 4607
3779 5966
3780 6016
3780 6663
3782 6160
3783 4479
3785 5670
3786 3845
3786 4146
3786 4438
3786 4511
3786 6991
3786 7256
3786 7489
3787 7158
3788 6147
3789 4941
3789 7513
3790 6673
3790 6999
3792 4408
3792 5390
3793 5605
3795 6703
3796 7211
3797 4873
3798 4328
3798 5449
3798 6802
3799 3859
3800 6816
3802 4379
3802 5372
3803 7030
3803 7502
3804 6446
3806 4691
3806 7553
3807 4298
3807 4375
3807 4387
3807 4788
3807 5261
3807 5348
3807 5626
3807 6370
3809 3856
3809 5420
3809 6172
3809 6207
3810 4447
3810 6416
3811 4356
3811 6098
3812 5516
3813 5108
3813 5242
3813 6101
3813 7235
3814 7284
3817 3911
3817 4376
3817 5725
3817 5938
3817 7100
3818 4422
3819 7387
3820 6562
3820 7554
3822 3845
3822 3855
3822 4146
3822 4522
3822 4657
3822 4720
3822 4934
3822 5065
3822 5577
3822 5610
3822 5876
3822 5993
3822 6207
3822 6463
3822 6845
3822 6876
3822 6903
3822 7015
3822 7020
3822 7162
3822 7350
3822 7469
3823 4994
3824 6445
3824 7224
3826 4151
3826 4561
3826 4747
3826 5218
3826 5579
3827 6580
3828 7339
3829 4560
3829 5862
3829 7138
3830 3860
3830 4085
3830 5167
3830 7597
3831 6828
3832 4125
3833 4146
3833 4359
3833 4657
3833 4676
3833 5314
3833 5378
3833 5830
3833 5892
3833 5993
3833 6134
3833 6148
3833 6202
3833 6207
3833 6408
3833 6458
3833 6687
3833 6876
3833 7256
3833 7294
3834 6361
3835 5429
3836 4000
3836 4614
3836 5510
3836 7498
3837 6884
3839 5742
3842 5080
3842 5455
3842 6424
3842 6544
3843 5562
3844 7105
3845 4146
3845 4359
3845 4653
3845 4676
3845 4701
3845 4755
3845 4934
3845 5029
3845 5378
3845 5454
3845 5790
3845 5921
3845 6202
3845 6207
3845 6427
3845 6637
3845 6845
3845 6876
3845 6991
3845 7182
3845 7352
3847 6427
3848 5564
3849 4544
3850 6078
3850 6827
3850 6990
3850 7080
3852 4981
3852 5455
3852 5457
3852 5485
3852 5615
3852 5867
3852 6067
3852 6126
3852 6323
3852 6544
3853 4000
3853 4112
3853 4393
3853 4554
3853 4614
3853 4622
3853 4783
3853 5166
3853 6003
3853 6089
3853 6096
3853 6519
3853 7123
3853 7492
3853 7498
3854 4387
3854 4466
3854 5894
3854 7607
3855 4126
3855 4146
3855 4629
3855 4755
3855 4865
3855 4887
3855 5236
3855 5324
3855 5330
3855 5745
3855 5876
3855 5892
3855 5909
3855 5921
3855 6312
3855 6378
3855 7162
3855 7182
3855 7194
3855 7352
3855 7552
3857 7121
3858 6446
3858 6622
3859 4778
3859 6101
3860 5422
3861 4457
3861 4744
3861 4886
3861 5623
3861 5628
3861 6341
3862 5335
3862 6306
3862 7317
3863 3907
3864 5174
3864 5355
3864 6616
3865 7334
3867 5043
3867 5211
3869 4359
3869 4919
3873 3900
3873 4125
3873 4163
3873 4206
3873 4880
3873 4900
3873 4950
3873 5411
3873 5454
3873 5534
3873 5941
3873 6054
3873 6724
3873 6955
3873 7010
3873 7065
3873 7564
3874 6817
3875 4673
3876 4270
3876 5127
3876 5823
3877 4180
3877 4292
3877 5881
3878 7490
3880 4234
3881 6377
3882 4908
3882 5090
3882 5334
3882 6695
3886 3977
3888 4042
3888 4121
3888 4788
3888 5706
3888 6431
3889 5589
3890 6537
3890 7396
3891 4705
3892 4785
3893 5764
3893 6416
3894 7381
3895 6955
3895 7401
3896 5866
3896 6108
3897 4888
3897 6652
3897 7468
3897 7579
3898 6101
3898 6446
3898 7435
3899 5324
3900 4007
3900 4319
3900 4452
3900 4782
3900 5274
3900 6046
3900 6054
3900 6955
3900 7595
3901 6062
3902 4124
3903 6817
3904 4785
3904 4943
3905 4414
3905 4465
3905 6200
3905 7098
3905 7467
3907 5621
3907 7219
3909 4621
3910 4484
3910 5274
3910 5543
3910 5647
3910 7488
3911 5455
3911 5578
3912 5159
3912 5343
3912 5673
3912 6313
3912 6519
3912 7266
3912 7537
3913 4795
3915 4985
3915 7164
3916 4132
3917 4737
3918 6125
3918 6940
3919 5817
3920 4544
3920 4612
3920 4984
3920 5675
3920 5872
3920 6476
3920 6757
3920 6799
3920 6814
3920 6942
3920 7014
3920 7230
3920 7334
3920 7410
3920 7604
3921 3987
3921 4338
3921 6186
3921 6262
3921 6399
3921 6421
3921 6617
3921 7545
3921 7607
3922 6490
3923 5370
3923 7572
3926 4065
3926 4356
3926 6757
3926 7405
3927 4717
3927 5875
3927 6167
3927 6623
3927 7014
3929 5223
3930 7597
3931 4007
3932 4228
3932 6101
3932 6179
3932 6524
3933 6328
3936 5623
3936 5858
3938 4549
3941 6365
3942 4183
3942 5911
3942 6165
3942 6782
3944 5232
3944 5463
3945 6094
3945 7123
3946 4000
3946 4151
3946 5334
3946 6519
3946 6682
3948 4528
3948 4945
3948 4967
3948 5096
3948 5147
3948 6236
3948 6478
3948 6654
3948 7611
3949 4925
3949 5048
3949 7209
3950 6712
3951 7333
3952 7339
3953 4329
3953 4443
3953 4642
3953 4806
3954 6725
3954 7139
3956 5918
3956 6212
3957 3999
3957 4121
3957 5394
3957 6674
3957 6692
3957 7032
3960 5646
3960 7110
3961 4083
3961 4086
3961 4880
3961 5090
3961 5402
3961 5530
3961 6105
3961 6108
3961 6236
3961 6891
3962 4570
3962 6990
3962 7080
3963 5851
3964 5414
3966 7351
3966 7432
3967 5017
3967 7522
3967 7565
3968 6543
3968 6870
3968 7237
3969 4428
3969 4558
3969 4937
3969 5072
3969 6021
3970 5360
3970 5561
3970 6886
3971 4988
3971 7064
3972 4531
3973 6232
3974 6108
3974 6146
3976 5465
3977 5041
3977 5125
3977 5657
3977 6881
3977 7601
3978 6101
3979 3983
3979 4198
3979 5062
3979 6241
3979 6891
3979 7351
3979 7412
3980 4455
3980 4572
3980 7092
3981 5607
3982 7058
3983 4026
3983 7351
3984 6460
3986 4532
3986 5011
3986 5343
3986 5673
3986 6568
3986 7508
3987 5876
3987 5894
3987 5949
3987 6617
3987 7607
3989 4681
3990 7224
3991 5323
3991 5601
3991 5665
3991 5687
3991 6657
3991 6853
3993 4555
3994 4380
3994 5314
3994 5543
3994 5997
3995 4162
3995 4994
3995 6101
3995 7383
3996 7237
3997 4000
3998 5939
3999 7079
4000 4035
4000 4098
4000 4151
4000 4337
4000 4393
4000 4403
4000 4575
4000 4614
4000 4763
4000 5220
4000 5484
4000 5597
4000 5606
4000 6094
4000 6103
4000 6261
4000 6445
4000 6759
4000 6883
4000 7025
4000 7608
4001 4356
4002 5623
4002 5807
4002 6180
4003 5062
4003 5079
4003 6017
4004 4868
4006 4224
4006 5670
4007 4319
4007 4387
4007 5028
4007 5127
4007 5274
4008 5455
4008 6446
4008 7435
4009 5142
4010 6085
4011 4735
4012 4040
4012 5346
4012 5393
4013 4759
4013 5367
4013 5822
4013 6141
4013 6146
4013 6621
4013 6797
4013 6891
4015 5377
4017 7203
4018 5370
4019 4447
4019 5106
4019 5508
4019 5764
4019 6626
4019 6768
4019 6811
4019 6911
4020 4146
4021 4500
4021 5413
4021 6369
4023 4291
4023 4579
4023 4662
4023 4907
4023 5429
4023 6206
4024 4146
4024 5314
4024 6408
4025 7579
4029 4718
4031 4357
4031 7106
4031 7583
4032 4477
4032 4691
4032 4793
4032 5360
4032 7359
4032 7427
4033 4130
4033 4300
4033 4319
4033 4600
4033 5134
4033 5254
4033 5259
4033 5371
4033 5671
4033 6190
4033 6235
4033 6259
4033 6836
4033 7009
4033 7163
4033 7513
4034 4915
4034 6077
4034 6490
4034 6851
4034 7224
4036 4101
4036 4163
4036 4211
4036 5454
4036 7251
4038 5210
4038 5695
4038 7090
4039 4319
4039 4365
4039 4411
4039 4843
4039 4979
4039 5199
4039 5418
4039 5509
4039 5802
4039 6095
4039 6644
4039 6689
4039 7396
4042 4426
4042 4466
4042 5128
4042 5632
4042 5665
4042 5682
4043 4785
4043 6519
4044 5413
4046 4994
4048 4470
4050 7062
4053 5842
4055 5674
4055 7532
4056 5817
4056 6369
4056 7237
4057 6909
4057 7032
4057 7079
4058 4073
4058 4721
4058 5111
4059 4298
4059 6514
4060 4368
4060 6564
4061 4815
4061 6621
4065 6476
4069 4520
4069 7237
4069 7532
4069 7541
4070 5691
4070 5983
4070 6194
4071 5267
4073 4721
4073 4910
4073 5111
4074 5127
4075 4515
4076 5167
4078 4589
4078 5390
4078 6252
4078 7024
4078 7584
4079 4620
4079 5854
4079 6031
4080 6966
4081 7345
4082 6191
4083 6478
4084 5012
4085 6562
4085 7052
4086 4377
4086 4754
4086 4809
4086 5090
4086 5124
4086 5402
4086 5703
4086 6032
4086 6789
4086 6870
4086 6891
4087 7189
4088 4833
4088 5676
4088 6529
4088 7552
4090 4680
4092 5536
4092 6234
4093 4342
4093 4693
4093 5545
4093 5620
4093 6177
4095 4433
4095 4765
4095 5394
4095 6699
4095 7610
4096 4426
4097 5466
4097 5658
4097 6200
4098 5657
4099 4225
4099 6399
4102 4587
4104 6598
4104 6731
4106 4319
4106 4387
4106 4880
4106 5127
4106 5274
4106 5696
4108 5380
4108 7237
4109 4329
4109 4936
4109 5443
4109 5972
4112 5526
4113 5674
4114 4785
4114 6930
4115 5416
4115 5454
4116 5640
4117 4593
4117 4943
4118 4967
4118 6797
4119 4614
4119 4862
4119 4961
4119 5709
4119 6094
4119 6969
4119 7123
4119 7498
4120 4335
4120 6496
4121 4785
4121 5158
4121 5272
4121 5746
4122 4614
4122 5597
4122 5901
4122 6514
4122 7224
4122 7237
4122 7339
4123 4504
4123 5274
4124 4443
4124 5578
4124 7355
4124 7565
4125 4163
4125 4299
4125 4452
4125 4536
4125 4876
4125 5274
4125 5410
4125 5411
4125 5678
4125 5883
4125 6955
4125 7030
4125 7093
4125 7482
4125 7595
4126 4330
4126 5065
4126 5236
4126 6357
4126 7015
4126 7162
4127 4141
4127 4224
4127 4756
4127 5112
4127 6842
4127 7074
4128 5226
4128 5274
4129 7339
4130 5134
4130 6190
4130 7028
4131 4710
4131 5578
4131 6446
4132 4919
4133 5618
4135 6250
4136 5127
4136 5227
4136 5920
4136 6118
4136 7618
4137 6738
4138 6241
4140 4811
4141 4146
4141 4147
4141 5072
4141 6101
4142 5285
4142 6495
4142 7213
4143 5880
4143 7615
4144 5090
4145 4364
4145 5547
4145 5653
4145 5754
4145 7370
4146 4657
4146 5127
4146 5156
4146 5277
4146 5378
4146 5425
4146 5682
4146 5892
4146 6411
4146 6427
4146 6637
4146 6721
4146 7294
4146 7489
4147 5095
4147 6446
4147 6776
4147 6976
4148 4929
4149 4249
4149 5268
4149 5386
4150 5274
4150 5581
4151 5635
4151 6445
4151 6883
4151 7083
4151 7574
4152 4221
4152 4257
4152 4811
4152 5274
4153 6980
4154 4173
4154 5377
4155 4252
4157 5127
4158 4864
4158 5410
4159 4336
4160 5910
4161 5370
4162 4265
4162 4947
4162 5095
4162 5485
4162 5578
4162 6311
4162 6509
4162 7013
4162 7100
4163 4452
4163 5127
4163 5274
4163 5411
4163 6054
4163 6999
4163 7087
4163 7526
4164 4626
4164 5318
4164 5472
4164 6640
4164 6652
4164 6731
4164 7579
4165 5316
4165 5454
4165 6408
4165 6659
4165 7199
4166 6221
4167 4348
4167 4959
4167 7071
4167 7291
4171 5978
4174 4210
4174 5970
4174 6016
4174 7173
4175 4381
4175 7230
4176 5233
4176 6520
4176 7545
4177 5825
4179 5854
4180 4230
4180 4904
4180 6217
4180 7043
4181 7573
4182 6101
4183 4284
4183 5513
4184 7355
4184 7435
4186 4360
4187 5662
4187 6183
4187 6378
4187 6529
4187 7050
4187 7581
4188 7224
4192 5369
4195 6001
4196 4286
4197 6092
4198 4520
4198 4837
4198 5062
4199 7583
4200 4785
4202 6666
4203 5009
4204 4527
4204 4607
4204 5011
4204 6519
4204 6860
4206 4673
4206 5555
4206 5823
4206 5862
4206 6054
4206 6724
4206 7581
4207 5578
4208 4243
4208 6566
4209 4318
4210 7173
4211 4880
4211 6438
4211 6921
4211 7368
4212 5127
4212 5935
4212 7057
4212 7313
4214 7338
4215 4811
4217 5637
4217 7110
4219 6953
4220 6636
4221 4868
4221 6372
4221 7455
4222 4811
4223 4882
4223 5725
4226 6927
4227 7488
4228 4472
4228 5207
4229 5661
4229 6784
4230 4728
4230 4931
4230 6725
4230 7100
4234 5274
4235 4246
4235 4256
4235 5203
4235 6747
4235 6887
4236 4671
4236 6887
4237 4359
4239 7199
4239 7237
4240 5111
4240 6296
4240 7017
4241 6688
4242 4809
4242 6105
4243 6566
4243 7040
4243 7352
4245 4469
4246 5203
4246 6475
4246 6884
4246 6887
4248 4654
4248 4968
4248 5425
4248 6501
4248 7074
4248 7210
4250 6341
4251 7243
4252 4719
4252 6365
4253 4710
4253 5006
4254 5230
4254 6058
4254 7032
4254 7049
4255 4877
4255 6864
4256 6475
4257 4811
4257 4821
4257 4864
4257 5286
4257 5595
4257 6248
4257 6399
4257 6919
4257 6996
4259 4552
4259 5391
4259 5442
4260 6564
4261 5646
4264 7135
4265 6483
4266 4375
4266 5214
4266 5295
4266 7019
4266 7386
4267 6644
4268 6254
4269 4636
4270 5720
4270 5734
4271 6077
4271 7252
4272 6012
4273 6309
4274 5440
4274 5578
4274 7416
4274 7522
4275 5245
4275 5274
4277 4584
4277 5111
4277 6689
4278 7604
4280 5095
4280 5725
4280 7225
4283 5011
4284 4526
4284 4768
4284 5649
4285 6859
4287 4338
4287 5285
4288 6182
4289 6778
4289 7587
4290 5817
4291 7098
4292 6034
4294 4811
4295 4426
4295 7308
4296 4388
4296 6108
4296 6505
4296 6519
4297 6194
4298 4387
4298 4452
4298 4536
4298 4726
4298 5274
4298 5794
4298 6063
4298 6118
4298 7030
4298 7400
4298 7448
4298 7569
4299 5917
4301 5580
4301 6241
4301 6668
4303 6146
4303 7409
4305 7583
4307 6368
4308 4594
4309 4453
4309 4507
4309 4961
4309 5905
4309 7108
4310 6769
4311 4611
4312 4479
4312 5079
4312 6633
4312 7436
4313 5006
4315 4784
4315 5893
4316 6415
4316 6421
4316 6920
4317 5503
4318 4447
4318 5106
4318 5755
4318 5851
4318 6911
4319 4323
4319 4450
4319 4868
4319 4876
4319 4880
4319 4895
4319 4941
4319 5245
4319 5410
4319 5949
4319 6724
4319 7178
4319 7497
4319 7602
4321 7236
4321 7300
4323 5410
4324 4338
4324 5203
4324 6515
4324 6696
4327 5810
4328 5745
4328 6269
4328 6323
4328 6392
4329 5443
4329 5600
4329 6586
4330 5065
4330 5500
4330 5815
4330 5876
4330 6187
4330 6357
4332 4982
4333 6495
4335 4351
4335 4620
4335 5090
4335 5269
4335 5703
4335 5854
4335 5959
4335 6388
4335 6398
4335 6496
4335 7075
4335 7181
4335 7284
4335 7507
4336 5465
4336 5498
4336 7153
4337 4393
4337 4747
4337 5334
4337 6519
4337 7224
4337 7608
4338 4621
4338 4779
4338 4823
4338 4831
4338 4873
4338 5020
4338 5031
4338 5060
4338 5370
4338 5791
4338 5793
4338 5980
4338 6022
4338 6470
4338 6515
4338 6520
4338 6884
4338 6887
4338 7545
4340 4561
4341 4541
4341 4764
4341 5196
4341 7163
4343 5767
4344 6905
4345 6676
4348 5150
4348 5263
4348 6084
4348 6513
4350 5454
4350 5475
4350 6025
4350 6115
4351 6496
4353 4851
4353 5269
4353 6639
4353 7237
4355 5095
4355 5640
4355 6396
4355 7225
4356 4401
4356 4423
4356 4447
4356 5039
4356 5318
4356 5366
4356 5454
4356 5612
4356 6033
4356 6101
4356 6264
4356 6524
4356 6647
4356 7012
4356 7076
4356 7155
4356 7219
4356 7237
4356 7351
4356 7426
4356 7452
4357 5278
4357 6011
4357 7032
4359 4461
4359 4511
4359 5206
4359 5676
4359 5736
4359 5956
4359 6207
4359 6240
4359 6407
4359 6408
4359 6412
4359 6687
4359 6735
4359 6852
4359 6876
4359 7489
4359 7595
4360 6553
4363 4811
4364 4602
4364 4847
4364 4963
4364 5126
4364 5198
4364 5476
4364 5580
4364 5727
4364 5836
4364 6471
4364 6668
4364 6740
4364 7280
4365 4894
4366 6477
4366 7116
4368 4397
4368 5981
4368 6564
4369 5304
4369 5623
4372 6111
4373 5582
4373 5817
4373 6318
4374 5927
4374 7255
4375 5626
4375 5919
4375 7336
4375 7538
4376 4691
4376 4840
4376 5095
4376 5359
4376 6101
4377 6105
4377 7237
4378 5334
4378 5635
4378 7224
4380 4988
4381 5132
4381 5875
4384 6021
4384 6109
4384 7199
4385 5127
4385 7251
4387 4650
4387 5655
4387 7587
4391 6321
4392 6022
4392 6041
4393 4622
4393 5454
4393 5526
4393 6316
4393 6742
4393 6762
4393 6787
4393 7544
4394 5308
4395 4972
4395 7024
4396 5683
4397 4518
4397 6564
4398 7237
4399 6101
4399 6446
4399 6886
4400 4785
4402 6536
4404 5536
4404 5564
4404 6376
4408 4503
4408 6101
4408 6497
4408 6516
4408 7100
4410 4719
4411 5918
4412 5523
4413 5885
4414 4423
4414 4662
4414 6124
4414 6499
4414 6835
4414 6893
4414 7098
4414 7233
4415 6272
4415 7265
4416 6234
4416 6369
4418 7141
4419 4602
4420 6745
4422 4536
4422 5245
4423 5095
4426 4868
4426 5646
4426 5706
4426 5894
4427 5488
4427 5638
4427 5856
4428 4937
4429 5461
4430 6859
4430 7450
4431 6476
4431 7604
4432 4601
4432 6517
4433 5410
4433 5704
4433 5823
4433 6046
4433 6267
4433 6503
4433 6684
4433 7395
4434 4606
4434 5988
4434 7141
4434 7536
4435 5414
4437 6283
4437 6892
4438 4701
4439 5414
4440 5635
4440 7339
4441 7567
4443 6175
4443 7355
4444 4721
4444 6295
4447 5106
4447 5764
4447 5851
4447 6416
4447 6811
4447 6911
4448 5371
4448 7248
4449 6906
4450 7178
4451 4636
4451 5454
4451 6207
4452 4678
4452 4709
4452 4912
4452 5098
4452 5454
4452 5663
4452 5743
4452 5883
4452 6095
4452 6112
4452 6506
4452 6648
4452 6673
4452 6888
4452 7093
4452 7332
4452 7488
4452 7569
4452 7587
4453 4532
4453 4632
4453 5044
4453 6805
4453 7464
4453 7537
4454 7282
4455 4480
4455 4903
4455 5463
4455 5745
4455 5974
4455 6012
4455 6074
4455 7383
4455 7406
4456 5334
4457 5251
4457 6005
4457 7221
4458 4711
4459 6764
4460 5047
4460 5578
4461 7237
4462 4955
4462 7523
4463 6384
4464 4844
4464 7046
4465 4548
4465 4662
4466 5128
4466 5435
4466 5632
4466 5646
4467 4754
4467 5759
4467 6583
4468 6296
4469 4708
4469 5817
4469 6032
4470 5490
4470 5491
4470 5754
4472 5455
4472 5916
4473 5331
4476 6116
4476 6160
4476 7071
4477 6972
4479 5370
4479 5713
4479 7218
4480 4988
4480 5466
4480 5629
4480 7122
4480 7565
4483 5516
4483 7262
4485 6220
4487 5831
4488 6365
4489 4814
4489 4947
4490 5274
4490 5581
4491 6016
4492 5443
4495 6348
4502 4870
4502 5127
4502 5862
4502 5948
4502 7488
4503 6151
4505 5268
4506 4527
4506 4785
4506 5159
4506 5335
4506 6519
4506 7301
4506 7356
4507 6077
4507 7237
4509 7199
4510 5986
4511 4701
4511 5430
4511 6427
4512 6941
4512 7534
4513 4911
4513 5223
4516 4560
4516 6940
4517 4572
4517 6101
4517 6501
4517 7383
4518 6564
4518 7136
4519 7224
4519 7608
4520 5369
4520 6891
4520 7237
4524 4900
4524 6039
4525 4549
4525 4774
4525 5168
4525 5417
4525 6094
4525 6414
4525 6542
4525 7339
4527 4531
4527 4986
4527 5011
4527 5067
4527 5159
4527 5593
4527 6280
4527 6621
4527 6860
4528 5063
4529 4811
4530 6709
4531 5104
4531 5865
4531 5898
4531 7266
4532 5011
4532 5343
4535 6478
4536 5687
4539 6958
4540 6666
4540 7532
4543 4940
4543 6022
4543 6041
4543 6186
4544 5654
4544 6476
4544 6545
4544 6757
4544 7215
4544 7334
4544 7477
4545 7525
4547 7605
4548 6641
4549 5497
4549 7498
4550 5334
4550 6445
4550 6883
4551 6621
4553 4941
4554 5526
4554 7123
4554 7498
4554 7608
4555 5352
4555 6190
4555 6235
4556 4686
4556 5679
4556 7284
4558 4805
4558 7148
4559 5265
4560 5221
4560 7089
4560 7576
4561 4928
4561 5218
4561 5768
4561 7083
4561 7117
4562 7415
4563 5556
4563 5944
4563 6295
4563 6452
4563 6960
4563 7237
4564 5437
4566 6981
4568 4704
4570 5757
4570 7095
4571 5600
4572 4973
4572 5359
4572 5457
4572 6047
4572 6323
4572 6882
4572 7516
4574 5944
4578 5176
4579 6247
4579 6765
4580 7555
4583 4842
4584 6821
4585 5461
4589 5725
4589 7080
4590 5120
4593 5297
4593 5803
4595 5505
4595 5578
4595 7077
4596 4728
4597 5753
4598 6409
4599 7216
4600 5173
4600 5254
4600 5671
4600 6190
4600 6259
4600 6836
4600 7009
4601 6304
4602 5249
4602 5766
4602 6241
4602 6471
4603 6887
4604 5493
4604 5525
4604 7165
4606 4860
4606 4904
4606 5857
4606 5988
4607 5159
4607 5829
4607 6330
4607 6519
4607 7090
4608 5200
4608 7224
4609 4800
4609 6145
4611 6239
4612 5875
4612 5962
4612 6623
4612 7227
4612 7334
4613 7228
4614 5065
4614 7224
4615 5984
4616 5989
4617 4819
4617 7112
4617 7217
4617 7415
4621 5285
4621 5980
4622 5526
4623 5047
4623 5803
4623 6887
4624 5725
4624 6199
4625 6741
4625 6817
4626 7287
4631 4810
4632 4785
4632 4925
4632 5099
4632 5159
4632 5656
4632 6330
4632 6519
4632 6860
4632 7464
4632 7537
4633 4855
4635 6016
4635 7115
4636 5420
4636 5909
4636 6268
4637 5046
4637 7593
4638 5427
4638 6090
4638 6369
4638 7237
4639 6220
4640 5584
4640 6712
4641 4811
4643 7383
4646 6476
4647 6600
4648 5854
4648 7074
4649 6179
4651 5935
4651 6063
4651 7028
4653 4676
4653 6408
4653 7489
4656 5061
4656 6307
4656 6617
4657 4720
4657 5029
4657 5378
4657 5956
4657 5993
4657 6427
4657 6770
4657 6876
4657 7256
4657 7294
4657 7489
4659 4811
4659 5441
4660 5752
4660 7352
4661 5859
4662 6893
4662 7467
4666 4931
4666 5988
4666 6455
4666 6712
4666 7533
4666 7536
4667 5115
4667 7579
4670 7188
4671 4823
4671 5075
4671 5587
4671 6009
4671 6228
4672 7316
4673 6844
4674 5664
4675 6370
4676 4720
4676 5314
4676 5843
4676 5993
4676 6419
4676 6967
4676 6991
4676 7489
4678 6938
4679 6677
4681 5915
4681 6205
4681 7023
4684 6163
4686 4908
4691 5095
4691 6511
4691 6972
4691 7364
4691 7553
4691 7586
4692 5261
4692 5274
4692 5404
4692 5581
4694 5813
4695 4798
4695 7605
4699 4886
4701 4842
4701 5430
4702 4925
4703 6279
4703 7078
4704 4934
4704 5036
4704 6329
4705 4744
4705 6021
4705 6395
4705 6632
4705 6970
4705 7318
4705 7348
4705 7439
4707 5646
4709 5555
4709 5663
4709 7569
4710 6153
4710 6191
4710 6339
4710 7296
4711 6642
4711 7352
4716 5988
4716 6442
4717 4973
4718 5159
4719 6325
4719 6365
4719 7157
4720 4898
4720 5314
4720 5378
4720 5993
4720 6427
4720 6770
4720 7256
4720 7294
4720 7489
4721 4910
4721 5111
4722 4811
4725 5706
4725 6885
4725 7486
4726 5454
4726 5920
4726 6673
4726 7238
4726 7569
4727 4985
4728 4931
4728 5612
4728 6812
4728 7059
4729 4730
4729 6241
4732 5388
4733 6341
4733 6570
4733 7022
4734 6878
4735 5441
4735 5701
4735 6258
4735 6843
4735 6896
4736 6509
4738 6794
4738 7204
4738 7601
4739 4785
4741 5274
4741 6022
4742 6399
4742 7486
4743 5725
4744 5887
4745 4762
4747 4990
4747 5579
4747 6787
4753 7111
4754 4809
4754 4919
4754 5090
4754 5388
4754 5703
4754 5944
4754 6014
4754 6391
4754 6473
4754 6891
4754 7127
4754 7237
4754 7284
4754 7398
4754 7460
4755 5277
4756 5449
4756 5463
4756 6800
4757 6960
4757 7282
4758 5405
4758 7224
4759 4967
4759 5462
4759 5854
4759 7621
4760 7322
4760 7557
4762 4771
4762 5527
4762 5632
4765 5274
4767 5454
4769 4785
4769 6166
4770 6217
4770 6616
4771 5534
4771 5706
4771 5746
4771 6083
4771 7595
4773 5845
4774 7563
4775 5535
4775 5746
4776 4975
4777 5677
4778 4978
4778 5972
4778 7403
4780 6101
4780 6983
4780 7452
4782 6054
4783 4986
4785 4971
4785 4997
4785 4999
4785 5011
4785 5054
4785 5091
4785 5100
4785 5218
4785 5291
4785 5310
4785 5313
4785 5335
4785 5343
4785 5357
4785 5401
4785 5480
4785 5593
4785 5606
4785 5650
4785 5709
4785 5710
4785 5724
4785 5728
4785 5748
4785 5903
4785 5905
4785 5966
4785 6013
4785 6144
4785 6364
4785 6484
4785 6494
4785 6583
4785 6597
4785 6621
4785 6625
4785 6711
4785 6713
4785 6801
4785 6832
4785 6837
4785 6865
4785 6871
4785 6923
4785 6945
4785 6992
4785 7011
4785 7114
4785 7151
4785 7224
4785 7266
4785 7271
4785 7352
4785 7451
4785 7499
4785 7514
4786 7485
4787 5213
4787 6432
4788 4880
4788 5274
4788 5626
4788 5776
4788 6962
4789 6977
4790 4944
4790 5299
4790 5409
4790 7188
4790 7199
4790 7424
4790 7445
4791 7126
4792 4795
4792 6876
4792 7237
4793 6972
4793 7100
4795 5447
4795 6591
4796 5285
4796 6887
4797 6666
4798 7605
4802 5207
4804 5597
4807 7279
4808 6494
4809 5090
4809 5703
4809 6108
4809 6789
4809 6792
4809 7075
4809 7575
4810 5036
4810 5240
4811 4864
4811 4867
4811 4892
4811 5175
4811 5194
4811 5273
4811 5406
4811 5422
4811 5441
4811 5504
4811 5557
4811 5558
4811 5619
4811 5631
4811 5740
4811 5782
4811 6177
4811 6189
4811 6203
4811 6257
4811 6368
4811 6478
4811 6493
4811 6526
4811 6576
4811 6588
4811 6594
4811 6596
4811 6966
4811 7053
4811 7197
4811 7241
4811 7378
4811 7419
4811 7446
4811 7603
4812 6467
4812 7541
4814 4942
4814 5955
4814 6101
4816 4881
4818 6181
4818 7595
4819 7390
4819 7616
4820 6405
4824 5808
4824 7049
4825 6238
4825 7100
4826 7491
4827 7162
4829 5755
4830 6361
4836 7595
4838 5539
4839 6777
4840 5183
4840 5806
4842 5430
4842 5454
4842 7016
4843 5854
4843 6105
4843 7237
4845 5206
4846 7240
4849 6367
4849 6464
4850 7001
4851 4901
4851 6105
4851 6291
4851 7226
4851 7517
4852 7492
4853 5988
4853 6442
4854 7237
4855 4886
4855 5628
4857 4876
4858 7154
4859 5445
4859 6016
4860 4904
4860 5414
4860 5756
4860 5857
4860 6565
4860 6712
4860 6958
4860 7001
4860 7141
4861 7330
4863 5967
4863 6393
4864 5230
4864 5275
4864 5410
4864 6436
4864 6572
4865 6070
4865 6207
4865 6566
4866 7518
4869 6565
4870 6527
4873 5020
4873 6228
4873 6778
4875 5712
4875 5893
4876 4880
4876 5410
4876 6125
4876 6935
4876 7497
4876 7595
4877 4886
4879 6341
4879 6907
4880 5245
4880 5404
4880 6847
4880 6935
4880 7089
4881 5454
4882 5505
4882 5725
4882 6446
4882 6877
4882 7013
4882 7416
4883 5769
4883 5831
4883 6870
4883 6891
4883 7237
4883 7398
4884 5461
4885 5127
4885 6006
4886 5807
4886 6864
4886 6970
4887 6637
4887 7552
4888 5115
4888 6000
4888 6308
4888 6598
4888 6731
4888 7475
4889 5637
4892 6647
4895 5534
4896 4922
4897 6282
4897 6357
4898 6408
4898 6419
4899 4931
4899 5988
4899 6092
4899 6565
4899 6712
4899 7533
4900 4901
4900 5011
4900 5020
4900 5090
4900 5238
4900 5269
4900 5285
4900 5479
4900 5530
4900 5703
4900 5785
4900 5822
4900 5854
4900 5943
4900 5944
4900 5953
4900 6108
4900 6219
4900 6236
4900 6296
4900 6391
4900 6403
4900 6554
4900 6595
4900 6639
4900 6792
4900 6832
4900 6849
4900 6857
4900 7202
4900 7226
4900 7237
4900 7391
4900 7592
4901 6168
4901 6291
4901 7226
4903 6323
4904 4931
4904 5756
4904 5988
4904 6217
4904 7001
4904 7141
4905 5690
4905 7502
4907 6016
4907 6734
4908 5111
4908 5114
4908 5269
4908 5416
4908 5564
4908 5568
4908 5703
4908 5915
4908 6403
4908 7213
4909 6016
4909 6734
4910 5111
4910 6023
4911 5103
4911 5465
4911 6569
4912 5557
4912 7089
4914 7325
4916 5391
4916 6441
4917 6457
4918 6728
4919 5392
4919 5694
4919 6326
4919 6552
4919 6910
4919 7237
4920 5294
4921 6534
4924 6757
4925 5048
4925 5100
4925 5493
4925 7209
4927 5455
4928 7224
4929 5371
4929 6836
4929 7163
4929 7515
4930 5274
4930 7482
4931 5355
4931 5612
4931 5857
4931 5988
4931 6073
4931 6217
4931 6249
4931 6616
4931 6785
4931 7141
4931 7406
4933 5981
4933 7022
4934 5790
4934 6411
4934 7162
4934 7352
4935 6146
4935 7174
4935 7621
4936 5578
4936 5972
4938 5441
4938 7570
4939 6899
4941 4956
4941 5933
4941 6310
4941 6634
4941 6793
4941 6868
4941 7262
4942 7383
4943 7301
4944 5299
4946 5254
4946 5687
4946 6010
4946 7165
4947 6175
4947 6773
4947 7001
4947 7126
4949 6946
4949 7078
4951 7100
4952 7397
4955 4961
4955 5013
4955 5526
4955 6906
4955 7123
4955 7200
4955 7224
4957 6083
4957 6336
4957 6617
4957 7386
4958 7205
4959 6116
4960 5570
4960 6267
4961 5015
4961 5526
4961 7498
4962 5016
4963 5580
4963 5680
4963 6241
4963 6740
4966 5935
4966 6463
4967 5317
4967 5370
4967 5644
4967 5978
4967 6797
4968 6175
4968 6339
4968 7002
4969 5658
4969 6446
4969 7296
4970 5454
4974 7587
4977 6954
4978 6220
4979 5269
4979 6234
4979 6975
4979 7203
4980 7237
4981 5162
4981 5308
4981 5455
4981 6126
4981 6424
4983 5778
4983 6902
4985 5373
4985 5540
4985 5711
4985 6016
4985 6117
4985 6425
4986 5335
4986 5710
4986 5966
4986 6702
4986 6891
4986 7613
4987 7608
4989 5202
4989 5663
4989 7602
4990 5334
4990 5510
4990 6682
4990 7608
4992 6160
4994 5463
4994 6002
4994 6101
4994 6288
4994 6323
4994 6567
4994 6968
4994 7245
4995 5660
4995 5737
4995 7078
4996 6451
4997 6519
4997 6653
4998 6586
4999 6519
4999 7464
5002 5485
5004 6123
5007 5127
5007 6436
5007 7030
5007 7418
5008 6769
5008 7061
5009 7353
5010 6134
5010 6593
5011 5335
5011 5461
5011 6470
5011 6879
5011 6945
5013 5597
5014 5065
5014 5370
5015 5597
5015 6094
5018 6022
5020 6979
5020 7592
5021 5746
5022 6021
5022 6132
5024 6361
5027 5463
5028 7482
5029 6991
5031 5791
5032 5127
5033 5257
5033 7237
5034 7009
5038 5479
5038 6912
5040 5162
5040 7558
5041 5107
5041 5159
5041 5748
5043 6985
5047 5686
5047 6074
5047 6785
5047 6818
5047 7406
5048 7209
5051 5103
5052 5510
5053 7015
5054 7537
5057 5619
5058 5999
5058 6508
5059 5955
5060 5439
5060 5715
5060 5819
5060 5978
5060 6198
5060 6301
5060 6940
5060 7338
5061 5280
5061 5481
5062 6891
5063 7012
5063 7237
5065 5324
5065 5676
5065 5876
5065 6346
5065 6378
5065 6709
5065 6733
5065 6969
5065 7162
5065 7607
5068 5463
5068 6800
5071 5854
5072 5514
5072 5951
5072 7358
5073 5720
5076 6506
5079 5082
5079 5370
5079 5402
5079 5822
5079 6607
5079 7179
5079 7237
5080 6126
5080 6424
5082 6666
5082 7409
5083 6209
5084 6861
5086 7405
5087 5102
5087 5909
5089 5764
5090 5854
5090 6105
5090 6108
5090 6697
5090 6792
5090 6891
5090 7075
5090 7237
5092 6135
5094 6478
5095 5162
5095 5396
5095 5848
5095 6110
5095 6323
5095 6339
5095 6446
5095 6509
5095 7100
5095 7231
5097 5252
5098 6274
5099 5896
5099 6459
5099 7151
5099 7302
5102 5909
5102 7015
5104 6487
5106 5851
5106 6811
5108 5468
5108 5725
5108 6101
5108 7296
5108 7416
5109 7098
5110 5454
5110 5478
5110 6274
5110 6441
5110 7141
5111 5854
5111 5944
5111 6265
5111 6639
5111 6689
5111 6750
5113 5447
5114 6403
5115 6348
5115 7468
5116 5117
5117 7566
5119 7135
5120 6528
5120 7389
5122 5698
5124 5831
5124 6105
5124 6789
5124 6870
5124 7127
5124 7237
5126 5198
5126 6241
5126 7351
5126 7412
5126 7502
5127 5339
5127 5410
5127 5469
5127 5663
5127 5687
5127 5720
5127 5734
5127 5823
5127 5919
5127 5969
5127 5991
5127 6064
5127 6136
5127 6169
5127 6181
5127 6272
5127 6463
5127 6503
5127 6673
5127 6724
5127 6774
5127 6921
5127 6935
5127 6940
5127 6946
5127 6951
5127 6955
5127 6987
5127 7030
5127 7089
5127 7093
5127 7199
5127 7228
5127 7332
5127 7366
5127 7488
5127 7526
5127 7587
5127 7618
5128 5435
5128 5512
5128 5646
5128 5706
5128 6125
5128 6919
5128 7110
5128 7573
5129 6194
5130 6640
5132 5178
5132 5347
5132 5491
5132 6757
5134 6836
5134 7009
5136 6477
5137 7447
5139 6135
5139 6786
5139 6934
5139 7103
5140 7199
5142 6350
5143 6688
5144 5663
5145 5174
5147 5370
5147 7444
5148 5390
5153 7415
5155 5197
5156 6408
5156 7489
5157 5304
5158 6692
5159 5343
5159 5748
5159 6330
5159 6459
5159 7036
5159 7151
5167 6478
5169 5454
5174 5857
5174 5988
5174 7001
5174 7141
5174 7371
5176 5568
5176 5793
5176 5854
5176 5944
5176 6680
5176 7460
5178 5962
5178 7623
5182 7162
5183 7470
5184 6502
5184 6795
5185 5260
5187 6644
5188 7334
5190 5274
5190 5706
5192 6101
5193 6382
5194 6562
5196 5450
5197 5578
5197 5711
5198 6241
5200 6925
5200 7498
5201 5835
5203 6495
5203 6887
5203 7213
5203 7519
5204 5425
5205 5534
5206 6726
5207 6129
5207 6672
5208 6784
5212 5985
5212 7563
5214 6865
5216 5687
5216 6213
5216 6888
5217 7423
5218 6477
5218 7083
5220 6096
5222 5252
5222 5519
5222 5854
5222 6381
5223 6472
5224 6755
5226 6088
5226 6556
5227 7400
5227 7448
5228 6173
5230 7280
5231 5578
5231 5951
5232 5463
5232 6060
5232 6252
5233 6359
5236 5324
5236 6642
5236 7015
5237 6101
5240 6523
5242 5578
5245 5274
5245 5588
5245 5646
5245 5823
5245 5964
5245 6861
5246 5836
5246 5844
5246 6241
5247 7350
5250 7100
5252 6391
5252 6618
5253 5708
5253 5714
5253 6439
5254 6836
5255 7378
5256 6242
5256 7100
5257 6105
5258 6537
5260 6453
5261 5274
5261 5626
5261 6840
5261 7310
5267 5723
5267 7060
5267 7512
5268 6008
5268 6451
5269 7226
5269 7237
5269 7507
5271 5854
5273 6258
5274 5404
5274 5411
5274 5528
5274 5543
5274 5776
5274 5864
5274 5940
5274 6049
5274 6170
5274 6195
5274 6309
5274 6577
5274 6749
5274 6840
5274 6899
5274 6946
5274 6955
5274 7199
5274 7228
5274 7332
5274 7400
5274 7488
5274 7564
5274 7580
5274 7610
5277 5324
5277 5676
5277 5846
5277 6299
5277 6378
5277 6566
5277 6755
5277 7046
5277 7162
5277 7352
5278 5435
5278 5706
5278 5894
5278 6547
5278 6617
5278 6919
5279 5854
5281 7264
5282 7284
5283 6747
5285 6887
5285 7018
5285 7592
5287 6241
5288 7057
5290 5894
5290 6045
5291 5428
5291 5593
5291 6519
5293 6022
5294 7589
5296 6653
5296 6803
5298 6694
5300 7001
5300 7199
5301 5586
5303 5368
5303 5498
5303 5529
5303 5856
5303 7340
5303 7549
5304 6256
5305 7248
5306 6463
5307 6072
5307 6089
5308 5485
5308 5867
5308 6126
5308 6424
5308 6544
5309 5539
5309 5900
5310 5593
5312 5370
5314 5892
5314 6148
5314 6427
5314 6458
5314 6876
5314 7016
5314 7256
5314 7489
5315 5459
5315 6095
5315 6888
5315 7602
5317 6797
5318 6652
5319 6022
5319 7601
5321 6275
5322 7600
5323 7488
5323 7595
5324 6419
5325 6751
5326 6089
5328 5985
5332 5679
5332 7284
5333 7104
5334 5606
5334 6883
5334 7224
5335 5803
5335 5963
5335 5966
5335 6277
5335 6443
5335 7479
5335 7535
5336 7339
5337 7170
5339 7089
5340 6578
5342 5417
5343 5551
5343 5896
5343 6597
5343 6621
5345 7104
5346 5895
5347 5872
5347 6379
5349 5608
5349 5628
5349 6341
5350 5543
5350 7500
5353 5735
5353 6617
5355 5988
5355 6298
5355 6712
5355 6866
5355 7001
5355 7540
5356 6709
5358 5653
5359 6101
5360 5630
5362 6728
5363 7237
5364 6323
5364 7296
5365 5408
5365 7577
5369 5370
5369 6142
5369 6236
5369 6654
5369 6917
5370 5461
5370 5713
5370 5822
5370 5866
5370 6065
5370 6168
5370 6219
5370 6236
5370 6456
5370 6478
5370 6529
5370 6633
5370 6654
5370 6695
5370 6808
5370 6891
5370 7237
5370 7293
5370 7347
5370 7379
5370 7380
5370 7444
5371 5375
5371 6836
5371 7009
5374 5640
5376 5578
5377 6256
5377 7104
5377 7279
5378 5892
5378 6408
5378 6419
5378 6876
5378 7489
5380 6860
5382 6176
5384 5639
5384 5657
5384 6477
5386 6256
5386 7004
5387 6633
5388 6146
5388 6219
5390 5456
5390 7024
5390 7243
5394 6278
5394 7412
5394 7483
5394 7587
5394 7622
5397 6126
5399 6234
5399 6792
5401 6519
5402 5479
5402 5866
5402 6105
5402 6296
5402 6695
5402 6789
5402 7237
5404 7595
5405 5597
5405 6490
5405 7224
5406 6286
5407 7580
5409 7188
5410 5534
5410 7316
5411 5935
5411 7488
5412 5747
5412 6607
5414 6958
5414 7192
5415 6252
5417 7599
5418 5842
5419 6519
5419 6597
5421 7421
5422 5633
5423 6241
5423 7483
5424 6884
5425 6044
5426 5984
5427 6536
5427 7585
5428 6280
5429 5699
5430 6566
5430 6876
5430 7016
5430 7067
5431 5866
5435 5632
5436 7314
5439 6363
5440 5578
5440 7403
5440 7522
5443 5466
5443 5561
5443 6074
5443 7223
5445 6016
5445 6672
5446 6378
5446 6529
5446 6593
5446 7162
5446 7352
5449 5463
5452 6425
5453 7224
5454 5534
5454 5543
5454 5890
5454 5933
5454 6082
5454 6174
5454 6244
5454 6359
5454 6427
5454 6432
5454 6441
5454 6782
5454 6852
5454 6876
5454 7339
5454 7394
5454 7395
5454 7482
5454 7558
5454 7615
5455 5457
5455 5578
5455 5600
5455 5615
5455 5640
5455 5916
5455 6056
5455 6074
5455 6101
5455 6367
5455 6446
5455 6497
5455 6622
5455 7416
5456 7024
5457 6101
5457 6126
5457 6424
5457 6544
5457 7476
5458 6241
5459 6888
5460 7565
5461 6478
5461 7285
5462 6797
5463 5725
5463 6217
5463 6800
5463 7176
5463 7383
5465 6632
5466 5578
5466 5658
5466 5795
5466 6200
5468 5578
5468 6446
5468 7235
5471 6475
5472 7222
5476 5727
5476 5836
5476 6428
5477 5534
5478 6194
5478 7051
5479 6236
5479 6797
5481 6422
5482 6446
5482 7346
5483 6211
5485 6062
5485 6126
5485 6424
5485 6544
5485 7100
5486 6995
5488 5856
5488 6365
5488 7133
5491 5924
5491 6476
5495 6160
5498 6564
5498 7148
5499 5538
5499 6324
5501 5593
5501 6621
5501 6803
5502 5653
5505 6323
5506 7032
5508 5764
5508 5851
5508 6911
5510 6785
5514 5951
5514 7022
5514 7357
5515 5646
5517 5646
5521 5581
5521 5706
5521 5833
5522 7465
5526 5670
5526 6043
5526 6705
5526 6969
5526 7123
5526 7264
5526 7563
5527 5632
5527 5682
5527 5751
5527 5894
5527 6154
5527 6171
5527 6415
5527 7600
5529 5878
5529 7128
5530 5769
5530 6105
5530 6296
5530 6789
5531 7292
5532 6047
5532 6415
5534 5555
5534 6505
5534 6620
5534 6856
5534 7591
5535 6368
5536 5556
5536 5831
5536 5854
5536 6105
5536 6389
5536 6960
5536 7152
5536 7226
5536 7532
5537 6891
5538 6562
5538 6577
5540 6339
5542 5921
5543 5555
5543 6648
5543 7381
5543 7500
5543 7545
5543 7595
5546 6741
5548 6105
5548 7226
5550 5706
5552 6069
5553 6101
5555 5823
5555 6724
5556 5679
5556 7237
5556 7284
5556 7391
5557 5868
5557 6370
5557 6648
5557 7120
5559 6361
5559 7075
5559 7284
5559 7414
5560 5720
5561 5630
5561 6886
5564 5854
5564 6108
5564 6296
5564 6553
5564 7237
5564 7425
5564 7575
5565 6408
5566 6408
5568 5854
5568 6870
5568 7237
5569 7093
5569 7488
5573 6330
5575 5584
5575 5857
5576 5687
5577 5610
5577 6378
5578 5616
5578 5658
5578 5689
5578 5711
5578 6016
5578 6092
5578 6101
5578 6217
5578 6383
5578 6446
5578 6459
5578 6544
5578 6672
5578 6715
5578 6802
5578 6810
5578 6818
5578 6971
5578 7068
5578 7085
5578 7088
5578 7113
5578 7126
5578 7331
5578 7416
5578 7435
5578 7522
5580 6241
5580 7502
5581 7199
5582 5769
5582 7237
5584 5879
5586 6466
5586 7554
5588 6562
5590 5960
5592 7199
5593 5905
5595 5631
5595 7614
5597 6514
5597 6605
5597 7224
5597 7608
5598 6046
5600 5725
5600 6323
5600 7100
5600 7383
5600 7565
5602 5640
5602 7225
5603 5989
5603 6101
5604 6020
5604 6110
5606 7224
5607 5992
5608 6341
5610 5662
5610 5676
5610 6065
5610 6172
5610 6419
5610 7109
5612 6036
5612 6073
5612 6712
5612 6875
5613 7331
5613 7411
5616 7416
5621 6101
5622 6288
5623 6085
5623 6360
5624 5692
5624 7100
5625 5735
5625 7413
5626 6370
5627 6524
5629 6047
5630 5881
5631 7052
5632 5638
5632 6154
5632 6935
5632 7600
5635 7339
5636 5859
5638 5894
5638 7462
5639 5657
5639 6477
5640 5908
5640 5951
5640 6544
5642 5972
5643 5998
5643 6743
5643 6866
5643 7260
5645 7403
5645 7553
5646 5706
5646 5894
5646 6154
5646 6262
5646 6855
5646 6920
5646 7110
5646 7365
5646 7600
5647 7149
5648 7268
5648 7298
5650 6013
5651 6130
5653 7001
5654 5675
5657 6477
5657 7601
5658 6104
5658 6823
5663 5940
5663 6436
5663 6673
5663 7089
5664 7472
5665 6463
5668 7534
5670 7123
5671 6190
5671 7009
5673 7302
5674 7237
5674 7272
5675 6255
5675 7215
5676 6378
5676 6709
5676 7162
5676 7350
5676 7374
5677 6536
5677 7585
5680 5863
5680 6230
5680 6856
5680 7278
5681 6004
5681 7159
5683 6217
5683 6818
5686 6175
5687 5734
5693 6338
5694 7252
5697 6127
5700 5913
5701 7577
5702 6692
5703 6105
5703 6108
5703 6296
5703 6361
5703 6369
5703 6398
5703 6403
5703 6639
5703 7075
5703 7284
5706 5894
5706 6617
5706 6657
5706 6683
5706 7079
5708 5714
5708 6439
5708 6461
5710 6519
5711 6425
5712 5761
5712 5893
5713 6607
5713 7379
5714 6461
5714 6622
5717 6695
5718 5855
5719 7041
5720 7089
5720 7580
5724 6621
5725 6016
5725 6101
5725 6377
5725 6734
5725 6859
5725 7326
5725 7522
5727 6241
5731 5857
5731 6298
5732 6298
5734 6046
5734 6503
5734 6955
5735 6562
5738 7017
5739 5927
5740 6676
5741 7034
5743 6888
5745 6047
5745 6249
5751 5949
5751 6262
5751 6935
5753 5973
5753 6630
5754 6127
5754 6139
5754 6241
5755 5851
5755 6519
5758 7088
5758 7565
5759 6583
5760 7549
5761 5893
5761 6217
5764 5851
5764 6768
5764 6911
5764 7076
5768 7083
5769 6343
5769 6666
5769 6789
5770 6890
5770 7213
5770 7519
5772 7028
5773 6241
5774 6912
5776 7292
5777 7580
5778 7592
5781 5918
5781 6887
5784 6974
5785 6125
5786 7021
5787 6922
5788 6343
5788 6891
5790 5832
5790 5921
5790 6408
5793 5945
5793 7007
5793 7562
5795 7082
5800 6617
5802 6143
5802 6644
5803 6961
5807 6784
5809 7555
5811 7224
5811 7290
5814 6005
5814 6965
5815 5876
5815 6575
5816 7248
5817 7252
5817 7269
5822 5854
5822 6108
5822 7237
5823 6046
5823 6058
5823 6095
5823 6112
5823 6418
5823 6888
5823 6940
5823 6955
5823 7401
5826 7484
5829 6803
5829 7499
5831 6695
5831 7237
5835 6478
5835 6547
5835 6562
5836 6241
5836 6272
5836 6471
5837 6617
5838 7542
5840 6274
5841 7172
5844 6241
5844 6506
5844 7351
5848 6047
5851 6768
5851 6911
5854 6077
5854 6108
5854 6130
5854 6168
5854 6219
5854 6296
5854 6391
5854 6639
5854 6931
5854 7075
5854 7127
5854 7226
5854 7466
5854 7490
5854 7507
5854 7575
5855 7386
5856 6691
5856 6799
5857 6001
5857 6073
5857 6076
5857 6217
5857 6321
5857 6712
5857 6752
5857 6818
5857 7141
5857 7371
5857 7452
5857 7536
5857 7540
5861 6519
5862 6438
5862 6999
5862 7026
5864 7488
5866 7012
5866 7237
5866 7606
5867 6126
5867 6323
5867 6544
5870 6539
5872 5962
5872 6476
5872 7215
5872 7227
5872 7623
5874 6642
5874 6658
5875 5962
5875 7604
5876 6329
5876 6378
5876 6969
5876 7028
5876 7352
5877 7301
5878 6564
5886 6179
5890 7580
5892 6207
5892 6770
5892 7199
5893 7239
5894 6617
5899 7080
5900 6319
5900 6880
5900 7381
5902 6642
5902 7307
5904 6789
5904 7237
5904 7398
5906 6622
5906 7244
5907 5935
5907 5952
5907 6935
5908 6339
5909 6419
5909 7027
5909 7350
5915 6666
5918 6887
5918 6890
5920 6673
5921 6207
5922 6137
5922 6180
5923 7188
5925 7162
5926 6675
5929 7435
5930 6192
5932 6672
5933 7172
5936 6426
5942 7199
5943 6095
5944 6644
5944 6857
5944 6931
5944 7075
5944 7237
5944 7284
5944 7460
5947 6428
5948 6112
5948 6888
5949 6562
5951 7358
5953 7237
5955 6101
5956 6852
5956 7201
5958 7199
5962 6167
5962 6476
5962 6757
5962 7215
5962 7604
5963 7226
5964 7199
5966 7301
5968 6180
5968 6341
5968 6941
5968 7128
5969 6791
5971 6212
5972 7403
5976 7272
5978 7055
5979 6166
5979 6519
5981 6564
5982 6960
5984 6954
5986 6580
5987 6408
5988 6001
5988 6073
5988 6152
5988 6161
5988 6217
5988 6321
5988 6442
5988 6565
5988 6712
5988 7001
5988 7064
5988 7141
5988 7315
5988 7354
5988 7533
5990 7237
5993 6202
5993 6427
5993 7256
5994 7526
5995 7162
6001 6076
6001 6184
6001 6752
6001 7064
6001 7533
6001 7536
6002 6101
6002 6641
6003 7224
6004 6529
6004 7015
6007 6707
6011 6435
6013 6081
6013 6519
6016 6101
6016 6110
6016 6188
6016 6720
6016 6734
6019 7032
6020 7402
6022 6528
6022 7229
6022 7542
6023 6182
6023 6296
6023 6519
6023 6689
6024 6508
6027 6378
6031 7507
6032 7548
6036 6142
6037 6381
6038 7076
6040 6550
6040 7579
6041 6294
6045 6415
6046 6940
6046 7089
6046 7395
6047 6074
6047 6249
6047 7476
6047 7565
6049 6463
6051 7270
6052 7199
6054 7087
6054 7595
6055 6524
6062 6126
6063 7487
6065 6733
6065 7162
6065 7374
6069 7088
6069 7399
6073 6712
6074 7516
6074 7565
6076 6184
6077 7237
6077 7252
6078 7080
6079 7618
6083 6556
6084 6160
6088 6905
6092 7144
6092 7560
6094 6895
6094 7123
6094 7498
6094 7525
6095 6245
6095 7304
6095 7595
6096 6115
6096 6131
6099 6946
6101 6126
6101 6323
6101 6491
6101 6509
6101 6763
6101 6812
6101 6850
6101 7062
6101 7088
6101 7100
6101 7105
6101 7225
6101 7235
6101 7399
6101 7416
6101 7481
6104 6377
6104 7491
6105 6108
6105 6403
6105 6870
6105 7203
6105 7548
6108 6146
6108 6391
6108 6792
6108 6891
6108 7075
6108 7226
6108 7237
6108 7507
6108 7575
6110 6446
6110 6567
6111 6446
6111 7225
6115 7464
6116 7071
6117 6641
6118 7400
6118 7618
6120 6504
6120 6556
6120 6578
6120 7132
6125 6505
6125 6724
6126 6424
6126 6544
6127 6241
6128 6160
6129 6990
6130 7237
6134 6408
6134 6419
6134 6458
6134 7556
6140 7237
6141 7237
6142 6891
6142 7171
6143 6403
6144 6583
6146 7621
6147 6398
6147 6618
6148 7256
6150 7335
6152 7043
6154 7110
6155 6476
6159 7199
6160 6937
6160 7150
6160 7286
6163 6692
6163 6816
6165 6728
6167 6757
6167 7334
6168 6789
6168 7398
6171 6415
6175 6200
6175 6339
6175 6347
6175 7565
6176 7327
6178 7583
6180 6941
6180 7279
6182 6296
6185 7580
6186 7306
6187 6378
6190 6259
6193 7237
6193 7344
6194 6349
6196 6378
6200 6252
6200 7411
6201 6233
6201 6623
6201 7230
6201 7604
6202 6408
6202 7489
6205 6666
6206 7098
6207 6687
6207 6852
6207 6876
6207 7016
6208 6519
6210 6854
6211 6335
6214 6293
6217 6273
6217 6298
6217 6446
6217 6712
6217 6785
6217 6818
6217 7043
6217 7406
6219 6695
6225 6393
6226 6258
6227 6407
6227 6535
6229 6441
6233 6799
6234 6751
6234 7179
6234 7237
6234 7409
6235 7009
6235 7086
6236 7237
6236 7558
6237 7003
6238 6242
6238 7100
6241 6471
6241 6481
6241 6740
6241 7387
6241 7432
6241 7483
6242 6701
6245 6888
6245 7602
6246 6256
6248 6478
6250 6939
6251 6357
6252 6669
6252 7106
6256 6612
6256 6636
6256 7291
6256 7534
6259 7086
6262 7028
6262 7032
6262 7313
6263 6532
6267 6888
6270 7604
6271 6916
6272 6340
6272 7265
6273 6800
6274 6958
6275 6784
6275 7199
6276 6539
6280 6621
6281 7510
6283 7000
6283 7549
6286 6786
6291 7226
6291 7237
6296 6391
6296 6519
6296 6789
6300 7369
6301 6789
6301 7237
6302 6719
6302 7492
6304 6859
6306 7177
6309 7228
6312 7194
6313 7537
6314 6938
6315 6561
6316 6432
6317 6461
6317 6462
6317 6479
6317 7186
6317 7435
6319 6874
6320 7411
6320 7424
6321 6712
6321 7533
6321 7536
6323 6446
6323 6544
6323 6586
6323 6672
6323 6882
6323 7068
6327 6432
6330 6373
6330 6482
6330 6803
6331 7111
6337 6537
6337 7199
6338 7099
6339 6567
6339 6926
6339 7416
6341 6772
6343 6891
6343 7237
6345 6848
6348 7579
6351 7237
6352 7162
6352 7581
6353 6460
6356 6633
6359 7456
6361 6496
6361 6667
6361 7247
6361 7284
6361 7414
6363 6575
6365 6982
6365 7001
6366 6460
6367 7384
6367 7416
6369 7226
6369 7237
6369 7490
6370 7320
6371 7329
6373 6519
6374 6442
6378 7015
6378 7162
6378 7350
6379 6799
6379 7334
6379 7604
6381 6403
6383 7397
6386 6685
6387 7091
6391 6409
6391 6525
6391 6792
6391 7226
6391 7237
6391 7284
6391 7414
6393 7180
6396 7411
6399 6530
6399 7622
6401 7311
6403 6644
6403 6792
6403 7127
6403 7414
6408 6427
6408 6458
6408 6593
6408 6637
6408 6820
6408 6991
6408 7256
6408 7558
6413 6913
6415 6431
6415 6436
6416 6811
6417 6538
6417 7054
6419 6755
6419 6967
6419 7256
6421 6547
6421 6722
6423 7315
6424 6446
6424 6983
6424 7275
6427 6458
6427 6770
6427 6991
6427 7294
6427 7489
6431 6547
6436 6562
6437 6753
6439 6461
6439 7598
6442 6712
6443 7129
6445 6514
6445 6883
6446 6544
6446 7131
6446 7296
6446 7383
6446 7435
6448 7580
6456 6806
6457 6960
6458 6876
6458 6967
6459 6492
6459 6944
6460 6522
6460 7601
6461 7598
6463 7214
6466 6617
6466 7580
6468 6884
6468 7228
6468 7545
6472 7199
6473 6695
6475 6606
6475 6747
6475 6887
6476 6757
6476 6799
6476 6942
6476 7227
6476 7334
6476 7405
6476 7410
6476 7477
6476 7604
6477 6832
6478 6529
6481 7483
6485 6927
6487 6518
6487 6519
6489 6655
6490 7237
6490 7520
6491 6509
6494 6519
6495 6696
6495 7213
6495 7220
6495 7519
6496 7141
6496 7414
6500 7227
6500 7604
6502 7237
6503 6940
6503 7089
6503 7395
6508 7249
6509 6586
6510 7334
6510 7604
6512 6729
6513 6937
6514 7224
6515 7232
6518 6992
6519 6621
6519 6653
6519 6656
6519 6803
6519 6860
6519 7245
6519 7266
6519 7535
6521 6960
6528 6538
6528 6563
6528 6651
6529 6633
6529 7162
6530 7107
6530 7622
6531 6704
6538 7035
6538 7054
6538 7504
6538 7551
6541 6884
6544 6754
6544 7435
6546 6812
6546 6958
6547 6617
6549 7432
6553 7237
6554 7284
6556 7446
6556 7513
6561 6905
6562 6572
6562 6919
6562 6986
6562 7019
6564 6761
6564 7449
6564 7561
6566 7046
6567 6776
6567 7612
6568 6656
6568 6956
6573 6892
6575 7162
6576 7166
6577 7228
6579 6792
6585 7237
6586 7100
6592 7338
6595 6904
6598 7468
6598 7579
6600 6963
6607 7511
6610 7237
6616 7536
6617 7600
6621 7224
6621 7339
6623 7334
6631 7482
6632 6775
6633 6707
6633 6891
6633 7436
6635 6888
6636 6775
6636 7506
6637 6991
6639 6689
6639 7202
6640 7468
6640 7579
6641 7330
6642 6863
6642 6912
6642 7171
6642 7237
6642 7404
6642 7429
6642 7590
6643 6853
6645 6687
6649 6891
6650 7019
6652 7287
6652 7579
6654 7621
6656 7295
6663 7223
6666 6797
6666 7484
6666 7531
6668 7617
6672 7416
6673 6938
6673 7587
6674 6935
6682 7224
6684 7030
6686 7593
6695 6789
6697 7237
6697 7305
6697 7460
6700 7545
6701 7100
6703 6825
6706 7353
6709 7374
6710 6859
6712 6725
6712 6785
6712 6812
6712 6862
6712 7001
6712 7560
6715 7296
6717 7256
6720 6734
6724 7587
6725 7139
6727 7283
6728 7226
6728 7363
6731 7579
6736 6909
6743 7324
6746 7478
6747 6887
6752 7512
6757 7405
6757 7477
6759 7178
6770 6991
6772 7001
6772 7199
6779 7417
6785 7225
6786 7070
6787 7498
6789 7075
6789 7237
6789 7398
6790 7600
6792 7226
6792 7237
6792 7322
6794 7601
6797 7237
6797 7425
6802 6842
6805 7011
6806 7343
6811 6911
6812 7225
6813 6990
6813 7080
6815 7382
6817 7102
6818 7001
6819 7199
6823 7296
6826 6947
6827 6990
6827 7080
6828 7156
6831 6908
6834 7213
6836 7009
6838 7123
6838 7498
6842 7122
6842 7223
6845 7352
6846 7237
6846 7433
6851 7295
6852 6876
6857 6870
6858 7159
6859 7530
6861 6913
6869 7067
6870 7237
6884 6887
6887 7220
6887 7393
6888 6987
6890 7213
6891 7075
6891 7548
6891 7575
6893 7124
6899 7595
6907 7199
6915 7341
6919 7308
6924 7427
6930 7134
6931 7091
6931 7237
6931 7460
6936 6965
6936 7340
6938 7448
6941 7279
6941 7534
6948 7129
6955 7457
6958 7141
6958 7360
6960 7524
6965 7340
6969 7162
6972 7080
6972 7359
6974 7140
6978 7322
6981 7211
6990 7080
6999 7026
6999 7160
7001 7141
7001 7533
7005 7170
7012 7237
7012 7507
7012 7606
7013 7609
7014 7334
7014 7604
7015 7581
7017 7284
7022 7071
7024 7216
7028 7361
7028 7607
7030 7078
7030 7488
7035 7178
7045 7335
7050 7581
7052 7413
7056 7196
7068 7297
7068 7397
7072 7237
7075 7237
7080 7584
7087 7526
7093 7488
7095 7556
7098 7233
7100 7234
7100 7346
7100 7372
7100 7427
7100 7470
7101 7571
7102 7141
7104 7315
7106 7188
7107 7226
7118 7199
7123 7224
7123 7563
7126 7556
7127 7237
7127 7578
7128 7188
7141 7452
7141 7533
7143 7568
7149 7287
7153 7258
7162 7350
7162 7374
7166 7486
7170 7302
7178 7422
7187 7237
7188 7445
7195 7407
7202 7226
7215 7334
7217 7415
7224 7289
7226 7237
7226 7391
7226 7606
7237 7282
7237 7305
7237 7344
7237 7349
7237 7353
7237 7398
7237 7460
7237 7490
7237 7575
7237 7578
7237 7589
7244 7416
7265 7594
7268 7298
7270 7442
7276 7381
7277 7398
7288 7331
7289 7339
7311 7600
7313 7573
7322 7557
7334 7623
7339 7498
7364 7586
7385 7395
7385 7457
7403 7522
7409 7621
7416 7435
7420 7545
7454 7540
7457 7488
7482 7615
7505 7579
7533 7536
