0 2786
0 7551
0 13262
0 14403
0 17782
0 19591
1 3589
1 8578
1 11790
1 21507
1 21696
2 811
2 4292
2 5124
2 7388
2 10374
2 13177
2 22884
2 23425
2 23969
2 24339
3 332
3 583
3 1286
3 5669
3 16338
4 6916
4 14513
4 15400
4 18729
4 20785
5 7669
5 10590
5 14897
5 16712
5 17465
5 17467
6 1775
6 2867
6 5927
6 7303
6 15240
6 20298
6 20665
7 147
7 304
7 2541
7 3164
7 4605
7 6891
7 9860
7 10245
7 10319
7 12217
7 14137
7 15315
7 17179
7 18755
7 19020
8 506
8 5542
8 7130
8 21393
8 23380
9 1810
9 7340
9 16920
9 23668
9 23935
9 24230
10 5370
10 8510
10 15926
10 16986
10 21134
11 2822
11 5177
11 8299
11 10593
11 13054
12 1172
12 1186
12 1545
12 6573
12 12411
12 16558
12 18012
12 22568
12 23144
13 2260
13 3359
13 15018
13 19935
13 20306
14 2543
14 4315
14 18543
14 20985
14 22193
15 6460
15 8085
15 8975
15 9051
15 10006
15 13684
15 14401
15 15027
15 19052
15 19834
15 21086
15 22019
16 1511
16 2629
16 3086
16 5952
16 7456
16 12516
16 13782
16 16893
16 21257
17 5652
17 7618
17 14733
17 18299
17 18771
18 1714
18 3250
18 4660
18 8025
18 8744
18 11644
18 13024
18 14049
18 15061
18 17686
19 3891
19 4515
19 5348
19 9047
19 11361
19 12052
19 14841
19 15601
19 16417
19 16477
19 16750
19 19914
19 20077
19 22058
19 22107
20 2686
20 12101
20 12870
20 14752
20 15758
20 16028
20 16816
20 20188
21 3583
21 5901
21 6518
21 11560
21 14422
21 16292
21 17749
21 18353
21 18883
21 19206
21 19268
21 19794
21 22678
22 5145
22 7260
22 9437
22 11974
22 11975
22 12598
23 2260
23 13962
23 16496
23 18130
24 5445
24 6630
24 10600
24 14320
24 18530
25 6034
25 15195
25 16191
25 18790
25 20465
26 14032
26 16191
27 742
27 3509
27 14167
27 14207
27 20707
27 21097
28 5973
28 10750
28 16852
28 18359
28 20190
29 1224
29 3929
29 11014
29 18933
29 19318
30 3049
30 4402
30 8716
30 10056
30 12776
30 13199
30 15322
30 20595
30 21237
30 21990
30 22199
30 22281
31 1196
31 2068
31 3183
31 10749
31 14842
32 4809
32 7934
32 11602
32 14988
32 15452
32 16280
32 22317
32 22512
33 1124
33 1199
33 3879
33 4889
33 8139
33 10643
33 12461
33 14808
33 15561
33 16600
33 22000
33 22577
33 22757
34 127
34 2342
34 9426
34 9502
34 13580
35 11768
35 11961
35 12907
35 16748
35 18886
35 19601
35 23035
35 23098
36 187
36 5281
36 8572
36 8792
36 10308
36 20970
36 23390
37 3948
37 8753
37 12819
37 15445
37 21834
38 4562
38 5177
38 8299
38 17609
39 1189
39 6848
39 14332
39 14512
39 17572
39 18736
40 1017
40 1842
40 23865
40 23900
40 24321
41 1802
41 3378
41 9379
41 11229
41 21795
42 2351
42 7180
42 10678
42 15115
42 20771
43 5191
43 5317
43 21029
43 21822
43 23413
44 3184
44 4972
44 12454
44 17382
44 20492
45 183
45 5380
45 6424
45 7599
45 10195
45 18190
45 18687
46 532
46 10032
46 12557
46 24277
46 24470
47 2202
47 4265
47 5225
47 11655
47 12512
47 14553
47 18219
47 22543
48 2706
48 2771
48 8658
48 9371
48 9836
49 4115
49 10423
49 11561
49 19649
49 22788
50 7086
50 8601
50 9403
50 9772
50 10153
50 11120
50 11948
50 13723
50 14019
50 17646
50 19100
50 21735
51 9316
51 10958
51 17764
51 18215
51 19097
52 539
52 3439
52 6316
52 8534
52 10103
52 10104
52 10572
52 13245
52 15872
52 16459
52 17814
52 21470
53 2306
53 5501
53 10256
53 17883
53 22231
54 3907
54 9740
54 10796
54 14585
54 15613
55 11491
55 14323
55 14325
55 14326
55 16667
56 696
56 3807
56 3886
56 4200
56 5070
56 7271
56 9506
56 10356
56 13936
56 14971
56 19521
56 22558
56 23550
57 1068
57 4927
57 12159
57 14349
57 21728
58 6793
58 14643
58 15354
58 16973
58 18297
59 8408
59 11326
59 14380
59 15393
59 15410
60 1258
60 1983
60 4647
60 11236
60 13767
60 16295
60 17181
60 18697
60 19671
60 20047
60 20865
60 23647
61 264
61 715
61 2881
61 9835
61 16916
61 16917
61 19729
61 20760
62 5335
62 5615
62 23252
62 24294
62 24463
63 2385
63 2397
63 7135
63 12007
63 18614
63 23778
63 23946
64 4532
64 6791
64 6906
64 8438
64 14921
64 16722
65 1295
65 3546
65 7651
65 10046
65 23878
66 289
66 961
66 17305
66 18782
66 19923
67 2449
67 5090
67 8560
67 10526
67 11484
67 14316
67 15626
67 19366
68 1386
68 8734
68 12107
68 12732
68 14280
68 15901
68 16529
68 17924
68 19733
68 20196
68 20433
68 20976
69 1079
69 3326
69 8148
69 8962
69 14461
69 14876
69 16845
70 1761
70 10602
70 13016
70 22200
70 22226
71 10558
71 11514
71 13314
71 21137
71 21402
72 1120
72 7892
72 8079
72 8363
72 9782
72 15612
72 18881
72 20180
72 20647
73 2643
73 3163
73 6401
73 11842
73 18122
73 23735
73 24338
73 24425
74 1992
74 1993
74 2358
74 2709
74 4185
74 4592
74 4593
74 4594
74 5383
74 15278
74 20856
74 21667
74 23338
75 203
75 2217
75 3156
75 3322
75 8372
75 10033
75 10537
75 10876
75 11631
75 11972
75 12142
75 12489
75 15761
75 16596
75 16627
75 16809
75 17020
75 18621
75 18638
75 19196
75 19622
75 20517
75 20779
75 21690
75 21766
75 22425
76 3614
76 3616
76 18150
76 21238
76 22481
77 4936
77 23784
77 24223
77 24285
77 24436
78 3806
78 6641
78 8228
78 12382
78 13401
78 21651
78 23733
78 23784
78 24068
78 24135
78 24285
79 2994
79 5660
79 6375
79 10597
79 10840
79 12514
79 13958
79 14299
79 14919
79 18625
79 19223
79 19392
80 3512
80 3837
80 4596
80 13500
80 17893
80 19788
80 22851
81 387
81 3119
81 7840
81 9796
81 19378
82 3012
82 7324
82 9491
82 9623
82 20186
83 7104
83 7417
83 9093
83 10301
83 17074
83 20592
83 22220
83 23379
84 2015
84 3407
84 4822
84 5376
84 5377
84 7660
84 8777
84 9263
84 9965
84 11121
84 12191
84 12956
84 13272
84 14774
84 17930
84 18874
84 19610
84 20248
84 21095
85 2602
85 15868
85 18193
85 19191
85 20341
86 5476
86 10274
86 12506
86 18629
86 20635
86 20997
86 23568
87 2525
87 3967
87 6201
87 6351
87 6580
87 7118
87 7858
87 10056
87 10466
87 10666
87 17573
87 20408
87 21155
87 22588
88 2626
88 2695
88 10838
88 18314
88 19748
88 23174
89 6263
89 10741
89 16293
89 16315
89 16999
89 21197
90 2519
90 5177
90 7632
91 1645
91 1851
91 19570
91 21142
91 22472
92 8071
92 20456
92 22151
92 23389
93 3881
93 8782
93 12062
93 14131
93 20361
94 3397
94 11513
94 14933
94 21009
94 22913
95 11048
95 12472
95 16109
95 16178
95 17046
95 17940
96 5202
96 6954
96 9664
96 10550
96 11033
96 11678
96 14468
96 16636
96 17490
96 23193
96 23748
97 695
97 1225
97 3604
97 4617
97 5112
97 16875
97 19651
97 20250
97 22748
98 3239
98 5230
98 6930
98 12897
98 18900
99 7784
99 10391
99 17649
99 17956
99 18323
100 2147
100 6073
100 6196
100 7892
100 7977
100 9971
100 14173
100 16598
100 16942
100 20180
100 21556
100 21614
100 23495
101 4793
101 7151
101 13896
101 14541
101 21725
102 2004
102 2256
102 2418
102 5587
102 14066
103 8554
103 15151
103 19318
103 22025
104 2748
104 23813
104 23912
104 23947
104 24020
105 6870
105 8238
105 9515
105 24325
106 7224
106 10571
106 12488
106 12591
106 22904
107 2087
107 21180
107 21191
107 21339
107 21384
108 3543
108 5199
108 15419
108 17989
108 20650
109 442
109 3996
109 16403
109 17631
109 19355
110 443
110 561
110 611
110 1130
110 1410
110 2914
110 3252
110 4371
110 5599
110 7408
110 7643
110 10403
110 12656
110 12670
110 12813
110 14558
110 20917
110 21451
110 21786
110 22153
111 140
111 426
111 736
111 1080
111 4123
111 5644
111 5960
111 6353
111 7100
111 8956
111 9077
111 9551
111 11209
111 16183
111 16395
111 16929
111 17829
111 19066
111 20012
111 20070
111 20417
111 21058
111 21178
111 21419
111 21898
112 1765
112 6472
112 8857
112 14482
113 596
113 2066
113 2650
113 6721
113 11124
113 14416
113 16357
113 19540
114 2762
114 5089
114 8405
114 18379
114 19367
115 3143
115 6996
115 12971
115 20137
115 20882
116 3191
116 7269
116 7459
116 17141
116 18151
116 18739
116 20161
117 4836
117 13561
117 18254
117 18901
117 19552
117 22174
118 3303
118 11051
118 11363
118 13271
118 15218
118 16124
118 16345
118 17123
118 17886
118 19909
118 22323
119 1258
119 4402
119 23369
120 2550
120 3383
120 10417
120 16076
120 16300
121 5553
121 12120
121 13210
121 14940
121 15648
122 2743
122 3594
122 5999
122 13718
122 15265
122 16414
123 147
123 11583
124 16517
124 19318
125 337
125 352
125 2096
125 3061
125 3246
125 17323
125 23460
126 9411
126 10979
126 12728
126 15430
126 16681
126 21403
126 22768
126 23133
127 1139
127 2284
127 9502
127 13580
127 14768
127 15003
127 17779
127 19485
128 698
128 6779
128 7615
128 8656
128 9408
128 13498
128 15688
128 18506
128 20690
128 22179
129 1070
129 2996
129 4813
129 7720
129 7801
129 9313
129 11082
129 11672
129 12785
129 14702
129 21303
129 23168
130 3097
130 6777
130 8218
130 13605
130 17421
130 18714
130 22212
131 2784
131 16410
131 18066
132 5360
132 8295
132 8530
132 10992
132 14632
132 21200
132 21201
133 1952
133 2720
133 5108
133 8221
133 22164
134 2542
134 17669
134 24183
134 24184
134 24437
135 7806
135 8511
135 11436
135 11789
135 22697
136 2062
136 5940
136 9394
136 9548
136 14751
137 1561
137 17411
137 20144
138 419
138 991
138 3053
138 3505
138 5135
138 5188
138 5713
138 7089
138 8711
138 10556
138 10959
138 15206
138 15812
138 15883
138 16461
138 17171
138 17756
138 17787
138 21538
138 22641
138 22662
139 1104
139 11038
139 13094
139 15929
139 17058
139 17939
140 9551
140 20417
140 21178
141 224
141 2106
141 3938
141 5085
141 6150
141 6866
141 7393
141 7482
141 10874
141 11448
141 13363
141 17558
141 20895
141 22633
142 7237
142 10075
142 10196
142 17992
143 8204
143 10571
143 22025
143 22287
144 4402
144 14877
144 20377
145 742
145 825
145 3509
145 5478
145 20707
146 1248
146 1630
146 3508
146 9034
146 9546
146 15475
146 19400
147 200
147 213
147 396
147 1243
147 2290
147 3261
147 3870
147 4180
147 4390
147 5082
147 5635
147 6846
147 7131
147 7511
147 7540
147 9018
147 10098
147 10571
147 11327
147 11543
147 11583
147 13734
147 15389
147 16277
147 17298
147 17947
147 21078
147 22185
147 22618
147 22696
148 8638
148 9353
148 10434
148 15403
148 18783
149 208
149 1492
149 2714
149 4412
149 5103
149 5633
149 6995
149 7690
149 7977
149 9813
149 10122
149 11725
149 13800
149 14749
149 19704
149 24491
150 1276
150 2021
150 2817
150 5721
150 5722
150 7227
150 9202
150 9409
150 10617
150 12878
150 13442
150 13516
150 14109
150 14237
150 14353
150 16282
150 16384
150 17014
150 17104
150 18580
150 19401
150 19759
150 20197
150 20430
150 20748
150 22427
150 22455
150 23300
150 23422
151 2021
151 2817
151 13442
151 20197
152 9291
152 11794
152 12181
152 15850
152 18084
152 19807
152 21936
152 22823
153 5943
153 10244
153 13555
153 14212
153 15532
153 22990
153 23014
153 23015
153 23016
154 1021
154 6429
154 7595
154 15773
154 19192
154 19329
155 4856
155 13724
155 13725
155 13726
155 16439
156 9410
156 9437
156 13853
156 15638
157 3117
157 8743
157 9703
157 19584
158 6735
158 7542
158 11756
158 23742
158 24069
159 606
159 10200
159 12051
159 16639
159 16720
160 2124
160 3281
160 3448
160 6522
160 7623
160 9861
160 10491
160 22465
161 4633
161 7947
161 9941
161 14612
161 15334
161 18772
161 19438
161 20261
161 21907
162 1162
162 1950
162 2250
162 4514
162 5581
162 14692
162 15108
162 16671
162 20796
163 1486
163 8301
163 10679
163 11362
163 21842
163 21843
163 23640
164 13663
164 14177
164 19198
164 20220
164 23596
165 1577
165 2813
165 2814
165 10413
165 18277
166 5820
166 15215
166 17411
167 928
167 4393
167 5889
167 20744
168 2340
168 6476
168 7867
168 11841
168 14053
168 16554
168 20498
168 23843
169 456
169 1394
169 11743
169 12657
169 14071
169 20319
169 20612
169 22444
170 583
170 10943
170 11911
171 7260
171 8775
171 12265
171 15235
171 23018
172 15378
172 16193
172 16324
172 20824
172 21654
172 21927
172 22913
173 1109
173 5691
173 6013
173 9144
173 10375
173 12315
173 24160
174 1409
174 2341
174 7743
174 8930
174 24284
175 1812
175 9009
175 10640
175 12567
175 23994
176 1812
176 6716
176 9009
176 10020
176 12567
176 23064
177 712
177 11308
177 12425
177 12427
177 16216
177 24256
178 764
178 2033
178 3069
178 9050
178 23918
178 24251
179 1206
179 2292
179 3496
179 11405
179 18453
179 19611
179 20653
179 23125
180 10306
180 11463
180 12556
180 16121
180 18926
181 1332
181 2723
181 7038
181 10290
181 11503
181 11505
182 5328
182 13870
182 16535
182 23200
183 3237
183 6424
183 18190
183 18687
184 659
184 3157
184 15084
184 21658
184 21664
185 1293
185 1946
185 2801
185 3466
185 4102
185 5598
185 7338
185 7502
185 8128
185 12983
185 14377
185 17595
185 19204
185 22281
185 23284
185 23526
186 740
186 1192
186 8751
186 9306
186 9783
186 11871
186 13156
186 18368
186 20153
186 20309
187 8792
187 21093
187 22595
187 23390
188 405
188 4453
188 4455
188 12705
188 20775
189 1055
189 4375
189 6985
189 10431
189 13501
189 14384
189 14716
189 15035
189 15689
189 19509
189 19740
189 19838
189 20657
189 21960
190 2840
190 18058
190 18846
190 19973
190 20566
191 212
191 1133
191 3028
191 6636
191 22139
191 23783
192 9780
192 18333
192 23400
192 23887
192 24087
193 335
193 2115
193 11093
193 16354
193 19319
194 3445
194 4792
194 7929
194 13520
194 18815
195 4127
195 9800
195 17285
195 18405
195 19198
196 1406
196 12079
196 15145
196 19381
196 21437
196 22290
197 15107
197 17552
197 20123
197 20652
197 22189
198 5551
198 10524
198 15073
198 21010
198 24232
199 266
199 1042
199 2681
199 2682
199 2747
199 2920
199 3606
199 3692
199 3923
199 4707
199 5314
199 5525
199 5682
199 6105
199 7218
199 7537
199 7638
199 7641
199 9184
199 9496
199 10109
199 12613
199 13202
199 13804
199 13805
199 14260
199 14731
199 14856
199 15309
199 16225
199 18067
199 18553
199 18877
199 20551
199 20994
199 21071
199 21099
199 21243
199 22408
199 23001
199 23171
199 23685
199 23802
199 23955
199 24150
199 24166
199 24279
199 24307
199 24309
199 24332
200 10571
200 15315
200 19227
201 6147
201 16879
201 18600
201 19179
201 21991
202 6943
202 10351
202 18593
202 19553
202 23248
203 5563
203 19646
203 20122
204 7311
204 11861
204 14363
204 15991
205 4595
205 8418
205 8781
205 11208
205 18967
205 23329
206 5415
206 7571
206 8695
206 19445
206 20467
207 1295
207 3546
207 24310
208 5103
208 6360
208 6995
208 7977
208 9813
208 10583
208 11799
208 13379
208 13800
208 14162
208 23581
209 2254
209 7637
209 18324
209 19561
209 20120
210 5450
210 11214
210 12620
210 12774
210 15293
211 2915
211 8313
211 8549
211 9201
211 9724
211 9978
211 10544
211 10547
211 14926
211 17200
211 23571
212 1515
212 3028
212 22139
213 10245
213 12217
214 968
214 8251
214 12043
214 19070
214 20523
214 23765
215 5553
215 11619
215 15126
216 2563
216 4192
216 4806
216 4807
216 11855
216 14248
216 16642
216 23222
217 2315
217 6115
217 9058
217 11345
217 15127
218 2352
218 4419
218 6759
218 7499
218 7500
218 7699
218 9460
218 13350
218 13351
218 19803
218 20238
219 3397
219 8413
219 11513
219 14933
220 2517
220 5523
220 7326
220 7367
220 15607
221 11347
221 11559
221 13205
221 14544
221 18303
221 21871
221 22343
222 3234
222 7799
222 8646
222 10667
222 11956
222 18442
222 18670
222 22844
222 23344
223 3307
223 8930
223 10162
223 24291
224 5027
224 6984
224 9472
224 11448
224 20749
224 20895
224 23439
225 8565
225 8749
225 10398
225 22781
225 23221
226 2002
226 6293
226 14643
226 15924
226 20095
227 441
227 1660
227 1838
227 5935
227 8693
227 9962
227 14916
227 15384
227 16567
228 3382
228 4789
228 8116
228 17147
228 21505
229 928
229 7559
229 9115
229 18561
230 6438
230 7042
230 9727
230 10408
230 11712
230 15182
230 20179
231 687
231 1026
231 2726
231 6879
231 6937
231 8043
231 9145
231 10769
231 14589
231 15990
231 20738
231 21151
232 5800
232 7334
232 8001
232 13534
232 13916
232 14313
232 19673
233 2486
233 6514
233 8720
233 10861
233 13908
234 1511
234 20457
234 21660
235 8930
235 15580
235 24083
236 10630
236 14866
236 14867
236 14868
236 14869
236 15843
236 15844
237 1272
237 1321
237 3916
237 11024
237 19878
238 12145
238 13701
238 13816
238 16970
238 18413
239 5655
239 7358
239 13067
239 14005
239 15272
239 15966
239 17033
239 21242
240 3562
240 5955
240 9604
240 10323
240 11300
240 14801
240 15298
240 16209
240 16847
240 18511
240 20486
240 20686
240 21038
240 23056
241 7219
241 9085
241 20109
241 23886
241 24019
241 24189
241 24219
242 277
242 1324
242 3507
242 5259
242 12194
242 13633
242 15963
242 17325
242 17399
242 17817
242 18844
242 18866
242 19858
242 20329
242 22147
242 23437
242 23444
243 244
243 4456
243 4457
243 13278
243 18607
243 18822
244 4456
244 12048
245 8026
245 9100
245 12620
246 683
246 2400
246 9211
246 9266
246 9620
247 3385
247 5644
247 20417
248 2114
248 2551
248 8055
248 13416
248 18717
249 3308
249 8411
249 14789
249 20837
249 23449
249 23496
250 4746
250 9316
250 17764
250 19097
251 1988
251 2834
251 3935
251 8606
251 13523
251 17054
252 2009
252 2951
252 10571
252 10593
252 23431
253 1056
253 3452
253 4829
253 12243
253 21309
253 23556
254 1796
254 4459
254 12803
254 20897
254 23274
254 23529
254 24326
254 24407
255 1840
255 3030
255 15653
255 19078
255 21523
256 4329
256 7935
256 9976
256 11060
256 22660
257 11950
257 16184
257 16706
257 17679
257 17716
257 19124
257 23464
258 8098
258 11057
258 12290
258 12837
258 16603
258 23867
258 24225
259 14475
259 19988
259 21009
259 21614
260 281
260 10681
260 12825
260 14063
260 14645
260 17344
261 7239
261 10459
261 15179
261 16758
261 20752
261 21221
261 22946
261 23827
262 6417
262 8941
262 9553
262 15402
262 16244
262 17507
262 18575
262 18724
262 20272
262 20929
262 21806
262 22163
263 4875
263 5246
263 11676
263 11875
263 15020
264 2881
264 6016
264 19729
265 1666
265 10612
265 16597
265 22424
265 22883
266 3606
266 7641
266 24279
267 7201
267 7312
267 14824
267 17140
267 17692
267 17973
267 18805
267 19062
267 22293
268 8280
268 8746
268 9849
268 11031
268 13952
269 1927
269 3272
269 5172
269 5789
269 5796
269 6166
269 7972
269 8189
269 9326
269 11189
269 13381
269 14117
269 17857
269 19051
270 2042
270 2565
270 2643
270 4774
270 5240
270 8050
270 8098
270 10964
270 12800
270 24333
271 1240
271 6626
271 10424
271 15314
271 15333
271 15489
271 22054
271 22387
271 23533
272 1014
272 1564
272 1835
272 6498
272 14057
272 20675
273 2717
273 2749
273 5889
273 7559
273 18561
274 3013
274 8220
274 11415
274 13671
274 15674
274 22611
275 8087
275 9558
275 12860
275 13225
275 19937
276 2314
276 3831
276 5020
276 7355
276 10277
276 15680
276 20894
277 18844
277 19858
277 23437
278 719
278 780
278 1850
278 4994
278 13009
278 14931
278 15716
278 21774
278 22385
278 22713
278 22838
279 8826
279 11699
279 16394
279 17616
279 18710
280 809
280 6118
280 6119
280 7002
280 11554
281 10681
281 12825
281 14063
282 597
282 8270
282 19296
282 20303
282 21342
282 21987
283 833
283 9672
283 12994
283 18954
284 6368
284 7742
284 11774
284 15103
284 18148
284 23461
285 8656
285 9531
285 16708
285 22179
286 2981
286 6113
286 7018
286 10823
286 12925
286 18444
286 22921
286 23563
287 11985
287 12587
287 13327
287 19258
287 19669
288 5201
288 6438
288 11129
288 11763
289 522
289 885
289 961
289 1049
289 1134
289 1246
289 2010
289 2044
289 3298
289 3660
289 3724
289 3894
289 4398
289 4428
289 4572
289 5357
289 5474
289 5824
289 6005
289 6625
289 8089
289 8462
289 8698
289 8763
289 9676
289 10012
289 11653
289 11915
289 12619
289 12696
289 13406
289 13527
289 13566
289 13945
289 14156
289 14319
289 14350
289 14839
289 15962
289 16187
289 16818
289 17256
289 17305
289 18037
289 18112
289 18466
289 18576
289 18782
289 19116
289 19187
289 19928
289 20107
289 20459
289 20555
289 20863
289 21028
289 21329
289 21390
289 21597
289 22399
289 23275
289 23283
290 899
290 2678
290 3684
290 6504
291 292
291 1533
291 1864
291 11772
291 20988
292 1533
292 11772
293 1131
293 2090
293 3479
293 4215
293 6436
293 8070
293 8135
293 11997
293 19860
293 20550
293 20716
294 9038
294 9866
294 15944
294 19797
294 22796
295 3946
295 8916
295 12420
295 16350
295 23255
296 2901
296 4477
296 15996
297 7962
297 8930
297 24083
298 2643
298 24212
298 24304
298 24305
298 24425
299 2643
299 5235
299 13627
299 21919
299 24049
300 864
300 24354
300 24364
300 24448
301 5503
301 7666
301 13157
301 21114
301 22103
302 339
302 4729
302 6067
302 7789
302 8290
303 6604
303 14417
303 19258
303 22510
304 6719
304 10245
305 355
305 2897
305 6835
305 7148
305 7425
305 12869
305 20315
306 311
306 312
306 328
306 330
306 8909
307 310
307 311
307 317
307 326
307 328
307 329
307 330
307 1602
307 8909
308 310
308 312
308 315
308 319
308 320
308 327
308 733
308 4323
308 5513
308 8909
308 17196
309 313
309 4317
309 4320
309 4321
309 9637
310 327
310 8909
311 316
311 317
311 318
311 319
311 320
311 326
311 329
311 1602
311 3710
311 8909
311 23707
312 327
312 733
312 8909
313 831
313 1724
313 4680
313 6094
313 6344
313 8829
313 11964
313 13073
313 17196
313 23395
314 327
314 733
314 4323
314 8909
315 327
315 5513
315 8909
315 22229
316 328
316 330
317 329
317 330
317 1602
318 328
319 733
319 9251
319 23707
320 3710
320 9251
321 2645
321 6378
321 23729
321 24032
321 24328
322 473
322 3875
322 4699
322 14311
322 16506
323 6840
323 8790
323 9909
323 13408
323 18958
324 7298
324 8659
324 9565
324 14911
324 16915
324 23280
325 557
325 8374
325 14046
325 14216
325 16013
325 23566
326 330
327 733
327 5513
327 8909
327 16145
327 17196
327 22229
327 23451
328 329
328 1602
328 5565
328 8909
328 23707
330 1602
330 5565
331 889
331 1317
331 6227
331 9879
331 16325
331 20622
332 583
332 5669
332 8670
332 13088
332 21473
333 1489
333 6009
333 6785
333 7120
333 7411
333 8847
333 12139
333 12140
333 13552
333 14782
333 16760
333 17791
333 20269
333 22811
334 5059
334 10893
334 12797
334 16213
334 18998
335 5211
335 6599
335 7076
335 11093
335 12383
335 16354
335 19319
336 2164
336 2737
336 8178
336 10498
336 11584
336 16000
336 16742
336 17022
337 352
337 1180
337 3055
337 3195
337 3246
337 8169
337 8561
337 9232
337 9575
337 11232
337 11825
337 13124
337 17369
337 17542
337 19323
337 20167
337 21088
337 21366
337 22230
337 22247
337 23832
338 7233
338 8099
338 10875
338 19430
338 19721
339 7789
339 8290
339 15457
339 15458
339 21498
340 7690
340 14341
340 21570
341 3887
341 7578
341 7996
341 10674
341 10883
341 11649
341 15555
341 19427
342 854
342 4504
342 7734
342 17698
342 20868
342 23404
343 1344
343 5527
343 10359
343 19240
343 19744
344 1332
344 4140
344 7038
344 8570
345 2067
345 8393
345 8953
345 13466
345 17091
346 506
346 6698
346 15877
346 17411
347 7291
347 14482
347 19515
348 1205
348 7296
348 10493
348 14393
348 22631
349 1855
349 8725
349 21629
350 703
350 1697
350 5918
350 13532
350 14178
351 1190
351 2022
351 2484
351 2953
351 8315
351 9169
351 10127
351 10755
351 12095
351 12718
351 13280
351 13309
351 13817
351 15682
351 17496
351 18846
351 19309
351 19973
351 20630
351 21160
351 21475
351 24381
352 2601
352 3061
352 3195
352 3246
352 4519
352 7126
352 8169
352 12492
352 12626
352 17323
352 17542
352 19323
352 20167
352 20789
352 22247
353 6169
353 11542
353 23846
353 23913
353 24062
354 3403
354 6193
354 17287
354 20209
354 21415
355 2897
355 7148
355 7425
355 12869
355 20315
356 943
356 8528
356 11101
356 14973
356 21234
356 22353
356 23138
357 1197
357 3529
357 5903
357 6947
357 7437
357 8119
357 10317
357 10474
357 11741
357 13221
357 14194
357 14838
357 16125
357 17293
357 19948
357 23405
358 882
358 7111
358 8680
358 15497
358 20334
359 1663
359 2491
359 7897
359 9044
359 12435
359 15830
359 19644
359 21398
360 1769
360 4349
360 4776
360 9059
360 9441
360 11090
360 14486
360 15318
360 15516
361 731
361 16317
361 21171
361 21234
361 22775
362 1870
362 7063
362 10969
362 11420
362 12565
362 18635
362 21440
363 1870
363 4965
363 6827
364 1939
364 5219
364 8486
364 14738
364 17824
365 615
365 2301
365 2381
365 10709
365 18686
366 589
366 2121
366 4474
366 8592
366 9581
366 10292
366 10645
366 11063
366 13394
366 16666
366 17041
366 19157
366 19324
366 20017
366 22198
366 23343
367 2293
367 10084
367 10829
367 14901
367 17681
367 21014
367 22214
368 1207
368 1706
368 2297
368 2390
368 3525
368 6714
368 6874
368 7553
368 8924
368 9010
368 10382
368 10775
368 12099
368 14723
368 15821
368 16785
368 16872
368 17294
368 18081
368 18659
368 19365
368 19432
368 21301
369 9359
369 9605
369 19037
369 21003
369 22429
369 23478
370 8543
370 13391
370 20188
370 20667
371 15991
371 17687
371 22156
372 1919
372 9451
372 10184
372 10552
372 13069
372 16741
372 17750
372 19971
372 22702
372 23000
373 1247
373 1673
373 8060
373 11558
373 18116
374 4985
374 7982
374 9923
374 13697
374 18494
374 22911
375 1483
375 1534
375 2779
375 5021
375 7940
375 10411
375 10551
375 15204
375 16866
375 17494
375 21587
375 23653
376 2494
376 2904
376 14506
376 15485
376 19166
377 654
377 1683
377 5664
377 10952
377 11449
377 12071
377 18213
377 20446
378 1680
378 1821
378 2300
378 12158
378 15235
378 17929
379 1084
379 1217
379 1551
379 2977
379 3311
379 5547
379 7970
379 9090
379 9569
379 10284
379 13497
379 16519
379 17419
379 22006
380 1159
380 6485
380 7013
380 8901
380 9100
380 15146
381 3143
381 3662
381 6959
381 6996
381 9831
381 12971
381 14281
381 20882
381 22584
382 3882
382 8826
382 9364
382 10237
382 13564
383 3476
383 4306
383 16819
383 19834
383 21811
384 6092
384 7040
384 15337
384 17724
384 23290
385 5916
385 10614
385 11677
385 12786
385 19009
386 2457
386 4769
386 4879
386 9053
386 10898
386 17361
386 18564
386 21438
387 919
387 9333
387 12631
387 12680
387 19378
388 550
388 6669
388 14317
388 21459
388 23688
389 15033
389 19084
389 20925
389 22868
389 23028
390 4024
390 5579
390 6222
390 7674
390 7944
390 14554
390 17432
390 19789
391 4069
391 12246
391 14336
391 16647
391 22175
392 3502
392 7839
392 15230
392 20009
392 21121
393 2851
393 10733
393 11366
393 12021
393 14429
393 16450
393 17780
393 19000
393 19777
393 20577
393 21409
394 1967
394 2813
394 5428
394 5702
394 16302
395 4402
395 10935
395 15113
395 22739
396 11583
396 15315
396 19824
397 1113
397 2133
397 2334
397 5752
397 6538
397 6629
397 7162
397 10478
397 12422
398 2117
398 4515
398 5348
398 7878
398 10121
398 12311
398 14038
398 17434
398 23086
399 6571
399 10901
399 13910
399 19079
399 19942
400 7981
400 18061
400 21381
400 23138
401 482
401 1249
401 1294
401 16405
401 16625
401 21821
401 22914
402 861
402 886
402 1060
402 1214
402 3231
402 3284
402 5191
402 7040
402 7089
402 7189
402 7691
402 9116
402 9282
402 9427
402 9725
402 10181
402 10799
402 10986
402 11240
402 11730
402 12102
402 12864
402 12909
402 13493
402 14240
402 14597
402 15595
402 16078
402 16158
402 17239
402 17291
402 17441
402 18194
402 18721
402 19002
402 19847
402 20273
402 20901
402 21029
402 23413
403 4616
403 9171
403 9180
403 12174
403 20830
404 5430
404 5452
404 7733
404 7993
404 9166
404 9376
404 18751
404 22454
405 4453
405 4454
405 12705
405 16837
405 20358
405 20775
406 7000
406 10347
406 13181
406 14806
406 22849
407 7091
407 12667
407 15198
407 19317
407 23560
408 11610
408 21614
408 22445
409 10761
409 16801
409 17545
409 19252
409 22415
410 5380
410 11528
411 2641
411 3682
411 6631
411 6960
411 7560
411 7776
411 9056
411 9457
412 704
412 17646
413 5191
413 5395
413 6467
413 18631
413 20304
413 21029
413 22365
414 12478
414 12480
414 13911
414 15020
415 1838
415 3699
415 13794
416 1417
416 1609
416 1623
416 4399
416 8082
416 9175
416 10538
416 10909
416 20989
416 22620
417 10921
417 13685
417 15437
417 16876
417 20261
418 2870
418 4826
418 4830
418 15649
418 16612
418 17526
418 17990
418 18045
418 19212
418 23386
419 3522
419 8726
419 19576
420 534
420 9914
420 13293
420 14128
420 15273
420 17477
420 17807
420 17852
420 19343
420 21984
420 22715
421 2593
421 2793
421 10539
421 12864
421 13623
421 14239
421 15017
421 18628
422 5257
422 5589
422 8880
422 9563
422 9588
422 24351
422 24466
423 9060
423 11104
423 24208
423 24263
423 24357
424 6883
424 10523
424 12966
424 17211
424 19706
425 881
425 1106
425 1692
425 2040
425 3314
425 6075
425 10856
425 12257
425 14056
425 14450
425 14920
425 15259
425 15336
425 15829
425 16287
425 17199
425 18517
425 19318
425 19474
425 19760
425 21185
425 21709
425 22039
425 22104
425 22420
425 22556
426 7100
426 19066
426 21178
427 3679
427 6519
427 8491
427 9736
427 12312
427 16587
427 18713
427 19388
428 3304
428 3721
428 5516
428 6552
428 21677
428 21739
429 8019
429 8615
429 13227
429 19997
429 21199
430 1943
430 3502
430 11197
430 20009
431 11491
431 11492
431 16667
431 16668
432 874
432 2245
432 2613
432 3400
432 3737
432 4036
432 4509
432 5613
432 6059
432 6907
432 7094
432 8203
432 10247
432 10320
432 10637
432 10676
432 11241
432 13049
432 13463
432 15455
432 15997
432 16090
432 16631
432 17328
432 18513
432 20286
432 20449
432 21131
432 21318
432 22859
432 23488
433 2954
433 2957
433 3148
433 4057
433 4058
433 4059
433 4060
433 4061
433 6689
433 8236
433 13313
433 18953
433 21789
433 22720
434 2582
434 7140
434 9385
434 21060
434 21551
435 1312
435 4958
435 12635
435 21158
435 21357
436 703
436 13532
437 1516
437 7091
437 7492
437 12695
437 16438
437 19013
437 20015
438 9491
438 12199
438 13434
438 18889
438 19348
439 2220
439 9888
439 15496
439 15867
439 22664
440 1726
440 1976
440 2053
440 2596
440 2942
440 3104
440 3855
440 5708
440 6159
440 6871
440 7544
440 17295
440 17831
440 18438
440 19542
440 22534
440 23115
440 23116
440 23637
440 23970
440 23989
440 24283
440 24329
440 24403
440 24485
441 1838
441 5935
441 9962
441 14916
442 3504
442 3996
442 5035
442 6369
442 13371
442 13536
442 14864
442 16403
442 20765
442 21139
442 23745
443 14558
443 22153
443 22767
444 445
444 450
444 1279
444 1280
444 2276
444 18428
445 449
445 450
445 1280
445 2276
445 18428
446 451
446 1278
446 2276
446 22180
447 449
447 1278
448 449
448 451
448 1277
448 1278
448 22180
449 22180
450 1279
450 1280
451 2276
451 22180
452 1598
452 2379
452 4275
452 8679
452 12785
452 19403
452 19961
452 21454
453 1283
453 3305
453 10470
453 12214
453 13182
453 13490
453 13988
453 21467
453 21845
453 22168
454 13870
454 17163
454 19315
454 21421
455 2370
455 3625
455 5998
455 9694
455 10037
455 18685
455 23051
455 23531
456 6826
456 8261
456 13114
456 14071
456 14088
456 15029
456 17024
457 1972
457 2363
457 2999
457 24200
457 24246
458 1783
458 2976
458 9629
458 9692
458 14039
458 17978
458 19828
458 22962
459 3514
459 5223
459 6450
459 8927
459 14295
459 16052
460 972
460 2910
460 4790
460 5347
460 9678
460 12035
460 12056
460 18222
460 19575
461 1944
461 12289
461 23420
461 24196
462 2536
462 13460
462 19982
462 20461
462 21593
463 763
463 3320
463 4860
463 5193
463 6007
463 6286
463 7984
463 8396
463 8400
463 8521
463 10884
463 15909
463 15910
463 21844
463 24011
463 24157
464 2550
464 3383
464 10417
464 16076
464 16300
465 466
465 467
465 472
465 474
465 475
465 476
466 467
466 468
466 469
466 471
466 474
466 2333
467 468
467 469
467 470
467 471
467 474
467 22896
468 471
469 474
469 476
469 2333
469 22896
469 23090
470 471
470 475
472 475
472 22896
473 3147
473 3875
473 4512
473 7778
473 8477
473 9380
473 9444
473 9622
473 13165
473 14311
473 15523
473 17882
473 18801
473 19216
473 20351
473 22695
473 23176
474 2333
475 476
476 2333
476 2812
476 22896
477 9752
477 13710
477 14457
477 20179
477 20193
478 1615
478 13322
478 18705
478 21210
478 21832
478 22866
479 2717
479 5406
479 5889
479 13427
479 15181
480 6840
480 7429
480 8790
481 1117
481 4511
481 6356
481 6824
481 7281
481 10926
481 13142
481 13727
481 19473
481 20181
481 21383
482 1249
482 3533
482 22914
483 1985
483 15789
483 18047
483 19353
484 4168
484 11444
484 23719
484 23952
484 24044
485 5598
485 8919
485 14229
486 6360
486 12868
486 21556
487 2265
487 3810
487 12692
487 16776
487 18702
488 3877
488 6114
488 8804
488 11839
488 18180
488 24023
488 24158
488 24225
489 2351
490 2400
490 5216
490 6164
490 10137
490 23654
491 1031
491 4221
491 4374
491 4529
491 4640
491 4890
491 5823
491 6157
491 6244
491 7735
491 8259
491 9319
491 10293
491 10294
491 10576
491 11077
491 11634
491 12684
491 12964
491 13365
491 13468
491 14075
491 15714
491 22176
491 22585
491 23387
492 2169
492 3192
492 4416
492 12121
492 13258
492 14065
492 14220
492 14715
492 15738
492 17219
492 21077
492 21308
493 1974
493 4998
493 5651
493 5882
493 7132
493 12372
493 12459
493 12601
493 13018
493 17201
493 21476
494 6360
494 11610
494 15840
494 16636
495 6881
495 7504
495 11865
495 13655
495 16606
495 17130
495 17828
495 19683
495 20391
496 3947
496 10868
496 13808
496 17788
496 22994
497 3274
497 8009
497 8443
497 11829
497 21021
498 1187
498 4381
498 5198
498 17360
498 23916
499 5328
499 18286
499 22116
500 4556
500 8937
500 10410
500 10734
500 14412
500 21174
500 22820
501 1298
501 3539
501 8810
501 9868
501 12582
501 12969
501 19043
501 21107
502 2958
502 6154
502 7964
502 8413
502 19907
502 20461
503 986
503 16802
503 20298
504 2427
504 2630
504 11396
504 21181
505 10504
505 17463
505 17724
506 1252
506 1469
506 1561
506 1955
506 2755
506 2815
506 3122
506 3933
506 4212
506 4221
506 4781
506 5337
506 5498
506 5542
506 5820
506 6032
506 6480
506 6532
506 6575
506 6698
506 6999
506 7084
506 7192
506 7313
506 7811
506 8101
506 9937
506 10280
506 10957
506 11095
506 11925
506 12431
506 12471
506 13248
506 13424
506 13634
506 13743
506 14604
506 14924
506 15101
506 15215
506 15519
506 15539
506 15711
506 15877
506 16698
506 16730
506 16946
506 17390
506 17411
506 17509
506 19101
506 19178
506 19344
506 19589
506 19616
506 20144
506 20170
506 20222
506 20774
506 21046
506 21393
506 21640
506 22203
506 22361
506 22401
506 22954
506 23039
506 23236
506 23380
507 1994
507 4814
507 12754
507 22175
508 771
508 1799
508 4342
508 4682
508 7705
508 9315
508 9777
508 12484
508 16274
508 17249
508 18369
508 20573
508 21492
509 5795
509 11056
509 12047
509 12393
509 15201
510 1228
510 8185
510 18717
510 21218
511 1153
511 3326
511 4237
511 4272
511 23465
512 6006
512 11959
512 15828
512 17732
512 22045
512 23009
513 4902
513 10529
513 11029
513 12746
513 21854
514 2201
514 3828
514 4307
514 12719
514 14787
514 18861
514 20338
514 21070
514 22093
515 948
515 3742
515 4009
515 7973
515 9476
515 11187
515 13847
515 14108
515 16650
515 16678
515 17962
515 18042
515 18895
515 22159
515 22258
515 23358
516 1742
516 14900
516 14906
516 15946
517 8266
517 16768
517 17447
517 18632
517 20973
518 1872
518 7496
518 15291
518 15722
518 22222
518 22267
519 5334
519 5402
519 8274
519 10814
519 13173
519 15144
519 17279
520 15437
520 19823
520 20261
520 23146
521 3438
521 4078
521 5041
521 15476
521 21455
521 21489
521 21802
522 961
522 13221
522 19923
523 1837
523 5438
523 8573
523 10344
523 13973
523 15170
523 20112
524 3859
524 7524
524 9258
524 14087
524 14557
524 15486
525 616
525 617
525 1465
525 3404
525 19468
525 22802
526 3198
526 5223
526 5632
526 7554
527 15033
527 20925
527 22868
527 23028
528 11524
528 11525
528 11526
528 11527
528 23332
529 2712
529 3651
529 3791
529 8326
529 11212
529 13051
529 14233
529 20439
530 1071
530 3588
530 3780
530 4950
530 8378
530 12838
530 17998
530 22904
531 3539
531 19043
531 23129
532 741
532 1037
532 4124
532 6643
532 9643
532 10032
532 24206
533 3308
533 8411
533 14513
533 20837
533 21021
533 23449
533 23496
534 11011
534 13293
534 17477
534 17852
534 22715
535 7644
535 11968
535 14975
535 15557
535 18153
536 570
536 2540
536 3627
536 11370
536 12405
536 13993
536 22745
537 1372
537 7001
537 7197
537 7906
537 8812
537 16777
537 20535
538 8034
538 11992
538 13446
538 19067
538 20814
538 23512
539 3439
539 10104
539 14434
539 22477
540 3110
540 6298
540 9430
540 9892
540 10188
540 12379
540 12583
540 12759
540 15282
540 18136
540 19809
540 20481
541 1190
541 18846
541 19586
542 10245
542 13884
542 22904
543 15950
543 16979
543 18873
543 20620
543 22034
543 23589
544 13663
544 14177
544 20220
544 23596
545 7182
545 10233
545 23780
545 23953
545 24460
546 7180
546 21339
547 7322
547 9521
547 9526
547 11572
547 20118
548 1340
548 3095
548 4298
548 5116
548 10005
548 15037
548 15945
548 19399
548 21675
548 22411
548 23190
549 3315
549 3836
549 4935
550 14317
550 23688
551 1447
551 2527
551 9196
551 10944
551 16086
552 761
552 8444
552 12331
552 13585
552 13792
552 15413
553 1223
553 3066
553 16542
553 21299
553 21300
554 1814
554 10100
554 11988
554 12121
554 14220
555 3964
555 6577
555 12109
555 15275
555 17182
556 935
556 3075
556 6274
556 10397
556 18910
557 14046
557 23566
558 1319
558 1400
558 1677
558 2616
558 2947
558 3229
558 4067
558 4762
558 5036
558 5232
558 9154
558 12063
558 13674
558 13964
558 19115
558 19188
558 19335
558 19502
558 20068
558 20257
558 20529
558 21397
559 10059
559 13052
559 17457
559 18750
559 21073
560 4069
560 11423
561 7022
561 7408
561 7643
561 12813
561 13099
561 13941
561 14558
561 16501
561 21786
561 22153
562 8026
562 14496
562 21614
562 21635
562 22315
563 5351
563 5352
563 8311
563 9080
563 9337
564 4985
564 16637
564 18494
565 4874
565 18494
566 2655
566 18399
566 18494
567 4284
567 5659
567 10751
567 12682
567 19470
568 8452
568 10817
568 14015
568 16987
568 22401
569 742
569 12643
570 1431
570 3627
570 3676
570 4791
570 10197
570 11265
570 13993
570 14036
570 22745
571 13933
571 19051
572 3443
572 15006
572 23765
572 23863
572 24154
573 10245
573 10571
573 19590
574 1873
574 4302
574 6328
574 7099
574 10963
575 938
575 4762
575 19115
576 7730
576 8318
576 12006
576 15554
576 22645
577 11357
577 12356
577 18286
577 18998
578 1203
578 1527
578 8360
578 10389
578 10495
578 12227
578 16578
579 1468
579 4831
579 6980
579 7052
579 7264
579 7487
579 23543
579 24138
579 24139
580 3232
580 8319
580 17029
580 18857
580 22095
581 1874
581 3295
581 9002
581 13965
581 16591
582 3206
582 4420
582 17481
582 17988
582 18986
583 591
583 692
583 1286
583 1617
583 4692
583 6225
583 6590
583 7612
583 8670
583 9572
583 10196
583 10508
583 13023
583 13543
583 14410
583 14491
583 15447
583 16482
583 17241
583 19793
583 20290
583 21265
583 21473
583 21746
584 2533
584 3667
584 18544
584 18706
584 20571
584 20747
584 21949
585 2688
585 3306
585 3612
585 5509
585 14517
585 15820
586 666
586 10201
586 16031
586 18563
586 20575
587 3241
587 11444
587 11643
587 23750
587 23952
588 2637
588 6305
588 16662
588 20007
588 22583
589 7008
589 9336
589 18432
589 21169
590 1777
590 2681
590 2920
590 5443
590 5525
590 9496
590 10109
590 10525
590 12060
590 13202
590 14731
590 20994
590 21212
590 23001
590 23559
590 24045
590 24079
590 24210
591 2086
591 3462
591 6590
591 8621
591 10492
591 13194
591 13503
591 14507
591 15070
591 15762
591 17600
591 21861
592 13870
592 20714
592 23369
593 3876
593 4986
593 5262
593 8124
593 11455
593 22384
594 3476
594 6948
594 10006
594 10809
594 19552
595 4071
595 4664
595 5336
595 6872
595 9249
595 9847
595 12262
595 12352
595 13162
595 14355
595 16203
595 18843
595 21396
595 22043
595 22816
595 24468
596 6721
596 11124
596 14416
596 16357
596 19540
597 1839
597 5146
597 11373
597 12148
597 13232
597 13819
597 20303
597 21342
597 21987
598 5690
598 9584
598 12208
598 16675
598 18666
599 1721
599 2101
599 5086
599 6168
599 6998
599 9596
599 12150
599 17009
600 3266
600 5937
600 6690
600 9906
600 12235
600 12368
600 13788
600 13797
600 16429
600 16687
600 16962
600 20287
600 21824
600 22359
601 7385
601 11788
601 14653
601 14791
601 22590
602 2428
602 2440
602 10750
602 18359
603 958
603 7399
603 7634
603 15517
603 15998
603 16728
603 20094
603 20226
604 1951
604 3188
604 13264
604 14011
604 17697
605 2607
605 9585
605 13470
605 18114
605 22188
606 3313
606 12051
606 16720
606 21050
607 2294
607 8019
607 9850
607 19512
607 20463
608 891
608 3338
608 15623
608 19102
608 21363
608 22827
609 2665
609 3353
609 15840
609 21572
610 1090
610 9039
610 9293
610 9640
610 12076
611 5777
611 13941
611 18935
612 1325
612 1750
612 2247
612 12467
612 23892
612 24174
612 24188
612 24417
613 831
613 4322
613 9637
613 19056
614 5068
614 6421
614 7133
614 18454
614 19735
615 3492
615 7633
615 8235
615 17418
615 18055
615 19648
615 23369
616 617
616 1465
616 17126
616 19468
616 19469
617 1465
617 3404
617 19469
618 2209
618 5548
618 23929
619 9023
619 16829
619 21619
619 22156
620 3732
620 10418
620 23735
620 24154
621 1212
621 2982
621 4714
621 17216
621 23645
622 3294
622 5087
622 5560
622 8654
622 10999
623 11845
623 16122
623 16547
623 16937
623 17920
623 19937
623 21997
624 794
624 19318
624 21746
625 7897
625 11775
625 12872
625 14848
625 20240
626 778
626 2285
626 10967
626 13502
626 13774
626 16166
626 20533
627 718
627 4543
627 8159
627 9465
627 9948
627 14729
627 16785
627 17838
627 19260
627 20696
627 22538
628 7311
628 11346
629 3424
629 5085
629 6468
629 7503
629 8094
629 13946
629 15056
629 16732
629 17253
629 19588
629 23811
630 1484
630 2589
630 5892
630 8187
630 13068
630 13422
630 17067
630 19383
630 19569
630 20836
630 21646
630 21647
631 3948
631 16407
631 19839
632 4547
632 4549
632 6579
632 9659
632 13571
632 14288
632 15114
632 19471
633 14372
633 16358
633 22097
633 22914
634 2446
634 3527
634 4999
634 5310
634 9216
634 15180
634 19162
634 22546
635 1190
635 11160
636 8108
636 13456
636 17395
636 20331
636 21530
636 23276
637 1128
637 2304
637 14363
637 19954
638 14584
638 15017
638 20545
639 767
639 11818
639 18771
639 21663
640 1265
640 3542
640 7440
640 16391
640 21020
641 6469
641 11108
641 11266
641 12249
641 12324
641 13517
641 16663
641 19269
641 20471
641 21132
642 6413
642 7066
642 14415
642 17458
642 21992
643 1678
643 2963
643 5991
643 6620
643 7362
643 7718
643 9475
643 13172
643 13806
643 18762
643 21705
643 21851
643 23731
643 23798
643 24163
643 24416
644 6202
644 8377
644 10688
645 5120
645 5907
645 6965
645 14438
645 16207
646 4842
646 9680
646 19353
646 21344
647 4286
647 8642
647 18268
647 23354
647 24032
648 2278
648 4500
648 4896
648 5339
648 6533
648 7211
648 8651
648 9349
648 11112
648 23334
649 1359
649 2512
649 7038
649 11502
650 2222
650 5593
650 5810
650 7357
650 7664
650 7764
650 8144
650 10064
650 16566
650 19638
651 1772
651 1870
651 7063
651 15818
652 1548
652 6719
652 15440
652 17270
652 23067
653 1349
653 9228
653 10843
653 13125
653 13413
653 14500
653 17699
653 18862
653 19766
653 23270
654 1681
654 5664
654 10952
654 18213
654 20446
654 22771
655 1208
655 1702
655 2029
655 2189
655 2513
655 3530
655 8038
655 9714
655 11523
655 12519
655 14307
655 14852
655 15676
655 16932
655 17664
655 17911
655 20503
655 20570
655 23485
656 1356
656 6725
656 7175
656 9250
656 10589
656 13798
656 16607
656 19295
656 19639
656 20542
657 2403
657 7879
657 10740
657 24105
657 24225
658 2403
658 3240
658 23835
658 24008
659 8273
659 16305
659 18693
660 934
660 2411
660 4854
660 5732
660 6666
660 10040
660 17055
661 1229
661 2013
661 2672
661 3564
661 8911
661 10386
661 16318
661 16740
662 8171
662 10158
662 11222
662 12362
662 12978
662 12979
662 12980
662 13120
662 14681
662 14686
663 3764
663 4243
663 6473
663 14565
663 17044
664 1554
664 3399
664 5947
664 13241
664 18695
665 7709
665 7887
665 8954
665 10970
665 14539
665 20670
666 1873
666 2534
666 16031
666 18563
666 19529
666 20575
667 1517
667 2634
667 3203
667 3303
667 11363
667 12151
667 12355
667 13271
667 13486
667 21665
668 13921
668 19691
668 20717
668 20732
668 22391
669 1209
669 5567
669 8973
669 11368
669 20823
670 3905
670 8395
670 8398
670 12167
670 19764
670 23985
671 2424
671 3779
671 11931
671 12176
671 12177
671 16141
671 20524
671 22517
671 23770
671 23803
671 23927
671 24065
672 5417
672 6366
672 8932
672 10573
672 10954
672 23941
673 2795
673 3701
673 5416
673 11115
673 23964
674 4103
674 13601
674 14395
674 15428
674 20632
675 3496
675 11405
675 20653
675 21488
675 21671
676 2042
676 2643
676 4852
677 7219
677 19135
677 20109
677 24019
677 24189
677 24219
677 24239
678 4942
678 7756
678 20596
678 22119
678 22368
679 5714
679 11056
679 12393
679 15201
680 2649
680 3765
680 13597
680 21672
680 23375
681 6387
681 12534
681 17198
681 22980
681 23180
682 1413
682 1846
682 2123
682 4992
682 5063
682 5340
682 6945
682 10564
682 12508
682 15350
682 20083
682 20617
682 20770
682 21075
682 21809
682 22418
683 2400
683 4363
683 9211
683 10361
683 12946
683 19150
683 19419
683 19893
683 20739
683 20740
683 23293
683 23652
683 24133
683 24316
683 24317
683 24457
684 7473
684 9363
684 15107
684 17552
684 20123
684 20652
685 3304
685 21739
685 22042
686 799
686 11722
686 11860
686 21566
686 23169
687 6937
687 9145
687 14589
687 19714
687 20738
688 4334
688 7409
688 11648
688 15527
688 17366
689 3325
689 3581
689 3586
689 4020
689 4035
689 4167
689 5549
689 9598
689 12314
689 12653
689 14691
689 15311
689 15379
689 15942
689 21749
690 5420
690 5511
690 6360
690 11610
690 22445
691 1564
691 8008
691 21439
692 7237
692 10072
692 13023
692 14446
693 15182
693 15627
693 20179
693 21698
694 2501
694 15036
694 16878
694 18014
694 18954
695 4617
695 19651
696 3807
696 7271
696 9506
696 10356
696 14971
696 22558
696 23550
697 8647
697 11002
697 23196
697 23266
697 23699
698 7615
698 8656
698 13498
698 15688
699 11512
699 12785
699 15068
699 17851
699 19566
699 23189
700 1107
700 1559
700 5003
700 9014
700 16229
700 20494
701 6529
701 12267
701 15223
701 18994
701 20124
702 3808
702 4049
702 8407
702 10332
702 18308
702 19237
702 19595
702 23761
703 1697
703 1831
703 2805
703 3425
703 3464
703 3897
703 5075
703 5853
703 8003
703 9522
703 10000
703 10299
703 10789
703 11742
703 12698
703 13542
703 15382
703 20953
703 21839
703 23285
704 798
704 1353
704 1753
704 4046
704 7086
704 7621
704 9032
704 9308
704 9403
704 10153
704 10239
704 11120
704 12285
704 12881
704 15571
704 18046
704 19100
704 19354
704 21713
705 754
705 1908
705 2831
705 4820
705 4990
705 11261
705 13243
705 14266
705 14773
705 15898
705 17843
705 21145
705 22562
706 1947
706 1948
706 13220
706 19531
706 19532
707 2816
707 7849
707 8481
707 23630
707 24469
708 11362
708 11698
708 23779
708 23907
709 3749
709 6300
709 10942
709 14804
709 22352
710 1598
710 8679
710 19403
711 1409
711 1605
711 4480
711 6993
711 7772
711 9974
711 18963
711 24083
712 11839
712 12428
713 3478
713 4920
713 8212
713 15651
713 17671
714 10608
714 20469
714 21083
714 23528
715 6016
715 15376
715 16917
715 19729
716 10608
716 21083
716 21378
716 23528
717 1023
717 10579
717 10580
717 10581
717 19092
718 6383
718 17838
718 20039
719 1850
719 14931
719 24299
720 8551
720 12732
720 15002
720 23258
721 8496
721 10230
721 16094
721 18493
721 20378
722 3335
722 3966
722 5781
722 8180
722 8207
722 13148
722 16406
722 18757
722 18983
722 19407
722 23766
723 3175
723 6560
723 17064
724 2409
724 2426
724 4840
724 10950
724 13231
725 2062
725 5940
725 19224
726 8238
726 11980
726 23920
727 2773
727 10883
727 14851
728 2720
728 5121
729 10355
729 18009
729 18075
730 3849
730 11823
730 13511
730 14790
730 18809
731 828
731 1479
731 1588
731 1700
731 2836
731 3940
731 4756
731 7112
731 10029
731 10115
731 10252
731 11137
731 11254
731 11309
731 12465
731 13829
731 14081
731 14276
731 16120
731 18020
731 19176
731 19695
731 20611
731 21406
731 21657
731 22492
731 22874
731 23033
731 23598
732 2234
732 8468
732 9368
732 10458
732 10491
732 14247
732 15771
733 745
733 4323
733 14388
733 17196
733 19920
733 23451
733 23707
734 3449
734 6376
734 7070
734 13004
734 22248
735 2488
735 6758
735 8947
735 13207
735 15360
736 3794
736 7238
736 20417
737 2227
737 2504
737 2569
737 3240
737 3243
737 3535
737 4659
737 11542
737 12388
737 22536
737 23786
737 23788
737 23789
738 1929
738 4126
738 7588
738 18732
738 20753
739 2143
739 6736
739 24142
739 24360
739 24386
740 964
740 1705
740 3821
740 16003
741 10032
742 1414
742 2515
742 3022
742 3083
742 9977
742 14207
742 18290
742 19289
742 20297
742 21097
742 21850
743 744
743 12960
743 12961
743 21261
743 23680
744 12960
744 12961
744 21261
744 23680
745 8909
745 17196
746 10604
746 11861
746 13669
746 21113
747 1466
747 1552
747 2754
747 7832
747 8117
747 16511
748 796
748 1302
748 1409
748 2054
748 3565
748 4047
748 7743
748 11471
748 22699
749 1805
749 14668
749 19518
749 22653
749 22730
750 3162
750 7724
750 14130
750 17036
750 18884
750 22244
750 23365
751 8044
751 10010
751 12648
751 14815
751 20011
751 22190
751 23871
751 24010
751 24047
751 24287
751 24398
752 1256
752 3009
752 9133
752 10655
752 21477
753 3909
753 5093
753 16926
753 19413
753 21804
754 4990
754 14773
754 15898
754 21145
755 9788
755 13276
755 19507
755 19635
755 23590
756 1105
756 1822
756 3726
756 3927
756 4667
756 6046
756 8631
756 11576
756 15930
756 17028
756 20831
757 1618
757 4146
757 7841
757 12276
757 18718
757 22597
758 1503
758 4436
758 5197
758 15566
759 7182
759 10233
759 23953
759 24460
760 7367
760 17559
761 8444
761 12331
761 12371
761 13792
762 5059
762 10893
762 12797
762 16213
762 18998
763 6286
763 21844
763 24157
764 1579
764 2263
764 3069
764 8482
764 9050
764 11016
764 12784
764 13033
764 15317
764 17258
764 22453
764 23271
764 23432
764 23673
764 23932
764 24143
764 24162
764 24216
764 24251
764 24412
764 24442
765 766
765 2348
765 4175
765 7266
765 8499
765 9794
765 9795
765 13116
765 17355
765 17356
765 21783
765 22628
766 2348
766 3098
766 9795
766 17355
766 21783
767 1916
767 18283
767 18771
767 21282
768 791
768 10947
768 12944
768 14387
768 17710
769 5922
769 9244
769 17856
769 19114
769 21715
770 6279
770 8506
770 19834
770 19926
770 22975
771 4342
771 7705
771 9777
771 10401
771 12484
771 13344
771 17188
771 17249
771 18369
771 19455
771 21492
771 22813
772 1168
772 4856
772 5784
772 13724
772 19720
773 820
773 8334
773 10430
773 10621
773 15987
773 17050
773 17927
774 7145
774 8014
774 9681
774 19032
774 20902
775 4573
775 5596
775 20028
775 20029
775 20033
776 961
776 2336
776 3488
777 3519
777 4631
777 9944
777 12034
778 4128
778 13502
778 13774
778 22207
779 2362
779 4168
779 6183
779 7545
779 16603
779 21017
779 23120
779 23867
779 23959
779 24029
779 24081
779 24177
779 24225
780 16278
780 17438
780 22385
780 22713
781 3950
781 7862
781 17473
781 19271
781 22037
782 18880
782 19581
782 20065
782 21365
782 23396
783 4932
783 12545
783 15702
783 17972
783 18828
784 2195
784 3750
784 19134
784 22332
784 22784
785 7136
785 12527
785 14834
785 16262
785 19853
786 5990
786 14482
786 17726
786 19912
786 20906
787 1637
787 4570
787 5582
787 10903
787 19489
788 5249
788 9902
788 10154
788 13159
788 15737
788 20280
789 1092
789 2437
789 2646
789 14246
789 16113
789 23615
789 23700
789 23861
790 3539
790 9390
790 10146
790 11977
791 10947
791 12944
791 14387
791 17551
791 17710
791 20585
791 21793
792 3455
792 4565
792 4597
792 9827
792 10108
792 13886
792 15890
792 16510
792 19215
793 2249
793 5142
793 24384
794 1028
794 1106
794 2419
794 2674
794 3176
794 3189
794 3810
794 3825
794 4629
794 5446
794 5665
794 5866
794 7291
794 7328
794 8960
794 9092
794 9774
794 10207
794 10856
794 11389
794 11708
794 11911
794 12563
794 12692
794 12799
794 12839
794 15063
794 15279
794 15446
794 15504
794 16150
794 16776
794 17436
794 17726
794 18887
794 19318
794 19676
794 19903
794 20470
794 20908
794 21751
794 22064
794 22420
794 22471
794 22541
794 23328
794 23463
795 2006
795 5063
795 8084
795 11620
795 14079
795 14561
795 14718
795 14833
795 15350
795 15752
795 16784
795 18049
795 18230
795 18962
795 19359
795 20617
795 23858
796 1605
796 4047
796 6993
796 8930
796 9211
796 9974
796 10348
796 11926
796 13229
796 18963
796 20739
796 21968
796 23205
796 23949
796 24129
796 24319
796 24321
796 24457
797 1019
797 3945
797 7388
797 19488
797 24276
798 1753
798 3991
798 17646
799 5979
799 7549
799 9178
799 11722
799 21566
800 2026
800 5718
800 9238
800 22575
801 10539
801 22046
801 22474
802 5420
802 6551
802 21556
802 21614
803 6624
803 8320
803 12664
803 23722
803 24382
804 1301
804 6530
804 12989
804 17162
804 21881
805 1873
805 6328
805 15022
805 21633
806 2344
806 3951
806 5029
806 8507
806 11846
806 13420
806 13421
806 13533
806 19360
806 24054
807 7158
807 11020
807 11021
807 11022
807 13572
807 14145
807 15800
807 18003
807 18426
808 11020
808 11021
808 14145
808 18426
809 6118
809 6119
809 6772
809 7002
809 11554
810 6530
810 9814
810 12989
810 21881
811 4292
811 4525
811 7388
811 7398
811 13771
811 23823
811 23969
811 24111
812 7046
812 16271
812 23098
813 1209
813 2676
813 7856
813 8973
814 9788
814 13276
814 15009
814 19507
814 20054
815 2977
815 7049
815 10813
815 10822
815 13870
815 20714
815 23200
816 7884
816 10593
816 12029
817 7324
817 8437
817 18273
817 22753
818 1270
818 13646
818 16592
818 17320
818 17904
818 19910
819 3586
819 4167
819 5549
820 2311
820 4967
820 11047
820 16488
820 17050
820 20819
820 21433
821 827
821 5381
821 9505
821 22023
821 23591
822 5845
822 10757
822 11585
822 15530
822 19696
822 19826
822 21235
823 3228
823 4789
823 8026
823 13111
824 12532
824 17416
824 19699
824 20349
824 20802
825 1232
825 1886
825 2778
825 5478
825 7004
825 15158
825 15824
825 18419
825 20305
826 1622
826 1981
826 10591
826 11836
826 12392
826 15246
826 21351
827 1098
827 1215
827 1478
827 2004
827 2137
827 2256
827 2417
827 3027
827 3168
827 5381
827 5618
827 7097
827 7452
827 7488
827 8104
827 10677
827 10888
827 11186
827 11400
827 11473
827 11710
827 13510
827 14224
827 14481
827 16173
827 16410
827 16658
827 17153
827 17822
827 17999
827 22252
828 14081
828 22874
829 4293
829 7458
829 9626
829 10023
829 12551
829 24413
830 2896
830 5161
830 8030
830 10025
830 10073
830 10507
830 13885
831 4680
831 8515
831 17428
831 19530
831 20848
832 2806
832 4188
832 23987
832 24112
832 24171
833 4737
833 7731
833 8962
833 9286
833 9566
833 12406
833 12589
833 18259
833 18730
833 18914
833 22955
834 1148
834 1989
834 5543
834 8993
834 9876
834 16286
835 1627
835 5362
835 15424
835 16743
835 17469
836 1688
836 7598
836 16628
836 17000
836 18902
837 1762
837 3761
837 4395
837 5501
838 8488
838 17451
838 18641
838 19208
838 19910
838 21882
839 8266
839 18632
839 20973
840 1907
840 2409
840 4966
840 6295
840 7610
840 9237
840 12807
840 14658
840 14927
840 16703
840 16952
840 17433
841 1448
841 9606
841 14778
841 16632
841 20005
842 3566
842 4940
842 5902
842 15604
842 18282
843 10571
843 13884
844 1397
844 7361
844 11167
844 12429
844 14744
844 20381
844 21435
845 13031
845 15139
845 15772
845 16537
845 21269
846 3955
846 5726
846 11717
846 14265
846 15630
846 17582
846 20827
846 20910
846 21529
847 11764
847 12474
847 15498
847 18275
847 21320
848 3901
848 4556
848 14412
849 2543
850 7295
850 13921
850 22391
851 1784
851 2170
851 2380
851 5056
851 21865
852 6607
852 7047
852 15381
852 16443
852 17114
852 17506
852 19924
852 22744
853 1179
853 4405
853 5392
853 7795
853 12600
853 14028
853 14599
853 17550
853 21801
853 21858
854 1727
854 4504
854 6916
854 8498
854 9981
854 13405
854 14826
854 20799
854 23404
855 1515
855 1979
855 9300
855 15615
856 1050
856 10015
856 22046
857 6067
857 9543
857 12959
857 13157
857 17662
858 1089
858 2074
858 5860
858 23094
858 23704
859 2405
859 24009
859 24158
860 2447
860 3167
860 3255
860 6334
860 8801
860 9646
860 10229
860 10297
860 10790
860 12655
860 17700
860 17728
860 19795
860 20835
860 22029
861 1503
861 18631
861 19564
862 3214
862 10368
862 14012
862 18885
863 2208
863 2628
863 2963
863 3226
863 3636
863 4093
863 4211
863 5263
863 5991
863 6100
863 6620
863 7362
863 7718
863 8593
863 10212
863 13806
863 16444
863 16445
863 18762
863 20931
863 22711
863 23068
863 23731
863 23982
863 24459
864 2766
864 20822
864 24049
864 24338
865 4837
865 7879
865 24268
865 24322
866 7768
866 23813
866 23947
867 3547
867 12666
867 13279
867 16427
868 5553
868 15126
868 17642
869 2742
869 6158
869 7221
869 10785
869 13855
869 14915
869 24280
869 24282
870 4876
870 16449
870 16605
870 18920
870 19768
870 23729
870 23993
870 24180
870 24328
871 3349
871 19988
871 21009
872 1258
872 4402
873 1739
873 23009
874 2613
875 8447
875 9236
875 9349
875 21550
876 2323
876 3429
876 10156
876 14021
876 18618
877 6411
877 7471
877 11242
877 15443
877 16970
878 5162
878 7758
878 11564
878 16977
878 19028
878 20549
878 20599
878 22426
879 5420
879 8795
879 12542
879 20133
880 1211
880 1954
880 4517
880 7782
880 10148
880 14567
880 14688
880 17286
881 936
881 1201
881 1263
881 1358
881 1428
881 1699
881 1785
881 2552
881 3314
881 3602
881 6241
881 6283
881 7169
881 7195
881 7536
881 7912
881 8127
881 8554
881 9497
881 9867
881 10350
881 11687
881 11727
881 12445
881 13540
881 15151
881 15259
881 15336
881 15760
881 16299
881 16822
881 17002
881 17485
881 17668
881 18401
881 19318
881 19412
881 19760
881 20201
881 20387
881 21185
881 21304
881 21709
881 22507
881 22556
882 1385
882 3211
882 3523
882 3878
882 8569
882 8680
882 9141
882 9194
882 10009
882 10131
882 11493
882 12848
882 13320
882 13905
882 14624
882 14949
882 16083
882 21412
883 1245
883 1753
883 2707
883 3239
883 3283
883 3993
883 4376
883 5256
883 6065
883 6715
883 6952
883 8110
883 9875
883 10185
883 12090
883 12317
883 12735
883 13113
883 13712
883 14033
883 18741
883 18749
883 22395
883 22605
883 22897
883 23692
884 4379
884 10091
884 11648
884 15893
884 19294
885 18782
885 19923
886 1653
886 6493
886 20659
887 3783
887 5169
887 5255
887 12540
887 19406
888 2890
888 6497
888 10770
888 18103
888 19728
889 1317
889 7707
889 9879
889 19981
889 20622
890 2867
890 18335
891 22827
892 2408
892 7390
892 9374
892 10668
892 23810
892 23877
893 1001
893 1090
893 3515
893 4720
893 5699
893 7962
893 10186
893 10872
893 11612
893 18396
893 23044
893 23677
893 23900
893 23950
893 24410
893 24458
894 1322
894 6066
894 7483
894 9392
894 11405
894 20653
894 21671
895 18631
895 21270
895 22365
896 1893
896 5518
896 11808
896 13626
896 16211
896 16639
897 12920
897 15685
897 16156
897 19988
897 23121
898 1931
898 1932
898 4834
898 7426
898 8856
898 15487
899 4465
899 5113
899 22701
899 22757
900 1888
900 2094
900 7160
900 7167
900 19276
900 23958
901 3019
901 3151
901 4119
901 4411
901 5585
901 12207
901 18548
901 22403
901 22852
902 1893
902 11808
902 13883
902 16993
903 4134
903 4232
903 6416
903 9734
903 18238
904 2436
904 8415
904 12867
904 14734
904 16849
904 17643
904 20204
904 22939
905 1970
905 7450
905 9360
905 12272
905 22548
906 5612
906 7272
906 7648
906 11690
906 15918
907 1044
907 2769
907 3422
907 17974
907 19515
908 3956
908 5512
908 8911
908 11819
908 16304
908 16342
909 1898
909 10603
909 11063
909 23409
909 24159
910 986
910 15269
910 18335
910 20298
911 2772
911 7463
911 10342
911 11553
911 17863
912 4320
912 4361
912 14263
912 18520
913 4317
913 4320
913 4361
913 14263
913 15790
913 18520
914 2455
914 6708
914 7183
914 7337
914 13757
914 15584
914 17976
914 18168
914 19513
914 20419
915 7311
915 9691
915 15991
916 4738
916 8607
916 15256
916 17240
916 18243
917 1541
917 4956
917 6799
917 11348
917 15257
917 23434
918 1159
918 6010
918 6485
918 7013
918 8901
918 9100
918 9810
918 10205
918 15146
918 22950
919 3119
919 7840
919 19378
920 1660
920 4845
920 9962
920 15764
921 1909
921 5830
921 12802
921 21471
921 22949
922 923
922 924
922 2299
922 5144
922 21115
922 21939
923 1790
923 2299
923 5144
923 21115
923 21938
924 2299
924 2353
924 21115
924 21939
924 21940
925 4125
925 6414
925 11713
925 14671
925 15351
925 16291
925 16621
925 18882
925 21763
926 6734
926 7770
926 12103
926 14219
926 18000
926 18746
926 19520
927 1747
927 2464
927 4252
927 12609
927 17398
927 21494
928 1520
928 2717
928 4158
928 6815
928 7050
928 9115
928 13427
928 15655
928 16838
928 17184
928 18733
928 19460
928 20744
928 21232
928 23522
929 2557
929 4011
929 7498
929 8436
929 22349
930 3708
930 11583
930 11707
930 11760
930 11941
931 1881
931 3865
931 4363
931 8831
931 10654
931 11538
931 12296
931 14652
931 16216
931 20330
931 23357
931 23462
931 23805
931 24256
931 24300
931 24318
932 1682
932 9443
932 20477
932 21885
932 23426
933 2644
933 6212
933 7277
933 16859
934 4854
934 21720
935 1973
935 3010
935 3075
935 5157
935 5241
935 5710
935 9449
935 12743
935 14428
935 16364
935 16717
935 16938
935 17752
935 20174
935 20556
935 22661
936 16517
936 19318
936 22025
937 2878
937 6659
937 23706
937 23868
937 24330
938 4843
938 6300
938 8260
938 11784
938 12897
938 13372
938 19256
938 20757
939 961
939 17305
939 22856
940 8833
940 12384
940 16331
940 22342
940 22653
941 4057
941 14881
941 18953
941 21208
941 22720
942 8019
942 10736
943 3459
943 4121
943 5332
943 8528
943 14973
943 16231
943 18061
943 18905
943 19579
943 20801
943 21234
943 21612
943 21912
944 8449
944 10384
944 10765
944 12629
944 21555
945 2851
945 5346
945 14338
945 15270
945 19047
945 19777
946 3548
946 11790
946 21507
946 21965
947 6848
947 12570
947 15874
947 22310
948 5011
948 12494
948 22159
948 23358
949 4189
949 5120
949 7670
949 7987
950 3024
950 9673
950 16272
950 22597
950 23605
951 2725
951 15605
951 23217
951 24407
952 11362
952 23779
953 15605
953 23217
953 24141
953 24407
954 4532
954 6447
954 8780
954 17649
954 20115
955 1281
955 4761
955 7299
955 7952
955 14407
955 15274
955 22927
956 7322
956 9525
956 11572
956 11573
956 11574
956 11632
957 4108
957 7422
957 10337
957 15260
957 16664
957 17263
957 19779
957 20520
958 15517
958 16728
958 20094
958 20226
959 3332
959 5971
959 6726
959 10696
959 13163
959 15046
959 16604
959 17730
959 18452
959 18509
959 19249
959 19421
959 19450
960 8969
960 9895
960 12106
960 14914
960 19327
961 963
961 1032
961 1246
961 1264
961 1427
961 1525
961 2010
961 2192
961 2257
961 2531
961 2548
961 2839
961 2967
961 3660
961 3698
961 3724
961 3894
961 4428
961 5168
961 5357
961 5526
961 5637
961 5677
961 5683
961 5824
961 6005
961 6047
961 6464
961 6531
961 6625
961 6852
961 8018
961 8698
961 8763
961 8822
961 8899
961 9405
961 9720
961 10019
961 10050
961 10777
961 11040
961 11050
961 11171
961 11263
961 11653
961 11801
961 11915
961 11927
961 12084
961 12261
961 12443
961 12808
961 13223
961 13527
961 13548
961 13566
961 14105
961 14180
961 14319
961 14771
961 15154
961 15464
961 15735
961 16180
961 16249
961 16336
961 16347
961 16404
961 16515
961 16518
961 16860
961 17088
961 17256
961 17305
961 17498
961 17658
961 18037
961 18108
961 18112
961 18576
961 18832
961 18965
961 19116
961 19187
961 19391
961 19511
961 19528
961 19550
961 19585
961 19734
961 19880
961 19900
961 19954
961 20064
961 20107
961 20555
961 20627
961 20750
961 21028
961 21979
961 22053
961 22399
961 22862
961 22947
961 23104
961 23249
961 23554
961 23771
962 2704
962 18611
962 20134
962 22173
962 22658
962 23308
963 14513
963 18782
963 19923
964 1572
964 1705
964 3821
964 13833
964 16003
965 2845
965 4170
965 5530
965 9919
965 13802
965 16029
966 5646
966 15639
967 4448
967 7220
967 7850
967 8215
967 8460
967 12518
967 13035
967 14143
967 15016
967 15189
967 17001
967 23403
968 11843
968 11844
968 19070
968 20523
969 7121
969 7920
969 8281
969 12101
969 12835
969 20613
970 3766
970 14030
970 18223
970 19597
970 20343
970 23106
971 6530
971 9814
971 21881
972 2910
972 4790
972 12035
972 12056
973 5068
973 20849
974 3248
974 5431
974 6173
974 13976
974 18395
975 1842
975 7743
975 24284
975 24365
976 1060
976 21029
976 22365
977 3787
977 5213
977 8557
977 11226
977 20336
978 4134
978 5313
978 18238
979 1095
979 3969
979 16747
979 19503
979 24400
980 1140
980 6019
980 6642
980 18568
980 23410
981 8797
981 13708
981 20879
981 22079
981 22101
982 1985
982 9680
982 19672
982 21344
982 22798
983 6650
983 12716
983 14110
983 15845
983 20228
984 1324
984 6904
984 14563
984 22701
985 7977
985 21614
986 2168
986 2320
986 5492
986 5990
986 7067
986 7475
986 9501
986 11685
986 12059
986 14333
986 15132
986 15615
986 16430
986 17013
986 17131
986 17210
986 17329
986 17363
986 17673
986 17726
986 17769
986 20665
986 21310
986 21497
986 23392
987 5380
987 11528
988 8026
988 13111
988 21505
988 21614
989 1858
989 4283
989 12892
989 19122
989 22297
990 1487
990 9610
990 13058
990 17865
991 3522
991 19576
992 2145
992 8248
992 22631
993 4772
993 6860
993 10628
993 12497
993 13083
993 21978
993 22141
994 6771
994 8191
994 12663
994 14540
994 23042
994 23845
994 23846
994 23879
994 24103
994 24106
995 4129
995 18903
995 20143
995 22119
996 8012
996 9117
996 15925
996 17799
996 18311
996 19203
996 19518
996 22908
997 1673
997 3594
997 17631
997 19428
998 999
998 1585
998 3245
998 5026
998 5091
998 12036
998 12778
998 13640
998 14763
998 14764
998 16451
998 23850
998 23942
998 24128
999 5026
999 5091
999 10095
999 23942
1000 14772
1000 14932
1000 15266
1000 17945
1000 19969
1001 10186
1001 24173
1001 24410
1001 24458
1002 1612
1002 1764
1002 3104
1002 12202
1002 23772
1003 1004
1003 1006
1003 2595
1003 6867
1003 13922
1003 23361
1003 23362
1003 23363
1003 24016
1003 24050
1003 24217
1004 1005
1004 1006
1004 5929
1004 13297
1004 16790
1004 23363
1005 16790
1006 16790
1006 23362
1007 4402
1007 10056
1007 12776
1008 11270
1008 16041
1008 16048
1008 16050
1008 16057
1008 17350
1009 1476
1009 5833
1009 9417
1009 20569
1009 23330
1010 6660
1010 13338
1010 14775
1010 14958
1010 15416
1010 15943
1010 17795
1010 20091
1010 22219
1011 11792
1011 11928
1011 12236
1011 12713
1011 15484
1011 18481
1011 20493
1011 20663
1011 21059
1012 1243
1012 15315
1013 2773
1013 10568
1013 11649
1013 15184
1014 1564
1014 11177
1014 14057
1014 20675
1015 2343
1015 4554
1015 8868
1015 12947
1015 15312
1015 16145
1015 22638
1015 23817
1015 24221
1015 24222
1016 8262
1016 9696
1016 12924
1016 13928
1016 21703
1017 1567
1017 1842
1017 3004
1017 4245
1017 5556
1017 6858
1017 7573
1017 7910
1017 11612
1017 23205
1017 24067
1017 24361
1017 24458
1018 2428
1018 5317
1019 5178
1019 24078
1019 24393
1020 1523
1020 5526
1020 6250
1020 7150
1020 11298
1020 11910
1020 13654
1020 17305
1020 17586
1020 17950
1021 6429
1021 19329
1022 9815
1022 10245
1022 22904
1023 10579
1023 10581
1023 16019
1023 19092
1024 3272
1024 5172
1024 9096
1025 1765
1025 14482
1025 19912
1025 19986
1026 6879
1026 6937
1026 8043
1026 10769
1027 7072
1027 11461
1027 13055
1027 14969
1027 20905
1028 8669
1028 15151
1028 19318
1029 8181
1029 8994
1029 13839
1029 13841
1029 14679
1029 14980
1029 15454
1029 15811
1029 18879
1029 21355
1029 22966
1029 23233
1029 23448
1030 4821
1030 5380
1030 9562
1030 10173
1030 19248
1031 4529
1031 4890
1031 6562
1031 11077
1031 11634
1031 13365
1031 19717
1031 22176
1031 23242
1032 3488
1033 7237
1033 10075
1033 13023
1033 17992
1034 4402
1034 13870
1035 2973
1035 4609
1035 9890
1035 16827
1035 23329
1036 4943
1036 5939
1036 9068
1036 10869
1036 12273
1036 18791
1036 20546
1036 21379
1036 21388
1036 22018
1037 10032
1037 12557
1037 17691
1038 1712
1038 1915
1038 3058
1038 7354
1038 10081
1038 11003
1038 14406
1038 16521
1038 17537
1038 17965
1038 18010
1038 18734
1038 18900
1038 19994
1038 22056
1038 22709
1038 23272
1038 23831
1039 3072
1039 11889
1040 2186
1040 3008
1040 9682
1040 10426
1040 14889
1040 20219
1041 4176
1041 5506
1041 8169
1041 19103
1042 4708
1042 4709
1042 7640
1043 1331
1043 5620
1043 8126
1043 10684
1044 2151
1044 2769
1044 3422
1045 3078
1045 9285
1045 12027
1045 14058
1046 8055
1046 10571
1046 19227
1046 20096
1047 13870
1048 4610
1048 6769
1048 10125
1048 11156
1048 14780
1049 1246
1049 17305
1049 19923
1049 20107
1050 8936
1050 10305
1050 10539
1050 14239
1050 17534
1050 17653
1050 22474
1051 2394
1051 3641
1051 4101
1051 4749
1051 8634
1051 14369
1051 15300
1051 17480
1051 22475
1051 22909
1052 8906
1052 8980
1052 17613
1052 23082
1053 1441
1053 8034
1053 13446
1053 23307
1054 1074
1054 5636
1054 10921
1054 15823
1054 17521
1054 19898
1055 1141
1055 5676
1055 6783
1055 6985
1055 10431
1055 12110
1055 13501
1055 14384
1055 14716
1055 15035
1055 15225
1055 15535
1055 15689
1055 19509
1055 19740
1055 20657
1055 21960
1056 3452
1056 4829
1056 12243
1056 14462
1056 19258
1057 5142
1057 13891
1057 24167
1057 24308
1058 8735
1058 10740
1058 10934
1058 14232
1058 22899
1058 23312
1058 23919
1058 24400
1059 1808
1059 3214
1059 9703
1059 14261
1060 7391
1061 12122
1061 12123
1061 15452
1061 15934
1061 22249
1061 22572
1061 22920
1062 1083
1062 3111
1062 5494
1062 5679
1062 5826
1062 5849
1062 5984
1062 7110
1062 8470
1062 9848
1062 13011
1062 14509
1062 15911
1062 21511
1062 22944
1063 5779
1063 5782
1063 8815
1063 12911
1063 12995
1064 3604
1064 4617
1064 5112
1064 10609
1064 18284
1064 22748
1065 3823
1065 12772
1065 14427
1065 19968
1065 23476
1065 23853
1066 2254
1066 5488
1066 20277
1066 23297
1067 6219
1067 8859
1067 13489
1068 2020
1068 4927
1068 12159
1069 4461
1069 9623
1069 16007
1070 2996
1070 4813
1070 7720
1070 14702
1071 5194
1071 5759
1071 9420
1071 11720
1071 14788
1071 20948
1071 23576
1072 2054
1072 8930
1072 24380
1073 3364
1073 3381
1073 6086
1073 15262
1073 16994
1074 1962
1074 2223
1074 3647
1074 5636
1074 6814
1074 8165
1074 10768
1074 10921
1074 13317
1074 14858
1074 15823
1074 16723
1074 17521
1074 22269
1075 1996
1075 4521
1075 5855
1075 5870
1075 5894
1075 8767
1075 11709
1075 14040
1075 15078
1075 15470
1075 15624
1075 17112
1075 18004
1075 18534
1075 19674
1075 22154
1075 22224
1076 3725
1076 8973
1076 11704
1076 16870
1076 22330
1077 8565
1077 22484
1077 23057
1078 5191
1078 11077
1078 14363
1078 18071
1079 3326
1079 4237
1079 21656
1080 7100
1080 19066
1081 17075
1081 18111
1081 21207
1081 23229
1081 23578
1082 2592
1082 6461
1082 13085
1082 17977
1083 3111
1083 5679
1083 5849
1083 15911
1084 1551
1084 6849
1084 8246
1084 9713
1084 14342
1084 14938
1085 5372
1085 12043
1085 23924
1085 23930
1085 24001
1086 4322
1086 9637
1087 8728
1087 15948
1087 19428
1087 20683
1088 1553
1088 3233
1088 5321
1088 10341
1088 11380
1088 11437
1088 21700
1089 1597
1089 2074
1089 4598
1089 6794
1089 11092
1089 13733
1089 23704
1090 2946
1090 5550
1090 9293
1090 9640
1090 23873
1091 15991
1091 21556
1092 19004
1092 23615
1093 6472
1093 6841
1093 19912
1093 19986
1094 6760
1094 7046
1094 15818
1095 1103
1095 1282
1095 1296
1095 11419
1095 12166
1095 13357
1095 16747
1095 18070
1095 18218
1095 19503
1095 20701
1096 5960
1096 7100
1096 19066
1097 3003
1097 6488
1097 17324
1097 20168
1097 21443
1098 1729
1098 5618
1098 10190
1098 12404
1098 14004
1098 16749
1098 17202
1098 17491
1098 21772
1098 22457
1099 2027
1099 6398
1099 9517
1099 12441
1099 13438
1099 13439
1099 20975
1099 23757
1100 6111
1100 7843
1100 8735
1100 9884
1100 23570
1100 23791
1100 24255
1101 4465
1101 5113
1101 9146
1101 22701
1101 22757
1102 2488
1102 8947
1102 15360
1103 19503
1103 24400
1104 13094
1104 17939
1104 23435
1105 1822
1105 8631
1105 15930
1105 20831
1106 11190
1106 19318
1107 1559
1107 10030
1107 16229
1108 10243
1108 12247
1108 24384
1109 2206
1109 11700
1109 23894
1109 24146
1109 24160
1110 5359
1110 6640
1110 9613
1110 12419
1110 15412
1110 20469
1110 21096
1110 21378
1110 22781
1111 11861
1111 22156
1112 3073
1112 5750
1112 6347
1112 7027
1112 7284
1112 13097
1112 13538
1112 14698
1112 15124
1112 22094
1113 3540
1113 3914
1113 4935
1113 8663
1113 10567
1113 11413
1114 2588
1114 6472
1115 1445
1115 10853
1115 11499
1115 15366
1115 20660
1116 1165
1116 8075
1116 11898
1116 11899
1116 12917
1116 13021
1116 13022
1116 18002
1116 20128
1116 23372
1117 2851
1117 12021
1118 1136
1118 7141
1118 14732
1118 16713
1118 16958
1118 22685
1119 2479
1119 4959
1119 6543
1119 7558
1119 22283
1120 8079
1120 15612
1120 17850
1120 18881
1121 10091
1121 10263
1121 16898
1121 20048
1122 2160
1122 4638
1122 6675
1122 17107
1122 21255
1123 1131
1123 5528
1123 10471
1123 21834
1124 4159
1124 9255
1124 9746
1124 10643
1124 11386
1124 11957
1124 14808
1124 15561
1124 16600
1124 22044
1125 5009
1125 5099
1125 6674
1125 14974
1125 16133
1125 22394
1126 3023
1126 7014
1126 12203
1126 16131
1126 18109
1127 1913
1127 3843
1127 7965
1127 9655
1127 13233
1127 14121
1127 14922
1127 15715
1127 17712
1127 18035
1128 1368
1128 2192
1128 7079
1128 8173
1128 9036
1128 9405
1128 9651
1128 10824
1128 14820
1128 15882
1128 19314
1128 21065
1128 21136
1128 22615
1128 23028
1129 8719
1129 8939
1129 12621
1129 13713
1129 14510
1129 17401
1129 21639
1130 4269
1130 14558
1130 17197
1130 21786
1131 2184
1131 3948
1131 4215
1131 4743
1131 6436
1131 7844
1131 11997
1131 14847
1131 17966
1131 19860
1132 8081
1132 9510
1132 15924
1132 18937
1132 20163
1132 20933
1132 21066
1133 3028
1133 23783
1133 23814
1134 17305
1134 19923
1135 2260
1135 2285
1135 19935
1135 20306
1135 20533
1136 7253
1136 12654
1136 14243
1136 14732
1136 16958
1136 22109
1137 10091
1137 10263
1137 20048
1138 1877
1138 2162
1138 2960
1138 4299
1138 5611
1138 8936
1138 10539
1138 14239
1138 14655
1138 16428
1138 20939
1138 21596
1138 22046
1139 2342
1139 6475
1139 11140
1139 15003
1140 2532
1140 6642
1140 14120
1141 10431
1141 14716
1141 15689
1142 3222
1142 5456
1142 5485
1142 5877
1142 10027
1142 10163
1142 14817
1142 20928
1142 22318
1142 22526
1143 4996
1143 8567
1143 8568
1143 9591
1143 11809
1143 17518
1144 4287
1144 9317
1144 9536
1144 11023
1144 23979
1144 24164
1144 24272
1145 2355
1145 2486
1145 10861
1145 13908
1145 15213
1145 17228
1146 1474
1146 3707
1146 9616
1146 11885
1146 14076
1147 7888
1147 12391
1147 14874
1147 18781
1148 5543
1148 8371
1148 8993
1148 9876
1148 10170
1148 21252
1149 4972
1149 14993
1149 15896
1149 20492
1150 4877
1150 10678
1150 12632
1150 20771
1151 3948
1151 12819
1151 21834
1152 4847
1152 9694
1152 13251
1153 3326
1153 4237
1153 21656
1154 3992
1154 5190
1154 6051
1154 8023
1154 15543
1154 17272
1155 3873
1155 13625
1155 18893
1155 19373
1155 22191
1155 22409
1156 6199
1156 10864
1156 24145
1156 24476
1156 24480
1157 8228
1157 23784
1158 3153
1158 11776
1158 21003
1158 22429
1158 23478
1159 6010
1159 7013
1159 8901
1159 9810
1159 10205
1159 16808
1159 17019
1160 5559
1160 10860
1160 18178
1160 19497
1161 1199
1161 1508
1161 1757
1161 5122
1161 7507
1161 9908
1161 21631
1162 1202
1162 1950
1162 4514
1162 15108
1162 20796
1163 4789
1163 5505
1163 8116
1163 19785
1164 2320
1164 13013
1164 13179
1164 17131
1165 11898
1165 20128
1165 23378
1166 5360
1166 8530
1166 10877
1167 6122
1167 9384
1167 10214
1167 16821
1167 24080
1168 1735
1168 5784
1168 7956
1168 7959
1168 11465
1168 11466
1168 11877
1168 13724
1169 2382
1169 4584
1169 5698
1169 7359
1169 7774
1169 10004
1169 20866
1170 2275
1170 2597
1170 2740
1170 3146
1170 7377
1170 9370
1170 11757
1170 14951
1170 18952
1170 19446
1170 19995
1170 20069
1170 21519
1170 21521
1170 21773
1170 23073
1171 2835
1171 7190
1171 7311
1172 8125
1172 22568
1173 3518
1173 8180
1173 8603
1173 10894
1173 10961
1173 21222
1173 21911
1174 7316
1174 8236
1174 8597
1174 18953
1174 23626
1175 1718
1175 8512
1175 14272
1175 16662
1176 8244
1176 9658
1176 14583
1176 15573
1176 17304
1177 12303
1177 15735
1177 17498
1177 21731
1178 1870
1178 4701
1178 9747
1178 12897
1179 1608
1179 4312
1179 4482
1179 6584
1179 12600
1179 13277
1179 14028
1179 15492
1179 16335
1180 9575
1180 17369
1180 20167
1181 6510
1181 12129
1181 14616
1181 15023
1181 19780
1181 22929
1182 7572
1182 7914
1182 8179
1182 8811
1182 16846
1183 6970
1183 7372
1183 7668
1183 14439
1183 20320
1184 3128
1184 4204
1184 10062
1184 14694
1184 18453
1185 3513
1185 3913
1185 5307
1185 7444
1185 8978
1185 12030
1185 14003
1185 19299
1185 20052
1185 22243
1186 2046
1186 6573
1186 9683
1186 16558
1186 18012
1186 22568
1187 1917
1187 2925
1187 23492
1187 23916
1188 3642
1188 6859
1188 8150
1188 15705
1188 20100
1189 2466
1189 2577
1189 4308
1189 10557
1189 14512
1189 16442
1189 20787
1190 2022
1190 2953
1190 3414
1190 8315
1190 8448
1190 9169
1190 10755
1190 10971
1190 11034
1190 11132
1190 11589
1190 12718
1190 13971
1190 14236
1190 15346
1190 15682
1190 15793
1190 18846
1190 19586
1190 20733
1190 21160
1190 21187
1190 21655
1190 23080
1190 24381
1191 7000
1191 13181
1191 14806
1192 9306
1192 9783
1192 20309
1193 1194
1193 1195
1193 1736
1193 6548
1194 1736
1194 15970
1195 6548
1195 23378
1196 3648
1196 7423
1196 14842
1196 16939
1196 18957
1197 6947
1197 10893
1197 21711
1198 4813
1198 8039
1198 11640
1198 22653
1199 1508
1199 1757
1199 3778
1199 3838
1199 5122
1199 6426
1199 7507
1199 8139
1199 8341
1199 9176
1199 9908
1199 12461
1199 17320
1199 18115
1199 18293
1199 18425
1199 19709
1199 21631
1199 21649
1199 22000
1199 23052
1200 6530
1200 9814
1200 16618
1200 17162
1200 21881
1201 19318
1201 22025
1202 1950
1202 20796
1203 8360
1203 10389
1203 10495
1203 16070
1204 12290
1204 12291
1204 23781
1204 24196
1204 24225
1205 2145
1205 4303
1205 5130
1205 5622
1205 6224
1205 6471
1205 6535
1205 8917
1205 10493
1205 11987
1205 12668
1205 14017
1205 20200
1205 21359
1205 21447
1206 7793
1206 11405
1206 19611
1206 20653
1207 2390
1207 6009
1207 6714
1207 7120
1207 8924
1207 12099
1207 13552
1207 15821
1207 17791
1207 18081
1207 19365
1207 23194
1208 19128
1208 19131
1208 22286
1208 22964
1209 2676
1209 5567
1209 7856
1209 12351
1210 3373
1210 4160
1210 8068
1210 12019
1210 22729
1211 1574
1211 1954
1211 10940
1211 14567
1211 14688
1211 22557
1212 1513
1212 2351
1212 2982
1212 3494
1212 3561
1212 4578
1212 5961
1212 6992
1212 8551
1212 12913
1212 17566
1212 19395
1212 19889
1212 23034
1212 23645
1213 5344
1213 16188
1213 23367
1213 23635
1213 24058
1213 24275
1214 4170
1214 5313
1214 5623
1214 10673
1214 13864
1214 18080
1215 1729
1215 3027
1215 10190
1215 16749
1215 21772
1215 22457
1216 3005
1216 10237
1216 13564
1216 17812
1217 2977
1217 8857
1218 1596
1218 4229
1218 4505
1218 9105
1218 16436
1218 17794
1218 17809
1219 4266
1219 6240
1219 11251
1219 17868
1219 21953
1220 5870
1220 18534
1220 19674
1221 4807
1221 5534
1221 15778
1221 22241
1221 22242
1221 22317
1222 3396
1222 3995
1222 5100
1222 10985
1222 11489
1222 12888
1222 16100
1223 3066
1224 6331
1224 6828
1224 9035
1224 12501
1224 14967
1224 15094
1224 18319
1224 18933
1224 19526
1224 20310
1224 21166
1224 23122
1225 3604
1225 4617
1225 19651
1226 15538
1226 15704
1226 18261
1226 20718
1227 1423
1227 11441
1227 14525
1227 19160
1227 22829
1228 10802
1228 11096
1228 12760
1228 13213
1228 14176
1228 17598
1228 18041
1228 18717
1228 19426
1228 21218
1228 22469
1229 3564
1229 23112
1230 2320
1230 13179
1230 13620
1230 17131
1230 17363
1231 1797
1231 3181
1231 13273
1231 22741
1232 2778
1232 5478
1232 15158
1232 18419
1233 3813
1233 4779
1233 5352
1233 9518
1233 19667
1233 23967
1233 24169
1234 8088
1234 8985
1234 10063
1234 11329
1234 12509
1234 20135
1234 21482
1235 8638
1235 9353
1235 10434
1236 1249
1236 16405
1236 16625
1236 22914
1237 3992
1237 8023
1237 10914
1237 21190
1237 21770
1238 6287
1238 8137
1238 23792
1238 24397
1238 24399
1239 3051
1239 3557
1239 3751
1239 4839
1239 4867
1239 4888
1239 6805
1239 12939
1239 15143
1239 15748
1239 18389
1240 15333
1240 22054
1240 23533
1241 7450
1242 3155
1242 8098
1242 12837
1242 24186
1243 11583
1243 17298
1244 4294
1244 11328
1244 15828
1244 17894
1245 1353
1245 1753
1245 2710
1245 3239
1245 3993
1245 4849
1245 6011
1245 6952
1245 7514
1245 8715
1245 12090
1245 14033
1245 14572
1245 14863
1245 15787
1245 15907
1245 16419
1245 18090
1245 18188
1245 18637
1245 18749
1245 19538
1245 19653
1245 21713
1245 23692
1246 1264
1246 2044
1246 4398
1246 4469
1246 5824
1246 6625
1246 6733
1246 8089
1246 8698
1246 10012
1246 10309
1246 12178
1246 12367
1246 12443
1246 12619
1246 13406
1246 14771
1246 15154
1246 15290
1246 16161
1246 16404
1246 16860
1246 17256
1246 19461
1246 19928
1246 21230
1246 21329
1246 23249
1246 23275
1247 1622
1247 1673
1247 11558
1247 12936
1247 15258
1248 1630
1248 9546
1248 15475
1248 19400
1249 1294
1249 2399
1249 3533
1249 21821
1250 3239
1250 12709
1250 13294
1250 15453
1251 9780
1251 14978
1251 18333
1251 23887
1251 24087
1252 20144
1253 1507
1253 7876
1253 11902
1253 20634
1253 23412
1254 5964
1254 8955
1254 9492
1254 13347
1254 15751
1254 16208
1254 18464
1254 23198
1255 8306
1255 9804
1255 18820
1255 20370
1256 5479
1256 7021
1256 9133
1256 9821
1256 15839
1256 21477
1257 5090
1257 14316
1257 19366
1258 1480
1258 1548
1258 1983
1258 3172
1258 4402
1258 5725
1258 6152
1258 8663
1258 9397
1258 9916
1258 10210
1258 10355
1258 10915
1258 11236
1258 13216
1258 13407
1258 13469
1258 13544
1258 13741
1258 13820
1258 14490
1258 14977
1258 15351
1258 15636
1258 17503
1258 18009
1258 18697
1258 19671
1258 20656
1258 20865
1258 21602
1258 21967
1258 22669
1259 5187
1259 7052
1259 24110
1260 3529
1260 5903
1260 6947
1260 13221
1260 23405
1261 3526
1261 4540
1261 9995
1261 12792
1262 3750
1262 22332
1262 22784
1263 3457
1263 19318
1264 17305
1264 18782
1265 3542
1265 16391
1265 20661
1266 2009
1266 5297
1266 5995
1266 6668
1266 8468
1266 9368
1266 9882
1266 10491
1266 11579
1266 12376
1266 14340
1266 17604
1266 23483
1267 1626
1267 2360
1267 3165
1267 4868
1267 6912
1267 7890
1267 23078
1268 4402
1268 8857
1268 20377
1269 1967
1269 2813
1269 5428
1270 17320
1270 17904
1270 19910
1271 3077
1271 6483
1271 10035
1271 16196
1271 21551
1272 1321
1272 12434
1272 19259
1272 19878
1272 20264
1273 3952
1273 5966
1273 10427
1273 18363
1274 5743
1274 6167
1274 13329
1274 17271
1275 5285
1275 5764
1275 6163
1275 6816
1275 7439
1275 10061
1275 16223
1275 22659
1276 1277
1276 2817
1276 13577
1277 2817
1277 13577
1277 19759
1278 22180
1281 1768
1281 2500
1281 3944
1281 4062
1281 4761
1281 5782
1281 6215
1281 6766
1281 7299
1281 7952
1281 8267
1281 12686
1281 14407
1281 15274
1281 16452
1281 16657
1281 17154
1281 17435
1281 17517
1281 19500
1281 20866
1282 11419
1283 12214
1283 13182
1283 15241
1283 19771
1283 19987
1283 21845
1283 22168
1284 3576
1284 10004
1284 19040
1284 20554
1285 4254
1285 10004
1285 18355
1286 8670
1286 11973
1286 18466
1286 19793
1286 20290
1287 7684
1287 11508
1287 23323
1287 23864
1287 24168
1288 5420
1288 11610
1288 15840
1288 19198
1288 21614
1289 1909
1289 4263
1289 21471
1290 7995
1290 10166
1290 14432
1290 14479
1290 19214
1290 20980
1290 21011
1290 23459
1291 6827
1291 15827
1291 17593
1291 20534
1292 2469
1292 23799
1292 24026
1293 4541
1293 22281
1294 16405
1294 22914
1295 2855
1295 4727
1295 5288
1295 7651
1295 10046
1295 13999
1295 17290
1295 19762
1295 23931
1295 24310
1296 11419
1296 16747
1296 19503
1296 23312
1297 4993
1297 16598
1297 18332
1297 23495
1298 4855
1298 4873
1298 5812
1298 9390
1298 9868
1298 12582
1298 12969
1298 14095
1298 18505
1298 19043
1298 19712
1298 20658
1298 21220
1299 2004
1299 3776
1299 11186
1299 11400
1299 13510
1299 14127
1299 14481
1299 14816
1299 16469
1299 17822
1299 18154
1299 18269
1299 18407
1299 19207
1299 22252
1300 3914
1300 5676
1300 10431
1300 15035
1301 3585
1301 4733
1301 7999
1301 9570
1301 9814
1301 9856
1301 12658
1301 13238
1301 13252
1301 13825
1301 14076
1301 16618
1301 17836
1301 18013
1301 18138
1301 21881
1301 22483
1302 1409
1303 5362
1303 15424
1303 17469
1304 2519
1304 5177
1304 21893
1305 3978
1305 17299
1305 17508
1305 17985
1306 4669
1306 7685
1306 17636
1306 17741
1306 23223
1307 2408
1307 6752
1307 9060
1307 24357
1308 1905
1308 1991
1308 2806
1308 8609
1308 14394
1308 18251
1308 23336
1308 23987
1308 24112
1309 13921
1309 20717
1309 20732
1309 22391
1310 3620
1310 10034
1310 18169
1310 20448
1310 22433
1310 23589
1311 2280
1311 2509
1311 8916
1311 20659
1311 23255
1312 5133
1312 6902
1312 14705
1312 21158
1312 21357
1312 22942
1313 4880
1313 6039
1313 10444
1313 10646
1313 14675
1313 18532
1313 24421
1314 5601
1314 5753
1314 10494
1314 13628
1314 17944
1314 18480
1314 21162
1315 3312
1315 4410
1315 6297
1315 13956
1315 19311
1315 19703
1316 4325
1316 16414
1316 16572
1316 18759
1316 19080
1316 21364
1317 1495
1317 6227
1317 7707
1317 12756
1317 16325
1317 18143
1317 19981
1317 20622
1318 9285
1318 12027
1318 19931
1319 4067
1319 13095
1319 13674
1319 13964
1319 17733
1319 20257
1320 3313
1320 13883
1320 20623
1321 16358
1321 19259
1322 11405
1322 21488
1323 15914
1323 18487
1323 18760
1323 18927
1323 20233
1323 21745
1323 22730
1324 6504
1324 15963
1324 22701
1325 2247
1325 2576
1325 7849
1325 24174
1325 24311
1326 3825
1326 4629
1326 17436
1326 19318
1326 23328
1327 1328
1327 1329
1327 1330
1327 10394
1327 16087
1328 1329
1328 9244
1328 9245
1328 17690
1328 17856
1328 18988
1328 18989
1328 19996
1328 21715
1328 22452
1329 1330
1329 9244
1329 10394
1329 17690
1329 18989
1329 19996
1329 22452
1330 16087
1330 18989
1330 19996
1331 2900
1331 4000
1331 5620
1331 6696
1331 7298
1331 8510
1331 9565
1331 10582
1331 10684
1331 11862
1331 11966
1331 16568
1331 16674
1331 18018
1331 18055
1331 18092
1331 18139
1331 18635
1331 18980
1331 19181
1331 20883
1331 21247
1331 22211
1331 23175
1331 24137
1332 2723
1332 4140
1332 7038
1332 8570
1332 10290
1332 11505
1332 20875
1333 2321
1333 3138
1333 3460
1333 13037
1333 21998
1334 8019
1334 21681
1335 19968
1336 7959
1336 8032
1336 11877
1336 13887
1337 13301
1337 13875
1337 15834
1337 15837
1337 21229
1338 1339
1338 5462
1338 5463
1338 15621
1338 15852
1338 15854
1338 15856
1338 19663
1338 22117
1339 5463
1339 6502
1339 6622
1339 15852
1339 15854
1339 15855
1340 14643
1340 21270
1340 22411
1340 22437
1341 6360
1341 10800
1341 19058
1342 4010
1342 4645
1342 5624
1342 9114
1342 9321
1342 14709
1342 23281
1343 12289
1343 12290
1343 12291
1343 24176
1344 2238
1344 10359
1344 10475
1345 2131
1345 7028
1345 7464
1345 11606
1345 18676
1345 19689
1346 6492
1346 8930
1346 24228
1346 24284
1347 3175
1347 17064
1347 20156
1348 16223
1348 22493
1348 22676
1349 9228
1349 17699
1349 18862
1349 23270
1350 5553
1350 11619
1350 15126
1351 14569
1351 15610
1351 19611
1351 20199
1352 6779
1352 8677
1352 16615
1352 18123
1352 20845
1353 1753
1353 5095
1354 6218
1354 14682
1354 15529
1354 18052
1354 23494
1355 1512
1355 5188
1355 9707
1355 20388
1356 7175
1356 19639
1356 21626
1357 5714
1357 11056
1357 12393
1357 15201
1358 14450
1358 19318
1358 22025
1359 7700
1359 19262
1359 19264
1359 21645
1360 2302
1360 2390
1360 4712
1360 17838
1360 20696
1360 22636
1361 4017
1361 5815
1361 19515
1361 23045
1362 3531
1362 3912
1362 4567
1362 4644
1362 5684
1362 10481
1362 15128
1362 19486
1363 2902
1363 17077
1363 17669
1364 1666
1364 10612
1364 16597
1365 12204
1365 12812
1365 13745
1365 15112
1365 18929
1365 22257
1365 22458
1366 3349
1366 21009
1367 1515
1367 1979
1367 9300
1367 15615
1368 3239
1368 12735
1369 4710
1369 5187
1369 23676
1369 24240
1370 2058
1370 2609
1370 23732
1370 23921
1370 24197
1371 4534
1371 7704
1371 11116
1371 12710
1371 13738
1371 14433
1371 16716
1371 21068
1371 21091
1371 22969
1371 23639
1372 7197
1372 15538
1372 19634
1373 7253
1373 14243
1373 14732
1373 22685
1374 2317
1374 2543
1374 4315
1374 4624
1374 20985
1375 1439
1375 6122
1375 23937
1376 1494
1376 3948
1376 5489
1376 15445
1376 19022
1376 20374
1376 21834
1377 3386
1377 12404
1377 14004
1378 2487
1378 4029
1378 9875
1378 10973
1378 14637
1378 14653
1378 14941
1378 16914
1378 19113
1379 9038
1380 2429
1380 5437
1380 5758
1380 8754
1380 9361
1380 11661
1380 12771
1380 18694
1380 22157
1380 23187
1381 15670
1381 15795
1381 18831
1381 19636
1381 21427
1382 8458
1382 8508
1382 9560
1382 13879
1382 17887
1383 2189
1383 2993
1383 3224
1383 3370
1383 4227
1383 6652
1383 6946
1383 7520
1383 8548
1383 9862
1383 10151
1383 10327
1383 11306
1383 11403
1383 11897
1383 11986
1383 12504
1383 12605
1383 13282
1383 13475
1383 13859
1383 15734
1383 16421
1383 17778
1383 19131
1383 20044
1383 20080
1383 21055
1383 21146
1384 3423
1384 3506
1384 4935
1384 8785
1384 9924
1384 18658
1384 21429
1385 13320
1385 14949
1386 14280
1386 15344
1386 19733
1387 3675
1387 9637
1387 19171
1388 6882
1388 13462
1388 20605
1388 21687
1388 22523
1388 23735
1388 23824
1388 24015
1388 24235
1388 24301
1389 13916
1389 20844
1390 5588
1390 6611
1390 8857
1390 21487
1390 22948
1391 11143
1391 23835
1391 24375
1392 2642
1392 8251
1392 24298
1392 24475
1393 6581
1393 11317
1393 14999
1393 18803
1394 20319
1394 20612
1395 10558
1395 13314
1396 5689
1396 7071
1396 7823
1396 17443
1396 23202
1397 7361
1397 17865
1397 21435
1398 1600
1398 2739
1398 4816
1398 4832
1398 6534
1398 7586
1398 11210
1398 11541
1398 16479
1398 19148
1398 23369
1398 24479
1399 8528
1399 13987
1399 18061
1399 18099
1399 21234
1400 20257
1400 21397
1401 8904
1401 12079
1401 19381
1401 21437
1401 22932
1401 23239
1402 11619
1402 14940
1402 15648
1402 17642
1402 18680
1403 2673
1403 10082
1403 10206
1403 16273
1403 19562
1404 4703
1404 8175
1404 20294
1404 21855
1405 12985
1405 13930
1405 15905
1405 21626
1406 19745
1406 21165
1406 21437
1407 1662
1407 3630
1407 3906
1407 4953
1407 6188
1407 6507
1407 10192
1407 11852
1407 20646
1407 20843
1408 5545
1408 7722
1408 8821
1408 16483
1408 23604
1409 2054
1409 2506
1409 4047
1409 4704
1409 5405
1409 6403
1409 6500
1409 7859
1409 8637
1409 8930
1409 10367
1409 11338
1409 11599
1409 13229
1409 15580
1409 16731
1409 18808
1409 20867
1409 22699
1409 22783
1409 23659
1409 24284
1409 24385
1410 7408
1410 14558
1410 21786
1411 11083
1411 14946
1411 15009
1412 2216
1412 3887
1412 9524
1412 18331
1412 19487
1412 20923
1413 1676
1413 5063
1413 7198
1413 14561
1414 3083
1414 4045
1414 9977
1415 1555
1415 4337
1415 15086
1415 15087
1415 20763
1416 6045
1416 17234
1416 21398
1417 16725
1417 19424
1417 20448
1417 20989
1418 3632
1418 16583
1418 17090
1418 20114
1418 20271
1419 5871
1419 9170
1419 21508
1419 21721
1420 15159
1420 17695
1420 19040
1421 2619
1421 23067
1422 4809
1422 14988
1422 15452
1422 18274
1423 14525
1423 19160
1423 22829
1424 5568
1424 6589
1424 6592
1424 6593
1424 15295
1424 16200
1424 17316
1424 18823
1424 19870
1425 10604
1425 11861
1425 12620
1425 15991
1425 17687
1426 8163
1426 15127
1426 22974
1427 17305
1427 22856
1428 14450
1428 16517
1428 19318
1428 22025
1429 3381
1429 22799
1430 4156
1430 13291
1430 17528
1430 17585
1430 19565
1431 2540
1431 3627
1431 4791
1431 11370
1431 12405
1431 21101
1432 3107
1432 4149
1432 5117
1432 15974
1432 16933
1432 22473
1433 3787
1433 5213
1433 5746
1433 13267
1433 13842
1434 3239
1434 13294
1434 15453
1435 2346
1435 4256
1435 8905
1435 9717
1435 10500
1436 1609
1436 2811
1436 8082
1436 10034
1436 18372
1437 3225
1437 12027
1437 19931
1438 2551
1438 9764
1438 18336
1438 20790
1438 22513
1439 6676
1439 7681
1440 2891
1440 8232
1440 24412
1442 1528
1442 1639
1442 2031
1442 2545
1442 3141
1442 3154
1442 3470
1442 6308
1442 7946
1442 8026
1442 8800
1442 8958
1442 9514
1442 10896
1442 11032
1442 12234
1442 13319
1442 13331
1442 14585
1442 14859
1442 15703
1442 16556
1442 16955
1442 21593
1442 21878
1442 22302
1442 23393
1443 4623
1443 6719
1443 6856
1444 11432
1444 23847
1444 24081
1444 24186
1445 1733
1445 2420
1445 3659
1445 6509
1445 6940
1445 7563
1445 7696
1445 8074
1445 8389
1445 8577
1445 9323
1445 9428
1445 11499
1445 12408
1445 12432
1445 12717
1445 13679
1445 13810
1445 14226
1445 15226
1445 15417
1445 15520
1445 15570
1445 19048
1445 20660
1445 20759
1445 22446
1445 23751
1445 23764
1446 4603
1446 5439
1446 5989
1446 12723
1446 15239
1446 20459
1447 2527
1447 2886
1447 10944
1447 12023
1447 17711
1447 18242
1447 19073
1447 19835
1447 20148
1447 20815
1448 14778
1449 6596
1449 7711
1449 9493
1449 9769
1449 23005
1450 6990
1450 6991
1450 8046
1450 8047
1450 10402
1450 14535
1451 9874
1451 21339
1451 23470
1452 5031
1452 5561
1452 6487
1452 6595
1452 9716
1452 11035
1452 11036
1452 14588
1452 15285
1452 20763
1452 21914
1453 5088
1453 6455
1453 18214
1453 21527
1453 22708
1454 4437
1454 5737
1454 7176
1454 11195
1454 16623
1455 4668
1455 20976
1455 21101
1455 22236
1456 12300
1456 15298
1456 18511
1457 1548
1457 2381
1457 14877
1458 4448
1458 11591
1458 12238
1458 13799
1459 4753
1459 7733
1459 8272
1459 9532
1459 10283
1459 10422
1459 10487
1459 11567
1459 11724
1459 12407
1459 15137
1459 15527
1459 17167
1459 18584
1459 22369
1460 4619
1460 6722
1460 10142
1460 19374
1461 3041
1461 16624
1461 16768
1462 8114
1462 9760
1462 13982
1462 15039
1462 16054
1462 18031
1462 18516
1462 20510
1463 12204
1463 22257
1463 22458
1464 5956
1464 7796
1464 10222
1464 10948
1464 12113
1465 17126
1465 19468
1465 19469
1466 7832
1466 8117
1466 10429
1466 21076
1467 6438
1467 8989
1467 15794
1467 16285
1468 6980
1468 7052
1468 23543
1469 5820
1469 12211
1469 22361
1470 7977
1470 9765
1470 10959
1470 20861
1471 11965
1471 17662
1471 21498
1472 5328
1472 6388
1472 18286
1472 23100
1473 9411
1473 12683
1474 9616
1474 16268
1475 3493
1475 11540
1475 17541
1475 17626
1475 19772
1476 4630
1476 16017
1476 23330
1476 23523
1477 5875
1477 10011
1477 14253
1477 16285
1478 2004
1478 2373
1478 4449
1478 16469
1478 18269
1478 20619
1479 11254
1479 19176
1480 1548
1480 4402
1480 14877
1481 6710
1481 9859
1482 2400
1482 9211
1482 10348
1482 24316
1483 7940
1483 15204
1484 2589
1484 2797
1484 13068
1484 19569
1485 7651
1485 23987
1485 24057
1485 24443
1486 8301
1486 11362
1486 23778
1487 7361
1487 16978
1487 17891
1487 18176
1487 19118
1487 21798
1487 23374
1488 4799
1488 7065
1488 7575
1488 12579
1488 17871
1488 19347
1489 6009
1489 7411
1489 8847
1490 4701
1490 5160
1490 7446
1490 21929
1491 9206
1491 16768
1491 17447
1491 20125
1492 18898
1492 21556
1492 21570
1492 21781
1493 6025
1493 12806
1493 18622
1493 19580
1493 22834
1494 3948
1494 4561
1494 12819
1495 7707
1495 9879
1495 20622
1496 3177
1496 5015
1496 10420
1496 10502
1496 13750
1496 21186
1496 22972
1497 2237
1497 5282
1497 10714
1497 10715
1497 11081
1497 11796
1497 11797
1497 17404
1497 17926
1498 7447
1498 7516
1498 7780
1498 14255
1498 21892
1499 4954
1499 7278
1499 8226
1499 10126
1499 11919
1499 14077
1499 14883
1500 4550
1500 6709
1500 7359
1500 13259
1500 20866
1500 21319
1501 3097
1501 6777
1501 13605
1501 17421
1501 22212
1502 7662
1502 8047
1502 13615
1502 13616
1502 19263
1503 1781
1503 2803
1503 3145
1503 3481
1503 4027
1503 4360
1503 4436
1503 5116
1503 5197
1503 5712
1503 6170
1503 6493
1503 6935
1503 7916
1503 7998
1503 9377
1503 9387
1503 9594
1503 10711
1503 12108
1503 13656
1503 14421
1503 16194
1503 16540
1503 16804
1503 17096
1503 18238
1503 18631
1503 19265
1503 22308
1503 22365
1503 22530
1503 22801
1503 23216
1504 1507
1504 7876
1504 14473
1504 15940
1504 18202
1505 1506
1505 7876
1505 11902
1505 20634
1506 1507
1506 2139
1506 7655
1506 7876
1506 14473
1506 15183
1506 15940
1506 18203
1506 21901
1506 22379
1507 2139
1507 2204
1507 7228
1507 7655
1507 7658
1507 9126
1507 15940
1507 17010
1507 18202
1507 18203
1507 20116
1507 20198
1507 20633
1507 20634
1507 21901
1507 22378
1507 22379
1507 22380
1508 1757
1508 7507
1509 2702
1509 4328
1509 4935
1509 7864
1509 11568
1509 12263
1509 22313
1510 15538
1510 15704
1510 20718
1511 4150
1511 4408
1511 4691
1511 6106
1511 6292
1511 8279
1511 11359
1511 12375
1511 12516
1511 12874
1511 13496
1511 14670
1511 15190
1511 15399
1511 16813
1511 17500
1511 17614
1511 19277
1511 20457
1511 21257
1511 21660
1512 3598
1512 5188
1512 6437
1512 6585
1512 10534
1512 11520
1512 11856
1512 16112
1512 20600
1512 21506
1512 22362
1513 15448
1513 17566
1513 23258
1514 2770
1514 5526
1514 6915
1514 8835
1514 17785
1515 1979
1515 3758
1515 7582
1515 9274
1515 24187
1516 7492
1516 12695
1516 16438
1517 2634
1517 3303
1517 11051
1517 12355
1517 13271
1518 9104
1518 10571
1518 18738
1518 22904
1519 5835
1519 7170
1519 13592
1519 21879
1519 22237
1520 13427
1520 18561
1521 3322
1521 3374
1521 3579
1521 11972
1521 14031
1521 14034
1521 16594
1521 19196
1522 5025
1522 11600
1522 12547
1522 18540
1522 23880
1522 24306
1523 3488
1523 5526
1523 17305
1523 18782
1524 3030
1524 3922
1524 6756
1524 12954
1524 22817
1525 14513
1525 19923
1526 17389
1526 22261
1526 22953
1526 24159
1527 12227
1527 16070
1528 8026
1528 10604
1528 21593
1529 3316
1529 3441
1529 3653
1529 3932
1529 5851
1529 6895
1529 8035
1529 8424
1529 8807
1529 9040
1529 9452
1529 10069
1529 11312
1529 12571
1529 14091
1529 15777
1529 16032
1529 16132
1529 16301
1529 16865
1529 17612
1529 17830
1529 17994
1529 18199
1529 21569
1529 21915
1529 22140
1529 23442
1529 23651
1530 3702
1530 3920
1530 6132
1530 12115
1530 22693
1530 24313
1531 6186
1531 17716
1531 22567
1531 23029
1531 23464
1531 23687
1532 5403
1532 10703
1532 15031
1532 19537
1532 19554
1533 20988
1534 10411
1534 15696
1534 16866
1534 21587
1535 1614
1535 7197
1535 15280
1535 19074
1535 21921
1535 23351
1536 23796
1536 24339
1537 4194
1537 5301
1537 12560
1537 14329
1537 20178
1538 23938
1538 24016
1538 24050
1538 24217
1539 5456
1539 9491
1539 20928
1540 15033
1541 2279
1541 14133
1541 15257
1541 23434
1542 4789
1542 14135
1543 5734
1543 7743
1543 23820
1543 24284
1543 24487
1544 2212
1544 4104
1544 5271
1544 8710
1544 11103
1544 16128
1544 17269
1544 18542
1545 18012
1545 22568
1546 8257
1546 8560
1546 19366
1547 6115
1547 11345
1547 17264
1548 1675
1548 2330
1548 2386
1548 2824
1548 3158
1548 3172
1548 3430
1548 4023
1548 4402
1548 4735
1548 4893
1548 5170
1548 6246
1548 7686
1548 7971
1548 8509
1548 9248
1548 10439
1548 10915
1548 11982
1548 12373
1548 12805
1548 12931
1548 13216
1548 13494
1548 14151
1548 14364
1548 14977
1548 15699
1548 16081
1548 16509
1548 16954
1548 17275
1548 18981
1548 19099
1548 19361
1548 19371
1548 21280
1548 21602
1548 22594
1548 23143
1548 23369
1549 3493
1549 6229
1549 17541
1549 17626
1549 19772
1549 20578
1550 12726
1550 13201
1550 16634
1550 20518
1550 23452
1551 2153
1551 2556
1551 2625
1551 3311
1551 4414
1551 6574
1551 7116
1551 8461
1551 9569
1551 9713
1551 10284
1551 13972
1551 16519
1551 17301
1551 17419
1551 18435
1551 19913
1551 21036
1551 22077
1551 22300
1551 22599
1552 2754
1553 3595
1553 18354
1553 21700
1554 3399
1554 18695
1554 20402
1555 14090
1555 15087
1555 23268
1556 5553
1556 15126
1556 15648
1556 17642
1557 3397
1557 14933
1557 21009
1558 10230
1558 15466
1558 17084
1558 20378
1559 10030
1560 5903
1560 6947
1560 8119
1560 10474
1560 11443
1560 13221
1560 14194
1560 16125
1560 21777
1560 21908
1561 5820
1561 7130
1561 7313
1561 9937
1561 10794
1561 11095
1561 14604
1561 15711
1561 16730
1561 17411
1561 17618
1561 17627
1561 20144
1561 20222
1561 21046
1562 1687
1562 12476
1562 17235
1562 18017
1562 18780
1562 23345
1563 8056
1563 9115
1563 16143
1564 1684
1564 1835
1564 6498
1564 8328
1564 11177
1564 14057
1565 4790
1565 10805
1565 17345
1566 6300
1566 15718
1566 19109
1566 22352
1567 1842
1567 23865
1567 24321
1568 15033
1568 20925
1568 22868
1569 2708
1569 4486
1569 5385
1569 6012
1569 11531
1569 16276
1570 6707
1570 7325
1570 15981
1570 19629
1570 21191
1570 21718
1571 11009
1571 17165
1571 22179
1572 1705
1572 10056
1572 16003
1573 7106
1573 7222
1573 11249
1573 12488
1573 13567
1573 16334
1573 19236
1574 4517
1575 2745
1575 5783
1575 13121
1575 13208
1575 15755
1576 2248
1576 7781
1576 11204
1576 12403
1576 13768
1576 16174
1576 16497
1576 21554
1576 24490
1577 2814
1577 5294
1577 5614
1577 5827
1577 10950
1577 18115
1577 18277
1577 19872
1578 13731
1578 17347
1578 18645
1578 21356
1579 8482
1579 23622
1579 23932
1579 24143
1580 1802
1580 9379
1580 13765
1580 15340
1581 1870
1581 8387
1581 12897
1581 22885
1582 1925
1582 8803
1582 11764
1582 12474
1582 15819
1582 16532
1582 18526
1582 19278
1582 21320
1583 2126
1583 2799
1583 3841
1583 5115
1583 6031
1583 17899
1583 20057
1584 11036
1584 21914
1585 10499
1585 13203
1585 18567
1585 19357
1585 23574
1586 2315
1586 6115
1586 9058
1586 15127
1587 3548
1587 3921
1587 6277
1587 13052
1587 18227
1587 18750
1587 21073
1587 21202
1587 22650
1588 1700
1588 3940
1589 3265
1589 4851
1589 7117
1589 8574
1589 13200
1590 5188
1590 9707
1590 20388
1591 2214
1591 8036
1591 8225
1591 11478
1591 16066
1591 17094
1591 22778
1592 2732
1592 3850
1592 11217
1592 12357
1592 17680
1592 20016
1593 6052
1593 8137
1593 24361
1594 1670
1594 3149
1594 9143
1594 11633
1594 22386
1595 2222
1595 4483
1595 5593
1595 7764
1596 4229
1596 9105
1596 17794
1597 5860
1597 23094
1597 23704
1598 2379
1598 6415
1599 4402
1599 18166
1600 6534
1601 4619
1601 13440
1601 14368
1602 5565
1603 13317
1603 19504
1603 19978
1603 23095
1604 6158
1604 24282
1605 3872
1605 6993
1605 7573
1605 9974
1605 24083
1606 4446
1606 4987
1606 7913
1606 8019
1606 8615
1606 9817
1606 10736
1606 11762
1606 13060
1606 18172
1606 19302
1606 20516
1606 21820
1606 22494
1607 15033
1607 19084
1607 20925
1608 4405
1608 5465
1608 13619
1608 16335
1609 2113
1609 2252
1609 2811
1609 4085
1609 4182
1609 5229
1609 6148
1609 7251
1609 8082
1609 8287
1609 9175
1609 9689
1609 10034
1609 11113
1609 12364
1609 13901
1609 14159
1609 14182
1609 14610
1609 14855
1609 16551
1609 16725
1609 17575
1609 18372
1609 19424
1609 19881
1609 20989
1609 21988
1609 22166
1609 22428
1609 22531
1609 22722
1609 22869
1609 22995
1609 23085
1610 7498
1610 10829
1610 15100
1611 15190
1611 18050
1611 19972
1611 21257
1612 1764
1612 3104
1612 4319
1612 12202
1612 17295
1612 17823
1612 22215
1612 22325
1613 3456
1613 7736
1613 16009
1613 17948
1613 17997
1614 7179
1614 7197
1615 3890
1615 18720
1615 21832
1616 12620
1616 19198
1617 13023
1618 5834
1618 21874
1618 22597
1619 6336
1619 12901
1619 17518
1619 17917
1620 1715
1620 4144
1620 10993
1620 13507
1620 15550
1621 5776
1621 20008
1621 20650
1621 21681
1622 8060
1622 11558
1622 12936
1622 13411
1622 14202
1622 18116
1622 19126
1622 21954
1623 8082
1623 15950
1623 16979
1623 18873
1623 20620
1623 22034
1624 2685
1624 2792
1624 5905
1624 8825
1624 14408
1625 11091
1625 14876
1626 2360
1626 4868
1626 6912
1626 7890
1626 12919
1627 9414
1627 17469
1628 7859
1628 7928
1628 8637
1628 24233
1628 24274
1629 2698
1629 4076
1629 6941
1629 8525
1629 8526
1629 9422
1630 9546
1630 9658
1630 20034
1631 2603
1631 3187
1631 7845
1631 10288
1631 10533
1631 20743
1632 3919
1632 9780
1632 18333
1632 23887
1633 8692
1633 11375
1633 12008
1633 12153
1633 12224
1633 14805
1633 15562
1633 19422
1633 22622
1634 2777
1634 13824
1634 15051
1634 16456
1634 18312
1634 20325
1635 9323
1635 10853
1635 11569
1635 18644
1635 20660
1636 18846
1637 4570
1637 5582
1637 10903
1637 19489
1638 2061
1638 3833
1638 18683
1638 22740
1638 23520
1639 14585
1639 21593
1639 21614
1640 17864
1640 20459
1641 23706
1642 10756
1642 11736
1642 12390
1642 17881
1642 20646
1643 5962
1643 13175
1643 18768
1643 19094
1643 19154
1644 2484
1644 11413
1644 12095
1644 19309
1644 21475
1644 23783
1645 1851
1645 19570
1646 4358
1646 6466
1646 13758
1646 14179
1646 15947
1646 21297
1646 22463
1647 24012
1647 24116
1647 24246
1648 10530
1648 15999
1648 18923
1648 19868
1648 23197
1649 1914
1649 2039
1649 2939
1649 3134
1649 3885
1649 4031
1649 5387
1649 6711
1649 8610
1649 9972
1649 13374
1649 16021
1649 18867
1649 23557
1650 1695
1650 2294
1650 8019
1650 9850
1650 17676
1650 20463
1651 1730
1651 1776
1651 3785
1651 6218
1651 6364
1651 6454
1651 7785
1651 9098
1651 13030
1651 13481
1651 14935
1651 17178
1651 18052
1651 18473
1651 21525
1652 2617
1652 6324
1652 7556
1652 10781
1652 15953
1652 18940
1652 19026
1652 22680
1653 3946
1653 20659
1654 2195
1654 19134
1654 22784
1654 23531
1655 6736
1655 11308
1655 24048
1655 24256
1656 1773
1656 3753
1656 10641
1656 11410
1656 18022
1656 19380
1656 20847
1656 23515
1656 23851
1656 23934
1657 1854
1657 5407
1657 8008
1657 16798
1657 17862
1657 19744
1657 20390
1658 12535
1658 20903
1658 21951
1658 21952
1658 24178
1659 4910
1659 6052
1659 8136
1660 1838
1660 4845
1660 5935
1660 7185
1660 9932
1660 9962
1660 11244
1660 14916
1660 15384
1661 3185
1661 4760
1661 8684
1661 11078
1661 11739
1661 17159
1661 17176
1661 22609
1662 2287
1662 9606
1662 15665
1662 16632
1663 5995
1663 12219
1664 4948
1664 11519
1664 20763
1664 22431
1665 5134
1665 23679
1665 23725
1665 24258
1665 24261
1666 10612
1666 16597
1666 22883
1667 16140
1667 16152
1667 16153
1667 17444
1667 17445
1668 4785
1668 6102
1668 8626
1668 12289
1668 12290
1668 12291
1668 24084
1668 24176
1668 24360
1669 23446
1669 23713
1669 24050
1669 24452
1670 2413
1670 3149
1670 5081
1670 6165
1670 8587
1670 9143
1670 16892
1670 17869
1670 22386
1671 3136
1671 3392
1671 4942
1671 9453
1671 11049
1671 18826
1672 6821
1672 7740
1672 11181
1672 15556
1672 20342
1673 8060
1673 10331
1673 12520
1673 12936
1673 13411
1673 14202
1673 14619
1673 19126
1673 21954
1674 15033
1674 22868
1675 2325
1675 14877
1676 4992
1676 5063
1676 7394
1676 20617
1676 20770
1676 21128
1677 4762
1677 13495
1677 19502
1678 2963
1678 7718
1678 23881
1679 18536
1679 20903
1679 21728
1679 23199
1680 2972
1680 12158
1680 15235
1680 23378
1681 2818
1681 7139
1681 14237
1682 3294
1682 5560
1682 10150
1682 10999
1682 11816
1682 21691
1683 2820
1683 11004
1683 12071
1684 6498
1684 8328
1684 11474
1684 19744
1684 21439
1685 5772
1685 6060
1685 17120
1685 18859
1685 20536
1686 5169
1686 6561
1686 12540
1687 12476
1687 13103
1687 17235
1687 18017
1688 4138
1688 5245
1688 7598
1688 12336
1689 4838
1689 18128
1689 18263
1689 18748
1689 20586
1690 2440
1690 2863
1690 6481
1690 16210
1690 17033
1691 7845
1691 12574
1691 20478
1691 23261
1692 4080
1692 7380
1693 2305
1694 3731
1694 8714
1694 8896
1694 10759
1694 19442
1695 8574
1695 13505
1696 2804
1696 3888
1696 13015
1696 19678
1696 19679
1696 21045
1696 21683
1697 3897
1697 5075
1697 5842
1697 5853
1697 8003
1697 8352
1697 8703
1697 9128
1697 10789
1697 12374
1697 12603
1697 12923
1697 13542
1697 14178
1697 16082
1697 18121
1697 18460
1697 19713
1697 20182
1697 20194
1697 22393
1697 23703
1698 13176
1698 18421
1698 18938
1698 21307
1698 23212
1699 16660
1699 18732
1699 21658
1700 2836
1700 4756
1700 18020
1700 19695
1700 21657
1701 5166
1701 11134
1701 11324
1701 11325
1701 23856
1702 11935
1702 14141
1702 20503
1703 2488
1703 5401
1703 6758
1703 13207
1703 15360
1704 2840
1704 18058
1704 18846
1704 19973
1704 20566
1705 3821
1705 11391
1705 15585
1705 16003
1705 19656
1706 6714
1706 6874
1706 12099
1707 1789
1707 2267
1707 6508
1707 7561
1707 15106
1708 4619
1708 13440
1708 18467
1708 20115
1709 6067
1709 9543
1710 6521
1710 12863
1710 14191
1710 17567
1710 21358
1711 6793
1711 16973
1712 3058
1712 17214
1712 22056
1712 22709
1713 4613
1713 7657
1713 8118
1713 12773
1713 15341
1713 15510
1713 17628
1713 20476
1714 13024
1714 14049
1715 4144
1715 18967
1716 7972
1716 9096
1716 19051
1716 20528
1717 8019
1717 19997
1717 21199
1718 2637
1718 5054
1718 19071
1718 23273
1719 12326
1719 16221
1719 17097
1719 22863
1720 3403
1720 17287
1720 21415
1721 5086
1722 7074
1722 9127
1722 10261
1722 13171
1722 13759
1722 14620
1722 14710
1722 14711
1722 14713
1722 23684
1723 6263
1723 10741
1723 18055
1724 8909
1724 17196
1725 2460
1725 3287
1725 8145
1725 19298
1725 22051
1726 2053
1726 5708
1726 24283
1726 24403
1727 3691
1727 3758
1727 6961
1727 8498
1727 8851
1727 8857
1727 9509
1727 11073
1727 13732
1727 14703
1727 16961
1727 17769
1727 19726
1728 3349
1728 19988
1728 21009
1728 22040
1729 3027
1729 3584
1729 4696
1729 10190
1729 15057
1729 16749
1729 16910
1729 21122
1729 21772
1730 6302
1730 6364
1730 9098
1730 13030
1730 13481
1730 18473
1731 4492
1731 5414
1731 9513
1731 9812
1731 13303
1731 15096
1731 19536
1731 22807
1731 23006
1732 6566
1732 7130
1732 20164
1732 23380
1733 9323
1733 10853
1733 12717
1733 15417
1734 5563
1734 11631
1734 14676
1735 2271
1735 7956
1735 7959
1735 11465
1735 11466
1735 11877
1736 6548
1736 15970
1736 23378
1737 6580
1737 18976
1737 20408
1738 3542
1738 7440
1738 21020
1739 10279
1739 23009
1740 3548
1740 8383
1740 21202
1741 1742
1741 9362
1741 12854
1741 14900
1741 14906
1741 21343
1741 22128
1741 23008
1742 9362
1742 14900
1742 14906
1742 22128
1742 23007
1743 3626
1743 3925
1743 4095
1743 7395
1743 8294
1743 15048
1744 1745
1744 8032
1744 11506
1744 19242
1745 8032
1745 13887
1745 16895
1746 1747
1746 4252
1747 2464
1747 12609
1747 12988
1748 6346
1748 6350
1748 8584
1748 8585
1748 9535
1749 10306
1749 11463
1749 18565
1750 24174
1751 3773
1751 7942
1751 20669
1751 22086
1752 5809
1752 10049
1752 20489
1752 21564
1752 23542
1753 2710
1753 3993
1753 5095
1753 7514
1753 7621
1753 7773
1753 9772
1753 11192
1753 11193
1753 11948
1753 12881
1753 13043
1753 13723
1753 13795
1753 14019
1753 15082
1753 15571
1753 15787
1753 15907
1753 18090
1753 18741
1753 19354
1753 19538
1753 19653
1753 21735
1753 22395
1753 22605
1753 22754
1754 7450
1754 17257
1755 3426
1755 4619
1755 6722
1755 13906
1756 6026
1756 6411
1756 8588
1756 16127
1756 21638
1757 3838
1757 6426
1757 7507
1757 9176
1757 9908
1757 22000
1758 4117
1758 10021
1758 10211
1758 24073
1758 24302
1759 24016
1759 24050
1759 24217
1760 6395
1760 6564
1760 10922
1760 14172
1760 16909
1760 23146
1761 10602
1761 22200
1761 22226
1762 2167
1762 2306
1762 2572
1762 3761
1762 4395
1762 5501
1762 8366
1762 9257
1762 10710
1762 13653
1762 17637
1762 20677
1762 21254
1762 23754
1762 24295
1763 3887
1763 8502
1763 17414
1763 22092
1764 3104
1764 4319
1764 12202
1764 21641
1764 22325
1764 24402
1765 3401
1765 6239
1765 14482
1765 17163
1765 18166
1765 19986
1765 23492
1766 24169
1767 7339
1767 8566
1767 10004
1767 10619
1767 12259
1767 13249
1767 13755
1767 23487
1768 4547
1768 4550
1768 10004
1768 10727
1768 11884
1768 12686
1768 13571
1768 14726
1768 17154
1768 19119
1768 19120
1768 19471
1768 20554
1768 21143
1768 22637
1769 4776
1769 11090
1769 14486
1769 15318
1770 3215
1770 4194
1770 5228
1770 6125
1770 7719
1770 10133
1770 12560
1770 16079
1771 5501
1772 2606
1772 2630
1772 3131
1772 3428
1772 4274
1772 6247
1772 7063
1772 8142
1772 8292
1772 8387
1772 11088
1772 12198
1772 13927
1772 15449
1772 15608
1772 16293
1772 16700
1772 17066
1772 18231
1772 20300
1772 20559
1772 21823
1772 23208
1772 24077
1773 18022
1773 20847
1774 3488
1774 5526
1774 8835
1774 17305
1775 9761
1775 16802
1775 20298
1775 20665
1776 3785
1777 2920
1777 10525
1777 17533
1777 21212
1778 5527
1778 7256
1778 23331
1779 3406
1779 3500
1779 4520
1779 5616
1779 6583
1779 11166
1779 12573
1779 14504
1779 17596
1779 18406
1779 19039
1779 20754
1780 1834
1780 13205
1780 18257
1780 22970
1781 5197
1781 6493
1781 7391
1781 16149
1781 17376
1781 18631
1782 4758
1782 5657
1782 7632
1782 22941
1783 2213
1783 5164
1783 6117
1783 8102
1783 9218
1783 9593
1783 9675
1783 9742
1783 11820
1783 13127
1783 15330
1783 19284
1783 19828
1783 20311
1783 21005
1783 21330
1783 22780
1783 22951
1783 22962
1783 23473
1784 2170
1784 2380
1784 21865
1785 19318
1786 7769
1786 21486
1786 23056
1787 6624
1787 12664
1787 23722
1787 24382
1788 1951
1788 3188
1788 13264
1789 3416
1789 6508
1789 19063
1790 2299
1791 2693
1791 4184
1791 8337
1791 10396
1791 19687
1792 5010
1792 5687
1792 9881
1792 12943
1792 17183
1792 18025
1792 18886
1792 20673
1792 21942
1793 5358
1793 7932
1793 9789
1793 18480
1793 18501
1793 19594
1794 5522
1794 8319
1794 13410
1794 17029
1794 18857
1795 12361
1795 13964
1795 21586
1796 4459
1796 6778
1797 2889
1797 3181
1797 3365
1797 3941
1797 4884
1797 6339
1797 8484
1797 8643
1797 13273
1797 16792
1797 17039
1797 17874
1797 19405
1797 19897
1797 20466
1797 22057
1798 3952
1798 10427
1798 18363
1798 21039
1799 4342
1799 12484
1799 18369
1800 3368
1800 17284
1800 19279
1800 20756
1800 21023
1801 5596
1801 7654
1801 8724
1801 12146
1801 16053
1801 18656
1802 7659
1802 9379
1802 10260
1802 11229
1802 12332
1802 13765
1802 15340
1802 15540
1802 15781
1802 16919
1802 19621
1802 21795
1802 22307
1803 10558
1803 13314
1803 21137
1803 21402
1804 4057
1804 4061
1804 14881
1804 21208
1805 15310
1805 21389
1805 22653
1805 23282
1806 6917
1806 14472
1806 19121
1806 20480
1806 20709
1807 2336
1807 5526
1807 8835
1807 17305
1808 6861
1808 14012
1808 14261
1809 9038
1809 19797
1809 21004
1809 22796
1810 3112
1810 6054
1810 8325
1810 11054
1810 18655
1810 23151
1810 23668
1810 24230
1810 24432
1811 12287
1811 20214
1811 23886
1812 1920
1812 4164
1812 6716
1812 7090
1812 9009
1812 10020
1812 15580
1813 9157
1813 12549
1813 20045
1813 21423
1814 3192
1814 11988
1814 13258
1814 15329
1814 21077
1815 4216
1815 4850
1815 5062
1815 16934
1815 21117
1816 2766
1816 9043
1817 8387
1817 12897
1817 15818
1817 21181
1818 10935
1818 13660
1818 20862
1819 6922
1819 18189
1819 19350
1819 20404
1819 22551
1820 12079
1820 15145
1820 19381
1820 21437
1821 2300
1821 2972
1821 22707
1822 6046
1822 17747
1822 20831
1822 22887
1823 6137
1823 6523
1823 10737
1823 12049
1824 2758
1824 5105
1824 7262
1824 10169
1824 12640
1824 19953
1825 4364
1825 23346
1825 24355
1825 24447
1825 24450
1826 4608
1826 6230
1826 7975
1826 8539
1826 16283
1826 20435
1826 23317
1827 4208
1827 15975
1827 17946
1827 19757
1827 20996
1827 21089
1828 4384
1828 15988
1828 18379
1828 22943
1829 2475
1829 4195
1829 6176
1829 7525
1829 10631
1829 16531
1830 3008
1830 10426
1830 12560
1830 15700
1831 2805
1832 11583
1833 4802
1833 6755
1833 10083
1833 14247
1834 11800
1834 19642
1834 22488
1835 8328
1835 20675
1836 4112
1836 4293
1836 8134
1836 11297
1837 5438
1837 10344
1837 15170
1837 20112
1838 2116
1838 5933
1838 8918
1838 9932
1838 11244
1838 11311
1838 12226
1838 14916
1838 15384
1838 15764
1838 16567
1838 17065
1838 17207
1838 17417
1838 19839
1838 20106
1838 23544
1839 11373
1839 20303
1840 2019
1840 2226
1840 23568
1841 1891
1841 1892
1841 6048
1841 20122
1842 2506
1842 5556
1842 5734
1842 11612
1842 22014
1842 23865
1842 24067
1843 11357
1843 18286
1843 18375
1843 18998
1844 2212
1844 13199
1844 18524
1844 19661
1845 7117
1845 10245
1845 10571
1846 5340
1846 15350
1846 18962
1847 5363
1847 6978
1847 9183
1847 22846
1847 23917
1847 23939
1848 12575
1848 16546
1848 19014
1848 20340
1849 3487
1849 15957
1849 16360
1849 20729
1849 20964
1850 14931
1850 15716
1850 24299
1851 19570
1851 21142
1851 22472
1852 2566
1852 2584
1852 9458
1852 9917
1852 16921
1853 11485
1853 16996
1853 17236
1853 18048
1853 20301
1854 16798
1854 17735
1854 21156
1855 3312
1855 6297
1855 12490
1855 13956
1855 16512
1855 22164
1856 6407
1856 8017
1856 14833
1856 15350
1857 8186
1857 9102
1857 10349
1857 11290
1857 11429
1857 12552
1858 4109
1858 12737
1858 12892
1858 19122
1858 22297
1859 1870
1859 4452
1859 4494
1859 4701
1859 10132
1859 12897
1860 3119
1860 5774
1860 12733
1860 13299
1861 5442
1861 11416
1861 12537
1861 16390
1861 17422
1861 18416
1862 4050
1862 7623
1862 12549
1862 19970
1862 22465
1863 9500
1863 19158
1863 19631
1863 21241
1863 23020
1864 11772
1864 20988
1865 2948
1865 3190
1865 4290
1865 4291
1865 8708
1865 9536
1865 9897
1865 11135
1865 23621
1866 13434
1866 21959
1867 6265
1867 8959
1867 8995
1867 14204
1867 16260
1868 4075
1868 6070
1868 9241
1868 9279
1868 14613
1868 17226
1868 19029
1868 20992
1868 22024
1868 22178
1869 2814
1869 3411
1869 6617
1869 8500
1869 12442
1869 13388
1869 16008
1869 22679
1869 23828
1870 2119
1870 3131
1870 3196
1870 3245
1870 3289
1870 3704
1870 4038
1870 4701
1870 4725
1870 5296
1870 5433
1870 5847
1870 5873
1870 6097
1870 6151
1870 6247
1870 6754
1870 6784
1870 6968
1870 7345
1870 7710
1870 7868
1870 7942
1870 8292
1870 8387
1870 9223
1870 9611
1870 9926
1870 9945
1870 10116
1870 10412
1870 10708
1870 11088
1870 11817
1870 12046
1870 12897
1870 12938
1870 13295
1870 13607
1870 14334
1870 14458
1870 15449
1870 15818
1870 16005
1870 16303
1870 16770
1870 17174
1870 17231
1870 17247
1870 17885
1870 18231
1870 18567
1870 18960
1870 19003
1870 19357
1870 19875
1870 20383
1870 20559
1870 20671
1870 20682
1870 21025
1870 21119
1870 21181
1870 21226
1870 21392
1870 21546
1870 21823
1870 22303
1870 22351
1870 22698
1870 22716
1870 22885
1870 23084
1870 23574
1870 23836
1871 7508
1871 9557
1871 13689
1871 14659
1871 19328
1872 7191
1872 7496
1872 8342
1872 9252
1872 15291
1872 22267
1872 23650
1873 2608
1873 3668
1873 4302
1873 6328
1873 6795
1873 7099
1873 7802
1873 8015
1873 10159
1873 11221
1873 11624
1873 11688
1873 11867
1873 15022
1873 17051
1873 20812
1873 21633
1873 23053
1874 3295
1874 4485
1874 11267
1874 12470
1874 13150
1874 17402
1875 3208
1875 13004
1875 16400
1875 18870
1876 7845
1876 15981
1877 9594
1877 10015
1877 10711
1877 21596
1877 22474
1878 7641
1878 9496
1878 12615
1878 23870
1879 5469
1879 6441
1879 18465
1879 20608
1879 23402
1880 4564
1880 11906
1880 19201
1880 20002
1880 21108
1881 3865
1881 10654
1881 11538
1881 16216
1881 16463
1881 18639
1881 23462
1881 23717
1881 24039
1881 24300
1882 23871
1882 23910
1882 23977
1883 2868
1883 6197
1883 6683
1883 15710
1883 17075
1883 23229
1883 23335
1884 6404
1884 6405
1884 19190
1884 20227
1884 23678
1885 9518
1885 20978
1885 23967
1885 24215
1886 7004
1886 15158
1886 18419
1887 7668
1887 8170
1887 9607
1887 12976
1887 15201
1888 2094
1888 7160
1888 7166
1888 12841
1888 23362
1888 24293
1888 24396
1889 6037
1889 10678
1889 10823
1889 12632
1889 12892
1890 6268
1890 7340
1890 9771
1890 15847
1890 18684
1890 23925
1891 1892
1891 20122
1892 15961
1893 2750
1893 5518
1893 10392
1893 13587
1893 16639
1893 16993
1894 4269
1894 5391
1894 20957
1894 21786
1894 21996
1895 4135
1895 9982
1895 10729
1895 14743
1895 14909
1896 3613
1896 3614
1896 3617
1896 6706
1896 22705
1897 10485
1897 19824
1897 22904
1898 22953
1898 23648
1898 23790
1899 3409
1899 5254
1899 9281
1899 9969
1899 10428
1899 14029
1899 17471
1899 17535
1899 20676
1899 20878
1899 23411
1900 3694
1900 7461
1900 9762
1900 13295
1900 19600
1901 4236
1901 7690
1901 12102
1902 7054
1902 13158
1902 15564
1902 18082
1902 18913
1902 22335
1903 3638
1903 5820
1903 19774
1903 20774
1903 23154
1904 2100
1904 3130
1904 7915
1904 8380
1904 16722
1904 18267
1905 4188
1905 9307
1905 24112
1906 3610
1906 10593
1906 18371
1907 15817
1908 14773
1908 21145
1909 3091
1909 4263
1909 8037
1909 10742
1909 12802
1909 15192
1909 18140
1909 18318
1909 21471
1909 22949
1909 24250
1910 7523
1910 11168
1910 16097
1910 20134
1910 23308
1911 10245
1911 10571
1912 2766
1912 23940
1912 24060
1913 7965
1913 9655
1913 15715
1914 2039
1914 3134
1915 3058
1915 5061
1915 8090
1915 12367
1915 14870
1915 16246
1915 21024
1915 21859
1916 11818
1916 18771
1916 21282
1917 5198
1917 23916
1918 2993
1918 3370
1918 17911
1919 9451
1919 9798
1919 10552
1919 22485
1919 22702
1920 4164
1920 23064
1920 24335
1920 24454
1921 12047
1921 15201
1922 19353
1922 19672
1922 22798
1923 3623
1923 11905
1923 15933
1923 18126
1923 22769
1923 23322
1924 1951
1924 3188
1924 6972
1924 14011
1925 9775
1925 9928
1925 12474
1925 16532
1925 16868
1926 3186
1926 6458
1926 7187
1926 9489
1926 14831
1927 5796
1927 6834
1927 9096
1927 17857
1928 10108
1928 13118
1928 13681
1928 13815
1928 15349
1929 4126
1929 7588
1929 10567
1929 18732
1930 2060
1930 9325
1930 14018
1930 14259
1931 7349
1931 7426
1931 17351
1931 18778
1931 19993
1931 23166
1932 7426
1932 18420
1933 2049
1933 4728
1933 12184
1933 14372
1933 16358
1933 22097
1933 22914
1934 5421
1934 9442
1934 23881
1934 24040
1935 8647
1935 11002
1935 12674
1935 23266
1936 1937
1936 12270
1936 12637
1936 13559
1936 15989
1936 18799
1936 19480
1936 21354
1936 23247
1936 23418
1937 7378
1937 11498
1937 15741
1937 15989
1937 18799
1937 19480
1937 23247
1937 23418
1938 2018
1938 3848
1938 13396
1938 20000
1939 8486
1939 8575
1939 14738
1939 15488
1939 16181
1939 17824
1939 18005
1939 20751
1939 21765
1939 21986
1939 22217
1939 23077
1940 10541
1940 12212
1940 17278
1940 17514
1940 22976
1941 8673
1941 10102
1941 14104
1941 18804
1942 6258
1942 17538
1942 18133
1942 21370
1942 24066
1943 3502
1943 5014
1943 11197
1943 16697
1943 17043
1943 17987
1943 19534
1943 20009
1943 21121
1943 22580
1944 7087
1944 9336
1944 11063
1944 17931
1944 21063
1944 23781
1945 2261
1945 2344
1945 14283
1945 15505
1946 4541
1946 5598
1946 13544
1946 13949
1946 14377
1946 17970
1946 19960
1946 22281
1946 23284
1946 23526
1947 1948
1947 7088
1947 13220
1948 13220
1948 19531
1949 2517
1949 5523
1949 7326
1949 7367
1949 15607
1950 14692
1950 15108
1950 20796
1951 3188
1951 6727
1951 6972
1951 9708
1951 16230
1951 16491
1951 16826
1951 17697
1951 18518
1951 19440
1951 21404
1952 2720
1952 5121
1952 8103
1952 8221
1953 12871
1953 14437
1953 15473
1953 17018
1953 23022
1953 23304
1953 23429
1954 3405
1954 10148
1954 10940
1954 14688
1954 15679
1954 17286
1954 22557
1955 6613
1955 6698
1955 21970
1956 2671
1956 3318
1956 3778
1956 13310
1956 18072
1957 3898
1957 8458
1957 15490
1958 3814
1958 7224
1958 10571
1958 22904
1959 5197
1959 6493
1959 18631
1959 20718
1959 22365
1960 5553
1960 12120
1960 14940
1961 8547
1961 10281
1961 12225
1961 21948
1961 23162
1962 2223
1962 10921
1962 13317
1962 22942
1963 6333
1963 6378
1963 23870
1964 6650
1964 12716
1965 2338
1965 17449
1965 18975
1965 19091
1965 20364
1966 3397
1966 11513
1966 14933
1966 19907
1966 22913
1967 5428
1967 5702
1967 16302
1968 9975
1968 15240
1968 15650
1969 11769
1969 17818
1969 21714
1969 21722
1969 23843
1970 4380
1970 7450
1970 8041
1970 9485
1970 11475
1970 11681
1970 12272
1970 14361
1970 17047
1970 17157
1970 18024
1970 18027
1970 19333
1970 23428
1971 7143
1971 8062
1971 10180
1971 15305
1971 19015
1972 2363
1972 2999
1972 9953
1973 5025
1973 5710
1973 16248
1974 5651
1974 5882
1974 17201
1975 4485
1975 7446
1975 7875
1975 16001
1976 6159
1976 23839
1977 4619
1977 10142
1977 14368
1978 2518
1978 3959
1978 5578
1978 11157
1978 13479
1978 13509
1978 14318
1978 16224
1978 21401
1978 23126
1979 3758
1979 7582
1979 20377
1980 2530
1980 18372
1980 22428
1981 3697
1981 7051
1981 11836
1981 21351
1982 2766
1982 23940
1982 24422
1983 13767
1983 19671
1983 20865
1984 6067
1984 8290
1984 9543
1984 13122
1984 22138
1985 14462
1985 15789
1985 16894
1985 19353
1986 3552
1986 4043
1986 9870
1986 10890
1986 13448
1987 5393
1987 5893
1987 10897
1987 19041
1987 22055
1988 3935
1988 8606
1989 4333
1989 5543
1990 11549
1990 12678
1990 20628
1990 22945
1990 22962
1991 3516
1991 3517
1991 11025
1991 19169
1991 23139
1992 4592
1992 4593
1992 4594
1992 5383
1992 11626
1992 14571
1992 20856
1992 23338
1993 4592
1993 20856
1994 13549
1994 13907
1995 15445
1995 16407
1995 19022
1996 3934
1996 5870
1996 8767
1996 11709
1996 14040
1996 15078
1996 15903
1996 17112
1996 18004
1996 18534
1996 19146
1996 19674
1997 10761
1997 18388
1997 19252
1997 22415
1998 5945
1998 6301
1998 7139
1998 7227
1998 7654
1998 12146
1999 7667
1999 8615
1999 20411
1999 21407
1999 21681
2000 3046
2000 3047
2000 6919
2000 7863
2000 9993
2000 14587
2000 15797
2000 16255
2000 17008
2000 18256
2000 21123
2000 23621
2001 2832
2001 6458
2001 7187
2001 9489
2001 14831
2002 3541
2002 6293
2002 14643
2003 7646
2003 7873
2003 18001
2003 23072
2003 23214
2004 3776
2004 9784
2004 11186
2004 14186
2004 14816
2004 16469
2004 17999
2004 18269
2004 18302
2004 18407
2004 19207
2004 20619
2005 3340
2005 8458
2005 13879
2006 5063
2006 5340
2006 18962
2007 2926
2007 5150
2007 9004
2007 10465
2007 14122
2007 16858
2007 18491
2007 18499
2007 18617
2007 19301
2007 19429
2007 19790
2007 20639
2007 21013
2007 21446
2007 23500
2008 10685
2008 16358
2008 22914
2009 4969
2009 5297
2009 5995
2009 6357
2009 6516
2009 7680
2009 9882
2009 10458
2009 11169
2009 11445
2009 14360
2009 15383
2009 16235
2009 17006
2009 17035
2009 17116
2009 17168
2009 17657
2009 18266
2009 19088
2009 20151
2009 22451
2009 23483
2010 13221
2011 10021
2011 24383
2011 24409
2011 24473
2012 12864
2012 13623
2013 10489
2013 20302
2013 22069
2014 5865
2014 7202
2014 8388
2014 9878
2014 11659
2014 12745
2015 5376
2015 14451
2016 2965
2016 2978
2016 4528
2016 5814
2016 7750
2016 8250
2016 9186
2016 9787
2016 11945
2016 12468
2016 15576
2016 16824
2016 17569
2016 21484
2016 23306
2016 23326
2017 5932
2017 6840
2017 18958
2018 13270
2018 20000
2019 8141
2019 23568
2020 12159
2020 14349
2020 21728
2021 2817
2021 3478
2021 6642
2021 9202
2021 13749
2021 16263
2021 16264
2021 16282
2021 17104
2021 18580
2021 19646
2021 19759
2021 20430
2021 22427
2021 22455
2021 23096
2021 23300
2022 3631
2022 6524
2022 8042
2022 11589
2022 15346
2022 17023
2022 18846
2023 2751
2023 3034
2023 4739
2023 9084
2023 10051
2023 13880
2024 2865
2024 7397
2024 12438
2024 12439
2024 14138
2024 22763
2024 22880
2025 5464
2025 9776
2025 14127
2025 16921
2026 3637
2026 7048
2026 19997
2027 5344
2027 6399
2027 7310
2027 9517
2027 13053
2027 13438
2027 13439
2027 15815
2027 23694
2027 23888
2028 4886
2028 7149
2028 24067
2029 11935
2029 14141
2030 3364
2030 3381
2031 8026
2031 8800
2031 21593
2031 21614
2032 6373
2032 8505
2032 15567
2032 16575
2032 17038
2033 9050
2033 23714
2033 23918
2033 24251
2034 12722
2034 15868
2034 19151
2034 22246
2035 2529
2035 5760
2035 12424
2035 15724
2035 18337
2035 22879
2036 4293
2036 9626
2036 12551
2036 24452
2037 3720
2037 11255
2037 11535
2037 12255
2037 13403
2037 19583
2037 20833
2038 7515
2038 8223
2038 8531
2038 20591
2038 22777
2039 5387
2039 13374
2040 8554
2040 19318
2041 5034
2041 5811
2041 9741
2041 20794
2042 2565
2042 2623
2042 4377
2042 6359
2042 6547
2042 7647
2042 7676
2042 8050
2042 8052
2042 8834
2042 9938
2042 9983
2042 10324
2042 11908
2042 14942
2042 23978
2042 24212
2043 7389
2043 13827
2043 14737
2043 14784
2043 16995
2044 19923
2045 7042
2045 12185
2045 21698
2045 22732
2046 16558
2046 22568
2046 23144
2047 3285
2047 5425
2047 6070
2047 8522
2047 10747
2047 14206
2047 14531
2048 2148
2048 4395
2048 17639
2049 12816
2049 22914
2050 7433
2050 8580
2050 10266
2050 10338
2050 11344
2050 12353
2050 13525
2050 15420
2051 9959
2051 15121
2051 16819
2051 19418
2051 19834
2052 4541
2052 5598
2052 8919
2052 14377
2053 5067
2053 5708
2053 24403
2053 24485
2054 2506
2054 6491
2054 6492
2054 10407
2054 15321
2054 22699
2054 24362
2055 4550
2055 19040
2055 20866
2056 2465
2056 3980
2056 4765
2056 6695
2056 7283
2056 8862
2056 8987
2056 12634
2056 13106
2056 18476
2057 3550
2057 5018
2058 5799
2058 7016
2058 8802
2058 11550
2058 12245
2058 17725
2058 18990
2058 23885
2058 24204
2059 9323
2059 10853
2059 18644
2059 20660
2059 20746
2060 14018
2060 14259
2060 15350
2061 3230
2061 7788
2061 11802
2061 21592
2062 4348
2062 5769
2062 6944
2062 9548
2062 11142
2062 14254
2062 14751
2062 17995
2062 18689
2062 19224
2062 22340
2062 23394
2063 2969
2063 7721
2063 12017
2063 12018
2064 4224
2064 7986
2064 8335
2064 12767
2064 17531
2065 5989
2065 20459
2066 2650
2066 6721
2066 11124
2066 14416
2066 16357
2066 19540
2067 8953
2067 17091
2067 19274
2067 20284
2067 21375
2068 16939
2069 2581
2069 5447
2069 12512
2069 21056
2069 22587
2070 3801
2070 5892
2070 19569
2071 5063
2071 18962
2072 3637
2072 7048
2072 19997
2073 6043
2073 11582
2073 14898
2073 14899
2073 16684
2073 16685
2073 16688
2073 16696
2073 23134
2074 2383
2074 3926
2074 7156
2074 10720
2074 14989
2074 15967
2074 20146
2074 20766
2074 21048
2074 21589
2074 23094
2074 23670
2074 23697
2074 23895
2075 4656
2075 5045
2075 10687
2075 17866
2075 22692
2076 10674
2077 5953
2077 10167
2077 11459
2077 16368
2077 18586
2077 20363
2078 3678
2078 4131
2078 4916
2078 8330
2078 8789
2078 17522
2078 20213
2078 23388
2079 7898
2079 8778
2079 10812
2079 11895
2079 17816
2080 4285
2080 8100
2080 16486
2080 17243
2080 22239
2081 5209
2081 19477
2081 21224
2081 22209
2082 10983
2082 13747
2082 21191
2083 4459
2083 12803
2083 23529
2083 24407
2084 6691
2084 7111
2084 14164
2084 20334
2084 23384
2085 2331
2085 12532
2085 17416
2085 20349
2085 20802
2086 6590
2086 8621
2086 10492
2086 14507
2086 17600
2087 7370
2087 14807
2087 17427
2087 17450
2087 21384
2088 7936
2088 8595
2088 13257
2088 17714
2088 19337
2089 4448
2089 11591
2089 12238
2089 13799
2090 4215
2090 8070
2090 8135
2090 14847
2091 2095
2091 7167
2091 24262
2092 2094
2092 7160
2092 7164
2092 7167
2092 7168
2093 4033
2093 4750
2093 4882
2093 9739
2093 10242
2093 13184
2093 13206
2093 14098
2093 14235
2093 14390
2093 15694
2093 20890
2093 24003
2093 24395
2094 7164
2094 19276
2094 24262
2095 5813
2095 7165
2095 7168
2096 3061
2096 8169
2096 8561
2096 10388
2096 20167
2097 5328
2097 18286
2097 23100
2098 11439
2098 11565
2098 21117
2098 23970
2099 4015
2099 10303
2099 14957
2099 16853
2099 18334
2100 3130
2100 7915
2100 16722
2100 18267
2101 6998
2101 14261
2102 7579
2102 9233
2102 9345
2102 10096
2102 11479
2102 11933
2102 11989
2102 15303
2102 16503
2103 8301
2103 23778
2104 2286
2104 2935
2104 11752
2104 14420
2104 19685
2104 21111
2105 3825
2105 15446
2105 20922
2106 7482
2106 22633
2107 2209
2107 7375
2107 22419
2108 2719
2108 6864
2108 7570
2108 17423
2108 18668
2108 23786
2108 24369
2109 4446
2109 10521
2109 10736
2109 21681
2110 4243
2110 6473
2110 14565
2110 16245
2111 2845
2111 12957
2111 21074
2112 2896
2112 8030
2112 15587
2113 5229
2113 14855
2113 20499
2114 2949
2114 8604
2114 8817
2114 11703
2115 5211
2115 12383
2115 16354
2116 4845
2116 5933
2117 9674
2117 10121
2117 14038
2117 15601
2118 5380
2118 9339
2118 22132
2119 8387
2119 12897
2119 21181
2119 22885
2120 10976
2120 12307
2120 12999
2120 17332
2120 20154
2120 20758
2121 9581
2122 3279
2122 14496
2122 16805
2122 17472
2122 22315
2123 5063
2123 20770
2124 3281
2124 3448
2124 9474
2124 9861
2125 4069
2125 14336
2125 16647
2125 18761
2125 20938
2126 3639
2126 15928
2126 18241
2127 4610
2127 9134
2127 13814
2127 14780
2127 16896
2128 13476
2128 19158
2128 19877
2128 20175
2129 2130
2129 18596
2129 19885
2129 20614
2129 22194
2129 22438
2130 19883
2131 13335
2131 18676
2132 3241
2132 11643
2132 12252
2132 23066
2132 23750
2133 5328
2133 6388
2133 18998
2134 3044
2134 6348
2134 7428
2134 15605
2134 23217
2135 6166
2135 11189
2135 13381
2135 22991
2136 2423
2136 3288
2136 3510
2136 8776
2136 15666
2136 15731
2136 17922
2136 22358
2137 2256
2137 3168
2137 5381
2137 13183
2137 15172
2137 23591
2138 2204
2138 7876
2138 20634
2138 23412
2139 20634
2140 7808
2140 10285
2140 15659
2140 20413
2141 5869
2141 7837
2141 9035
2141 16867
2141 21693
2142 8037
2142 15192
2142 18318
2142 22419
2142 24074
2142 24250
2142 24441
2143 17932
2143 24149
2143 24343
2143 24360
2144 2198
2144 6779
2144 8677
2144 9011
2144 18123
2144 22179
2145 4303
2145 5130
2145 5622
2145 6471
2145 6535
2145 7222
2145 7296
2145 7367
2145 8045
2145 8248
2145 8917
2145 10493
2145 12488
2145 14017
2145 15211
2145 15983
2145 16281
2145 17677
2145 20008
2145 20200
2145 20362
2145 21359
2145 21447
2145 22489
2145 22631
2145 23337
2146 2517
2146 5523
2146 5727
2146 14324
2147 4625
2147 8712
2147 19576
2147 21556
2147 21614
2148 2306
2148 3390
2148 4395
2148 4797
2148 6854
2148 7400
2148 10710
2148 14884
2148 18692
2148 21254
2148 23754
2149 6942
2149 11335
2149 11427
2149 12024
2149 12833
2149 17059
2149 17656
2149 18367
2149 20782
2149 22566
2150 5059
2150 10893
2150 18998
2152 9285
2152 12027
2152 19931
2152 20098
2153 2977
2153 21673
2154 2756
2154 3711
2154 5258
2154 12251
2154 16320
2154 22111
2154 23209
2154 23305
2154 23632
2154 24408
2155 4686
2155 16328
2155 16394
2156 8394
2156 10418
2156 23235
2156 23912
2157 10418
2157 23912
2157 24154
2158 8359
2158 13211
2158 13547
2158 15774
2158 18074
2158 18842
2158 19153
2158 21637
2159 8085
2159 15053
2159 19418
2159 23424
2160 4638
2160 6675
2160 8923
2160 17107
2161 2306
2161 4496
2161 5501
2161 16622
2161 17637
2161 18455
2161 19140
2161 20046
2161 22231
2161 23038
2162 5226
2162 13171
2162 14986
2162 17544
2163 7291
2163 22028
2164 2680
2164 12896
2164 14267
2165 5554
2165 5969
2165 9369
2165 11841
2165 11850
2165 19991
2166 5125
2166 11366
2167 5501
2167 6537
2167 8366
2168 15240
2168 15269
2168 15615
2169 14715
2170 2380
2170 5056
2170 21865
2171 2759
2171 3745
2171 17937
2171 22597
2172 4352
2172 5191
2172 5317
2172 12987
2172 17756
2172 18071
2173 10419
2173 15864
2173 24009
2173 24158
2174 8775
2174 11888
2174 23378
2175 7081
2175 13384
2175 15931
2175 19830
2175 22864
2175 22876
2176 3272
2176 5796
2176 7972
2177 7237
2177 10075
2177 10196
2177 17992
2178 18967
2179 7217
2179 14867
2179 14869
2179 15368
2180 10630
2180 14869
2180 14871
2181 2308
2181 3031
2181 6494
2181 11451
2181 12787
2181 21500
2182 12748
2182 14792
2182 16188
2182 17265
2182 19857
2182 20745
2182 23135
2182 23367
2182 23694
2182 24006
2182 24132
2182 24275
2182 24430
2183 5772
2183 17120
2183 17136
2183 18859
2184 3948
2184 19022
2185 2221
2185 3752
2185 5086
2185 21604
2185 23505
2186 6101
2186 7430
2186 9481
2186 12136
2186 18044
2187 6300
2188 2618
2188 5809
2188 7548
2188 8297
2188 9573
2188 10899
2188 12736
2188 20126
2188 21322
2189 2993
2189 3370
2189 13296
2189 17124
2190 7829
2190 9645
2190 9774
2190 12839
2190 13390
2190 15063
2190 16150
2190 17089
2190 18887
2190 19394
2190 20470
2190 20553
2190 20908
2190 21828
2190 22162
2190 22541
2191 3239
2191 12303
2192 3336
2192 22053
2193 12570
2193 16738
2194 2604
2194 3343
2194 6833
2194 9970
2194 13898
2194 14409
2194 15444
2194 16613
2194 19519
2195 3750
2195 19134
2195 22784
2196 4130
2196 4575
2196 9310
2196 9388
2196 18498
2197 2858
2197 6073
2197 8853
2197 13111
2197 18177
2198 8656
2198 20845
2199 5012
2199 12502
2199 13302
2199 18415
2199 20266
2200 6778
2200 12803
2200 12824
2200 23274
2200 24326
2201 4307
2201 18861
2202 11655
2202 14553
2202 22543
2203 2317
2203 11467
2203 18543
2203 22193
2203 23098
2204 23412
2205 3282
2205 6653
2205 10671
2205 11758
2206 11700
2206 23881
2206 23893
2207 4289
2207 23854
2207 24345
2208 3636
2208 8593
2208 10435
2208 16444
2208 16445
2209 3538
2209 4211
2209 5389
2209 11063
2209 12624
2209 15219
2209 16376
2209 19701
2209 19810
2209 20931
2209 22419
2209 22498
2209 23127
2209 23746
2209 23747
2210 5553
2210 11619
2210 15648
2210 17642
2211 5794
2211 17989
2212 4104
2212 5271
2212 7481
2212 8321
2212 8710
2212 9722
2212 10056
2212 11660
2212 13199
2212 17269
2212 17573
2212 19661
2212 21689
2212 21870
2212 23186
2213 7194
2213 8148
2213 9217
2213 9218
2213 11091
2213 11399
2213 13694
2213 15865
2213 16464
2213 16845
2213 17978
2213 19828
2213 20986
2213 21928
2213 22758
2213 22951
2213 22962
2214 3943
2214 8036
2214 10217
2214 22778
2215 3613
2215 3615
2215 3616
2215 3617
2215 21238
2216 6370
2216 12814
2216 17340
2216 22092
2217 3322
2217 17020
2217 21682
2218 8262
2218 20460
2218 21703
2219 11134
2219 23854
2219 23856
2219 23954
2219 24424
2220 4166
2220 9888
2220 15496
2221 5086
2221 6964
2222 4161
2222 4483
2222 5593
2222 5810
2222 7357
2222 7664
2222 7764
2222 16566
2222 19352
2222 19638
2222 20454
2222 21266
2223 4958
2223 10921
2223 20414
2223 21357
2223 22268
2223 22942
2224 3313
2224 5143
2224 16993
2224 21995
2225 3416
2225 4353
2225 14029
2225 18317
2225 18978
2226 2299
2226 8141
2226 12370
2227 2569
2227 3240
2228 5777
2228 13099
2228 13941
2228 17913
2229 7555
2229 8151
2229 13872
2229 16165
2229 21684
2230 22889
2230 22985
2230 23362
2230 24016
2231 3902
2231 7427
2231 14380
2232 12488
2232 13567
2232 19218
2232 19236
2233 12744
2233 13454
2233 18174
2233 20761
2234 7787
2234 14247
2234 15802
2234 20541
2235 4540
2235 7000
2235 7627
2236 4322
2236 4680
2236 8515
2236 17428
2236 19171
2237 4973
2237 6605
2237 8208
2237 10715
2237 11796
2237 15597
2237 17926
2237 20217
2237 20218
2237 20708
2238 19744
2238 23331
2239 4641
2239 6383
2239 8159
2239 8687
2239 17294
2240 5328
2240 10893
2240 22287
2240 23552
2241 15033
2241 19084
2241 20925
2241 22868
2242 11213
2242 11699
2242 17616
2242 18710
2243 16110
2243 16839
2243 22225
2243 22802
2244 5048
2244 8538
2244 17334
2244 19239
2244 20210
2244 21069
2244 21368
2245 23488
2246 7203
2246 8519
2246 9375
2246 10830
2246 15657
2246 17504
2246 22790
2247 24174
2247 24188
2247 24417
2248 11204
2248 21554
2248 24490
2249 7506
2249 8301
2249 8409
2250 5581
2250 6362
2250 14692
2250 20796
2251 5916
2251 7535
2251 19811
2252 5229
2252 10034
2253 4243
2253 5842
2253 13781
2253 20967
2254 3218
2254 5231
2254 5488
2254 5675
2254 5804
2254 7637
2254 10463
2254 10739
2254 13719
2254 13748
2254 13967
2254 14602
2254 16530
2254 17633
2254 18073
2254 18675
2254 20277
2254 20648
2254 21172
2254 21974
2254 23132
2254 23219
2254 23297
2255 5774
2255 12309
2255 13519
2256 9055
2256 14066
2256 16173
2257 23028
2258 11618
2258 13055
2258 21441
2259 5387
2259 14548
2259 16098
2259 19755
2260 2285
2260 2884
2260 4022
2260 6390
2260 10967
2260 11384
2260 13287
2260 14436
2260 15993
2260 16166
2260 16496
2260 17684
2260 17991
2260 20306
2260 20488
2260 20533
2260 22910
2261 2344
2261 3951
2261 4199
2261 13533
2261 18539
2261 22210
2261 24252
2262 6636
2262 23783
2263 10501
2263 12338
2263 13033
2263 15317
2263 23271
2263 23432
2263 23932
2263 24091
2263 24162
2264 2511
2264 2628
2264 3636
2264 8804
2264 10243
2264 24009
2265 18702
2265 20006
2265 20680
2266 7758
2266 9819
2266 17025
2266 21611
2266 22716
2267 6508
2267 7561
2267 10378
2267 19063
2268 6986
2268 7963
2268 14796
2268 18776
2268 21203
2268 23514
2269 4539
2269 11555
2269 16653
2269 19888
2269 23207
2270 8423
2270 8428
2270 8429
2270 8430
2270 12163
2271 7956
2271 7959
2271 11877
2272 4347
2272 5181
2272 9950
2272 24213
2272 24347
2273 2691
2273 9719
2273 10829
2273 17681
2274 3362
2274 7625
2274 21537
2275 2441
2275 7377
2275 11757
2275 11838
2275 12828
2276 22180
2277 4308
2277 6848
2278 2882
2278 4896
2278 9094
2278 21576
2279 3050
2279 3508
2279 4956
2279 5305
2279 7534
2279 12371
2279 14945
2279 15257
2279 15876
2279 19792
2279 21625
2280 2509
2280 3946
2280 6131
2280 8916
2280 9539
2280 12873
2280 16350
2280 17707
2280 19132
2280 20253
2280 22825
2280 23255
2281 6878
2281 12316
2281 14887
2281 18810
2282 8938
2282 11580
2282 15670
2282 18831
2282 21427
2283 5537
2283 6571
2283 13910
2283 19305
2284 2342
2284 3116
2284 9426
2284 9464
2284 9502
2284 13580
2284 16162
2285 4022
2285 13502
2285 13774
2285 20306
2285 20533
2286 10882
2286 19685
2286 21111
2286 23443
2287 4964
2287 14518
2287 15751
2287 22504
2287 22770
2288 2767
2288 2785
2288 9149
2288 14520
2288 16656
2288 23365
2288 23883
2289 4893
2289 10245
2289 10571
2289 22841
2290 10571
2290 15315
2291 5004
2291 5387
2291 14400
2291 16908
2292 2571
2292 3716
2292 11405
2292 15610
2292 17606
2292 18648
2292 20653
2292 22677
2293 10829
2293 14901
2293 17681
2293 19736
2294 8615
2294 19997
2294 20463
2295 5774
2295 14641
2295 20840
2296 5275
2296 24189
2297 12099
2297 19432
2298 10872
2298 24173
2298 24458
2299 2353
2299 11402
2299 21115
2299 21938
2299 21940
2300 17929
2300 22707
2301 2526
2301 10709
2301 17418
2301 18686
2301 19648
2301 23136
2302 10639
2302 10712
2302 13155
2302 21975
2303 5177
2303 7632
2303 16788
2304 3336
2304 6294
2304 8545
2304 8889
2304 9601
2304 9651
2304 9966
2304 11666
2304 14363
2304 15515
2304 17478
2305 16462
2305 17767
2305 21700
2305 23366
2306 4395
2306 4635
2306 5631
2306 6050
2306 6355
2306 6776
2306 9277
2306 10638
2306 11052
2306 15429
2306 17637
2306 20046
2306 21228
2306 22068
2306 23050
2306 23370
2306 24295
2307 3052
2307 3450
2307 4568
2307 5253
2307 5876
2307 6320
2307 6768
2307 8357
2307 10296
2307 12154
2307 13475
2307 14736
2307 14861
2307 17778
2307 19131
2307 20044
2307 21055
2307 21092
2307 21146
2308 6494
2308 11451
2309 2784
2309 11256
2309 17935
2309 18066
2310 2684
2310 3983
2310 13546
2310 16494
2310 19024
2310 21030
2311 3182
2311 17839
2311 20885
2311 21433
2312 2987
2312 4556
2312 8020
2312 14412
2312 18604
2313 11996
2313 14282
2313 17141
2313 18307
2314 7355
2314 15156
2314 16363
2314 20894
2315 2960
2315 4197
2315 5114
2315 5208
2315 6003
2315 7726
2315 8936
2315 11105
2315 11345
2315 13131
2315 15127
2315 15337
2315 17252
2315 17264
2316 4993
2316 21556
2316 21614
2316 23489
2317 2462
2317 4281
2317 4315
2317 5757
2317 7810
2317 10160
2317 10322
2317 10472
2317 10826
2317 11450
2317 14150
2317 16673
2317 18168
2317 18814
2317 19940
2318 8487
2318 11357
2318 18998
2319 9323
2319 18644
2319 20660
2319 20746
2320 5492
2320 9501
2320 13013
2320 13179
2320 17131
2321 3138
2321 3460
2321 13037
2321 20912
2322 8894
2322 12474
2323 3026
2323 14021
2323 23862
2324 9298
2324 11311
2324 16247
2324 17207
2324 17407
2324 18677
2325 2824
2325 4402
2325 4618
2325 4893
2325 5725
2325 5878
2325 9397
2325 10439
2325 10686
2325 10915
2325 11353
2325 11982
2325 14877
2325 15351
2325 15559
2325 16081
2325 17275
2325 19105
2325 19371
2325 21280
2325 23143
2325 23369
2325 23768
2326 5221
2326 12302
2326 14142
2326 15728
2326 17346
2326 19195
2326 20121
2326 21490
2327 23765
2327 24257
2328 5142
2328 12247
2328 24213
2329 2962
2329 5142
2330 4402
2330 15351
2331 12532
2331 20349
2332 3474
2332 6242
2332 7404
2332 8133
2332 10745
2332 18423
2332 19436
2332 20502
2334 5328
2334 6388
2335 4479
2335 4483
2335 8144
2335 19564
2335 22365
2336 2548
2336 3488
2336 3698
2336 3772
2336 5168
2336 5526
2336 5637
2336 5862
2336 6250
2336 6625
2336 6969
2336 7150
2336 8675
2336 8698
2336 8752
2336 8849
2336 8899
2336 9841
2336 10688
2336 11050
2336 11910
2336 12293
2336 12548
2336 13654
2336 15464
2336 16515
2336 17088
2336 17305
2336 17950
2336 18112
2336 18546
2336 18782
2336 18872
2336 19116
2336 19900
2336 20555
2336 21945
2336 22646
2336 23283
2336 23771
2337 2543
2337 4315
2337 5757
2338 5775
2338 15171
2338 17449
2338 18975
2338 19091
2339 9296
2339 9691
2339 11214
2339 12620
2339 15293
2341 3258
2341 3607
2341 4261
2341 5874
2341 6419
2341 7743
2341 10360
2341 13149
2341 14756
2341 16386
2341 23820
2341 24254
2341 24284
2341 24401
2342 6475
2342 9426
2342 9464
2342 10772
2342 13642
2342 19485
2342 20318
2342 21542
2343 9423
2343 16323
2343 19705
2343 20171
2343 24221
2343 24222
2344 3321
2344 3951
2344 4199
2344 5029
2344 5751
2344 9374
2344 12401
2344 13533
2344 15505
2344 18539
2344 18797
2344 20874
2344 22210
2345 5328
2345 14513
2345 19923
2346 4256
2346 8905
2346 10500
2346 11149
2346 14735
2346 15254
2346 23623
2347 6417
2347 16279
2347 18246
2347 22163
2348 7266
2348 22628
2349 3986
2349 5909
2349 6950
2349 13760
2349 19393
2349 21269
2350 14511
2350 15704
2350 16242
2350 20718
2350 20850
2351 3212
2351 3524
2351 4571
2351 4796
2351 4812
2351 4848
2351 4877
2351 6836
2351 6971
2351 7317
2351 7695
2351 8190
2351 8205
2351 8855
2351 9820
2351 10018
2351 10068
2351 12715
2351 13061
2351 15744
2351 16432
2351 16968
2351 18535
2351 19096
2351 19680
2351 19765
2351 20706
2351 20771
2351 21721
2351 21810
2351 22894
2352 4419
2352 7275
2352 14136
2352 16398
2352 20238
2352 21617
2353 21115
2353 21940
2354 8528
2354 21234
2354 23138
2355 8668
2355 17228
2355 17917
2355 19820
2356 4701
2356 5847
2356 16591
2356 16969
2357 7000
2357 13181
2357 16661
2357 17871
2358 4592
2358 4678
2358 5383
2358 6262
2358 11507
2358 14231
2358 21667
2358 22875
2358 23338
2359 3702
2359 10679
2359 22986
2359 23665
2360 16963
2360 23078
2361 8753
2361 12819
2361 16407
2362 7545
2362 7895
2362 23120
2362 24088
2362 24177
2363 2999
2363 24200
2363 24246
2364 5345
2364 9215
2364 23715
2364 24117
2365 5178
2365 24074
2365 24078
2365 24393
2366 5627
2366 8181
2366 13839
2367 6428
2367 9543
2367 15247
2367 22138
2368 4147
2368 4863
2368 9401
2368 9936
2368 13913
2368 14264
2368 20800
2369 9536
2369 23922
2369 24272
2370 7815
2370 9694
2370 18918
2370 23051
2371 2876
2371 10880
2371 11780
2371 15660
2371 22153
2372 7895
2372 24013
2372 24177
2372 24271
2373 7097
2374 11514
2375 4975
2375 7827
2375 11955
2375 15238
2375 20934
2376 9038
2376 9866
2376 15944
2376 22796
2377 4168
2377 4908
2377 5859
2377 24044
2378 10059
2378 13052
2379 6415
2379 19403
2379 19961
2380 10315
2381 2610
2381 4893
2381 12101
2381 14364
2381 15288
2381 19099
2381 19648
2381 20603
2382 4550
2382 19119
2382 19120
2382 20866
2383 20146
2384 8996
2384 8997
2384 15862
2384 16889
2384 23047
2385 2397
2385 3919
2385 12007
2385 14382
2386 6719
2386 15440
2386 17270
2386 23067
2387 6868
2387 9666
2387 9667
2387 9668
2387 13882
2387 14724
2387 15565
2387 16601
2387 20495
2388 8215
2388 9628
2388 14143
2388 17001
2389 4817
2389 5344
2390 3525
2390 4712
2390 6276
2390 9010
2390 10712
2390 13155
2390 14383
2390 15727
2391 5344
2391 23069
2391 24144
2392 4817
2392 5344
2392 23069
2392 23804
2393 6236
2393 9418
2393 10499
2393 10905
2393 22727
2393 23971
2394 4749
2394 22475
2395 5096
2395 6211
2395 13861
2395 23813
2395 24078
2396 2744
2396 7450
2396 9360
2396 10611
2397 12007
2397 23946
2398 9310
2398 11456
2398 15120
2398 17292
2398 19181
2399 6303
2399 8722
2399 16625
2400 3491
2400 4133
2400 5216
2400 5422
2400 6164
2400 6618
2400 9211
2400 10137
2400 10348
2400 10361
2400 16670
2400 17543
2400 18451
2400 18971
2400 19419
2400 20739
2400 23293
2400 24266
2400 24297
2400 24316
2400 24317
2400 24324
2400 24461
2401 4552
2401 13444
2401 24099
2401 24161
2402 2553
2402 5057
2402 5058
2402 6187
2402 8414
2402 23953
2403 7374
2403 8314
2403 9272
2403 12162
2403 21818
2403 22682
2403 23875
2403 23914
2403 23984
2404 3166
2404 7506
2404 10326
2404 11205
2404 23952
2404 24082
2404 24344
2404 24478
2405 11641
2405 24225
2405 24411
2406 6199
2406 7746
2406 10451
2406 15405
2406 23981
2406 24476
2406 24480
2407 4133
2407 18330
2407 24198
2408 12258
2408 20147
2408 23810
2408 24014
2409 3056
2409 3917
2409 4586
2409 6295
2409 6486
2409 7565
2409 7610
2409 10724
2409 12057
2409 12807
2409 14658
2409 14927
2409 15817
2409 16703
2409 16935
2409 16952
2409 21458
2409 21775
2409 22747
2409 23173
2410 7447
2410 13900
2411 4854
2411 21289
2412 7732
2412 9203
2412 11231
2412 17052
2412 18858
2413 8587
2413 11633
2413 16892
2413 17869
2413 22386
2413 23501
2414 4701
2414 21929
2415 6174
2415 10607
2415 13807
2415 16056
2415 18671
2416 2977
2416 8857
2416 9300
2416 17419
2417 9776
2417 14481
2417 14816
2417 16469
2417 16658
2417 18407
2418 4449
2418 5587
2419 10245
2419 10571
2419 22841
2420 9323
2420 10853
2420 20660
2421 4098
2421 7485
2421 7557
2421 10891
2421 11967
2421 12387
2421 13918
2421 14234
2421 15736
2421 18018
2421 21849
2422 4995
2422 5174
2422 20219
2423 15731
2423 17922
2424 12176
2424 23956
2424 23972
2424 23986
2425 5177
2425 17609
2426 10950
2427 2630
2427 4274
2427 6402
2427 7519
2427 8142
2427 8387
2427 10708
2427 11396
2427 14297
2427 18667
2427 20055
2427 21025
2427 22436
2427 22885
2427 23453
2428 3880
2428 5580
2428 5685
2428 5973
2428 7009
2428 9099
2428 10750
2428 13042
2428 14198
2428 16852
2428 17384
2428 17547
2428 18359
2428 20293
2428 21061
2428 22081
2428 22675
2428 23327
2428 23524
2429 7567
2429 8754
2429 11661
2430 2845
2430 4026
2430 5530
2430 12957
2431 5015
2431 10420
2431 21186
2431 22972
2432 5315
2432 7800
2432 10596
2432 10945
2432 13854
2432 14478
2432 15080
2432 16011
2432 16270
2432 16401
2432 17557
2433 23258
2434 5577
2434 9238
2434 18252
2434 19349
2435 6178
2435 7241
2435 10462
2435 10520
2435 14994
2435 15810
2435 19021
2435 23690
2436 14734
2436 17643
2436 20204
2436 22939
2437 2646
2437 4800
2437 7752
2437 8459
2437 19592
2437 23861
2438 10864
2438 24476
2438 24488
2439 4233
2439 13391
2439 13881
2439 13977
2439 14955
2439 16814
2439 19396
2439 19664
2440 2863
2440 13067
2440 15272
2440 16343
2440 16820
2441 7377
2441 11838
2441 12828
2441 21519
2442 4194
2442 6644
2442 7719
2442 15788
2443 5652
2443 7618
2444 7883
2444 11207
2444 11482
2444 12323
2444 18183
2444 22503
2445 9613
2445 19251
2445 20469
2445 21083
2446 3329
2446 3527
2446 3596
2446 3768
2446 4420
2446 5077
2446 5310
2446 14502
2446 15180
2446 15652
2446 16326
2446 18624
2446 18786
2447 3167
2447 8365
2447 8801
2447 10297
2447 10790
2447 17700
2447 17728
2447 20835
2447 21875
2448 11188
2448 13762
2448 15525
2448 15526
2448 23486
2449 5090
2449 10526
2450 11188
2450 13761
2450 13762
2450 15525
2451 2551
2451 6958
2452 7298
2452 9372
2452 15220
2453 8826
2453 9545
2453 9564
2453 14628
2453 21040
2453 21466
2453 23499
2454 4244
2454 12750
2454 16487
2454 17532
2454 18500
2454 21072
2455 6708
2455 18168
2456 3597
2456 6321
2456 13603
2456 17267
2456 19761
2457 16650
2457 18113
2458 2607
2458 9585
2458 10886
2458 13756
2458 14585
2458 17722
2458 20858
2458 21501
2458 22188
2459 4253
2459 15650
2459 16586
2459 18433
2460 3287
2460 3852
2460 3937
2460 7124
2460 7517
2460 8145
2460 9712
2460 11483
2460 14961
2460 19298
2461 4404
2461 8528
2461 21034
2461 22311
2462 7810
2462 10322
2462 17347
2462 18168
2463 3198
2463 13354
2463 14484
2463 22296
2464 4252
2464 12609
2465 4925
2465 8717
2465 8987
2465 16665
2465 18476
2466 14512
2466 18736
2467 8266
2467 16768
2467 18632
2468 5553
2468 12120
2468 13210
2468 14940
2469 4911
2469 8083
2469 9486
2469 24026
2470 5551
2470 15073
2470 24232
2471 5452
2471 11387
2471 22454
2472 3235
2472 3551
2472 4400
2472 4841
2472 10622
2472 10623
2472 15243
2472 16177
2473 13110
2473 16956
2473 17393
2473 21560
2473 21562
2473 21563
2474 6566
2474 8853
2474 10490
2474 20490
2475 4195
2475 7831
2475 16531
2476 11074
2476 14211
2476 14588
2476 15285
2476 20763
2477 8621
2477 12981
2477 19199
2478 2764
2478 3953
2478 13954
2478 17405
2478 20999
2479 4397
2479 6543
2479 11951
2479 19517
2479 22283
2480 5289
2480 12119
2480 18387
2480 20165
2480 22559
2481 3529
2481 5903
2481 13221
2481 23405
2482 2682
2482 4707
2482 7640
2482 24166
2483 7652
2483 8006
2483 13661
2483 19655
2483 21275
2484 17765
2484 19973
2485 8554
2485 15151
2486 5274
2486 6514
2486 8720
2486 9591
2486 13908
2486 17228
2487 8410
2487 9747
2487 9875
2487 10798
2487 14653
2487 16914
2488 4178
2488 6758
2488 12751
2488 13207
2488 13487
2488 15949
2488 15994
2488 17954
2488 23518
2489 2493
2489 19990
2490 2493
2490 10515
2490 10516
2490 19990
2490 23973
2490 24099
2491 4623
2491 6357
2491 6719
2491 13834
2491 17270
2491 17657
2491 18816
2491 22465
2491 23483
2492 23667
2492 24099
2493 10516
2493 23800
2493 24099
2494 2904
2494 3595
2494 14506
2495 4543
2495 4641
2495 12099
2495 20696
2496 3087
2496 3675
2496 7226
2496 9637
2496 18520
2496 19171
2497 23258
2498 3550
2498 5018
2498 13675
2499 15538
2499 15704
2499 21894
2500 7885
2500 7952
2500 10067
2500 11690
2500 13260
2500 17517
2500 19500
2500 21558
2500 22670
2500 22672
2501 9161
2501 18014
2502 2648
2502 11980
2502 23636
2502 24154
2503 4762
2503 6628
2503 11350
2503 18146
2503 20192
2504 4659
2504 11542
2505 8705
2505 9554
2505 9801
2505 11365
2505 12464
2506 7859
2506 8930
2506 13612
2507 7268
2507 9685
2507 10390
2507 10767
2508 4069
2508 11423
2509 3946
2509 7489
2509 8916
2509 13288
2510 13669
2510 16940
2510 21113
2510 23433
2511 8153
2511 8804
2511 24009
2512 8943
2512 11503
2512 21533
2513 5205
2513 5520
2513 11164
2513 11523
2513 16588
2513 17911
2513 20503
2514 9035
2514 11014
2514 12501
2514 18933
2514 20525
2515 3083
2515 9977
2516 3228
2516 4789
2516 8026
2516 13111
2516 21505
2517 3376
2517 5727
2517 7367
2517 8543
2517 9853
2517 10362
2517 12417
2517 12973
2517 13093
2517 13112
2517 13224
2517 13395
2517 13672
2517 13840
2517 14324
2517 15392
2517 15607
2517 15983
2517 17155
2517 21472
2517 21567
2518 13479
2518 13509
2518 21401
2518 23126
2519 5177
2519 8299
2519 10565
2519 13054
2519 17609
2519 23260
2520 3120
2520 8458
2520 9560
2520 12141
2520 13879
2521 5396
2521 8390
2521 13698
2521 14495
2521 14644
2521 22540
2522 3821
2522 8282
2522 19014
2523 7127
2523 8740
2523 9170
2523 14497
2523 21721
2524 5277
2524 15178
2524 15200
2524 16735
2524 24071
2525 6201
2525 6580
2525 7858
2525 18976
2526 10709
2526 16777
2526 17418
2526 18686
2527 2886
2527 9196
2527 12801
2528 16773
2528 19554
2528 20037
2528 21380
2529 5760
2529 12424
2529 15724
2529 15739
2530 18372
2530 19869
2531 5798
2531 6930
2532 7797
2532 14120
2532 18568
2533 3667
2533 3868
2533 12025
2533 18544
2533 20747
2534 16031
2534 18563
2535 10448
2535 17096
2535 18064
2535 18631
2535 21311
2536 10445
2536 14071
2536 21614
2537 6208
2537 11880
2537 18722
2537 20513
2537 22905
2538 7190
2538 7311
2538 7591
2539 9590
2539 12139
2539 15623
2539 17058
2539 19821
2540 3627
2540 3676
2540 11265
2540 11370
2540 12405
2540 14036
2540 21101
2540 22745
2540 23423
2541 3327
2541 5635
2541 10098
2541 10245
2541 13399
2541 13734
2541 15315
2541 15533
2541 17298
2541 18651
2541 20410
2541 20538
2541 22618
2541 22696
2541 23296
2541 23587
2542 17669
2542 24000
2542 24183
2542 24437
2543 4624
2543 5846
2543 12498
2543 13606
2543 14150
2543 14347
2543 19940
2543 22041
2544 3384
2544 18220
2544 20261
2545 4934
2545 6594
2545 8800
2545 9137
2545 9514
2545 12234
2545 13319
2545 13331
2545 13526
2545 16556
2545 16901
2545 20607
2545 20655
2545 21593
2545 21614
2545 21621
2545 23250
2545 23393
2545 23456
2546 4970
2546 11787
2546 14865
2546 15203
2547 15533
2547 22696
2547 23296
2547 23587
2548 3488
2549 12824
2549 23274
2549 24326
2550 3383
2550 3804
2550 4045
2550 4066
2550 6063
2550 9600
2550 10417
2550 10618
2550 10754
2550 11066
2550 11178
2550 11732
2550 12210
2550 12500
2550 15261
2550 16300
2550 17403
2550 17821
2550 19045
2550 21543
2550 21632
2550 22591
2551 7058
2551 8055
2551 8537
2551 8604
2551 8661
2551 10571
2551 14836
2551 15157
2551 15297
2551 19227
2551 19845
2551 20096
2552 3457
2552 14156
2552 19318
2553 5057
2553 5058
2553 23862
2553 23953
2554 12079
2554 19381
2554 22290
2555 5907
2555 8483
2555 16207
2556 9569
2556 21913
2557 4011
2557 6028
2557 20943
2557 21983
2558 4433
2558 4807
2558 14713
2558 15631
2559 2561
2559 3699
2559 17080
2559 17081
2560 5088
2560 7329
2560 12927
2560 14629
2560 17424
2560 21527
2560 22708
2561 17080
2561 17081
2561 19086
2561 21456
2561 21699
2562 4806
2563 2564
2563 3706
2563 4798
2563 4804
2563 4805
2563 4806
2563 4807
2563 4808
2563 5534
2563 5980
2563 8288
2563 8845
2563 14248
2563 21378
2563 23222
2564 4798
2564 4804
2564 4807
2564 4808
2564 14248
2564 22242
2565 4852
2565 10324
2565 11908
2566 2584
2566 7342
2566 9458
2566 9917
2566 12228
2566 16921
2566 17953
2567 17640
2568 3289
2568 7557
2568 8890
2568 13918
2568 14123
2569 2719
2569 3240
2569 3243
2569 12388
2569 24063
2570 8406
2570 16382
2570 16593
2570 17132
2570 18594
2570 19463
2570 21137
2571 19611
2571 20653
2571 21488
2572 3761
2572 5501
2572 6537
2573 3832
2573 5571
2573 5572
2573 12524
2573 18478
2574 3488
2574 5526
2574 17305
2574 18782
2575 2770
2575 5526
2575 6915
2575 8835
2575 17785
2576 23892
2576 24174
2576 24188
2577 4308
2577 14512
2577 18736
2578 6551
2578 13197
2578 20234
2578 21556
2578 21614
2579 4647
2579 13292
2579 15980
2579 19027
2579 21503
2580 8882
2580 14359
2580 16959
2580 17641
2580 21163
2581 2847
2581 5447
2581 12512
2581 21056
2581 22587
2582 7203
2582 8011
2582 10830
2582 18627
2582 22461
2583 15327
2583 16374
2583 18339
2583 18608
2583 23582
2584 9458
2584 9917
2584 17101
2585 8556
2585 9819
2586 3445
2586 6256
2586 8090
2586 12003
2586 13459
2586 13635
2586 16246
2586 17214
2586 19222
2587 10766
2587 12337
2587 13020
2587 19754
2587 20898
2587 23472
2588 8136
2588 8255
2588 13168
2588 20807
2589 8187
2589 19383
2589 19569
2589 21648
2590 2812
2590 5535
2590 5564
2590 5566
2590 7978
2590 10215
2590 12070
2590 12849
2590 14251
2590 20370
2590 23047
2591 11548
2591 14643
2591 22151
2592 9858
2592 14385
2592 16618
2593 3435
2593 7151
2593 7172
2593 10644
2593 12864
2593 13057
2593 13493
2593 20825
2593 23413
2594 6688
2594 9797
2594 10336
2594 13414
2594 13473
2594 14265
2594 14997
2594 16830
2594 17813
2595 4481
2595 23362
2595 24217
2596 6378
2596 23811
2596 24017
2596 24451
2597 17898
2597 18678
2597 20069
2598 4244
2598 6444
2598 6983
2598 7624
2598 9288
2598 16487
2598 18500
2599 4906
2599 8664
2599 11671
2599 11751
2599 18217
2599 19346
2599 21518
2599 23234
2600 8790
2600 9360
2600 10426
2600 19398
2600 20719
2601 3061
2601 20167
2602 3735
2602 9671
2602 12722
2602 14080
2602 20965
2602 21084
2602 21094
2603 7845
2603 10288
2603 20743
2604 9970
2604 10217
2605 10965
2605 16193
2605 16423
2605 20653
2606 9762
2606 21025
2606 22193
2606 23098
2607 3738
2607 4700
2607 13470
2607 14230
2607 16219
2607 17300
2607 18551
2607 20631
2607 20858
2608 4302
2608 20812
2609 7016
2609 10866
2609 10867
2609 10924
2609 12245
2609 17725
2609 24204
2610 7121
2610 7920
2610 8281
2610 12835
2610 20603
2610 22960
2611 6268
2611 11147
2611 17772
2612 7383
2612 7738
2612 14114
2612 14790
2612 18329
2613 4036
2613 4509
2613 6153
2613 7094
2613 7436
2613 10637
2613 13049
2613 15997
2613 16090
2613 17328
2613 18513
2613 22859
2613 23644
2614 6876
2614 8438
2614 11999
2614 13722
2614 22183
2615 10817
2615 17374
2615 20000
2615 20117
2616 20257
2616 21397
2617 19026
2617 22196
2617 22680
2618 5809
2619 2989
2619 15802
2619 19607
2620 4310
2620 4409
2620 6384
2620 7673
2620 9630
2620 9921
2620 23023
2621 7077
2621 9241
2621 9351
2621 19029
2621 22178
2622 3239
2622 12303
2622 12709
2622 13294
2622 15453
2623 2647
2623 11908
2623 24238
2624 6855
2624 7366
2624 9162
2624 10827
2624 12945
2624 20434
2624 21241
2624 22002
2625 9569
2625 22006
2626 23174
2627 8358
2627 17260
2627 17749
2627 19206
2628 19604
2628 23982
2629 5952
2629 15399
2629 21257
2630 7519
2630 8387
2630 9342
2630 11396
2630 16135
2630 17909
2631 23878
2631 23896
2632 6169
2632 10404
2632 24147
2633 22893
2633 24024
2634 3203
2634 12355
2635 3754
2635 5320
2635 10120
2635 16312
2635 17094
2636 15068
2636 19566
2636 23189
2637 3673
2637 6305
2637 6310
2637 7528
2637 8512
2637 14272
2637 19657
2638 7759
2638 20189
2638 20771
2638 22894
2639 8644
2639 13139
2639 13868
2639 16361
2639 18945
2639 22049
2640 3989
2640 5422
2640 5818
2640 6618
2640 16670
2640 23980
2640 24253
2640 24266
2641 6631
2641 7560
2641 17150
2642 6318
2642 6333
2642 6963
2642 11292
2642 13462
2642 17076
2642 19409
2642 22523
2642 23235
2642 23735
2642 23765
2642 24211
2643 2647
2643 3163
2643 3357
2643 4007
2643 4377
2643 4852
2643 5235
2643 5299
2643 6808
2643 6900
2643 7647
2643 8834
2643 9579
2643 9983
2643 12453
2643 12800
2643 13627
2643 13943
2643 18122
2643 18956
2643 20942
2643 20944
2643 21919
2643 22845
2643 23829
2643 24304
2643 24305
2643 24333
2643 24337
2643 24338
2643 24425
2644 4293
2644 5111
2644 6212
2644 7277
2644 12551
2644 15050
2644 16073
2644 16859
2645 8642
2645 18187
2645 18268
2645 18920
2645 23354
2645 23870
2645 24032
2645 24328
2645 24446
2646 4800
2646 14246
2646 23861
2647 4343
2647 6359
2647 6547
2647 8052
2647 10964
2647 11908
2647 14942
2647 23978
2648 4721
2648 7713
2648 8600
2648 9235
2648 11664
2648 23203
2648 23421
2648 23809
2648 24064
2648 24154
2649 3765
2649 7626
2649 13597
2649 13632
2649 23375
2650 19540
2651 11942
2651 19793
2652 5656
2652 9387
2652 22347
2653 5741
2653 11425
2653 14600
2653 15041
2653 16254
2654 9754
2654 11472
2654 13080
2654 17007
2655 4985
2655 8130
2655 10161
2655 11224
2655 11636
2655 14460
2655 15152
2655 16637
2655 18399
2656 4653
2656 5417
2656 23676
2656 24124
2657 2863
2657 6481
2657 15272
2657 16210
2657 16820
2657 17033
2658 3690
2658 3857
2658 9213
2658 10383
2658 11260
2659 2770
2659 3315
2659 3836
2659 4935
2659 15351
2660 4293
2660 7212
2660 24016
2660 24134
2661 5646
2661 15639
2661 16007
2661 16928
2661 19348
2662 6133
2662 15615
2662 23440
2663 4402
2663 8857
2663 13870
2663 18166
2664 2700
2664 5001
2664 12117
2664 18474
2664 19127
2664 19850
2665 3907
2665 7794
2665 18077
2665 19731
2665 21116
2665 22992
2666 2810
2666 2924
2666 5384
2666 7529
2666 8004
2666 8420
2666 11592
2666 13059
2666 15167
2666 17963
2666 18285
2666 19921
2666 20244
2666 20447
2666 20521
2666 20703
2666 21280
2666 22634
2666 22809
2667 5798
2667 12303
2667 14486
2667 18900
2667 22053
2668 10245
2668 19590
2669 3483
2669 9386
2669 10087
2669 18508
2669 22350
2670 8040
2670 10246
2670 14196
2670 15111
2670 19272
2670 20421
2670 22772
2671 5035
2671 11127
2671 12299
2671 17105
2671 21139
2672 3564
2672 16318
2672 17959
2672 23112
2673 3269
2673 10206
2673 15583
2673 21896
2674 7291
2674 12879
2674 20697
2674 23067
2675 9782
2675 9899
2675 15612
2675 16329
2675 16619
2675 17801
2675 20647
2675 21848
2675 23450
2677 8054
2677 11670
2677 14677
2677 15308
2677 18431
2677 18852
2677 20281
2677 21628
2678 4465
2678 5113
2678 22701
2678 22757
2679 7880
2679 11191
2679 12850
2679 18653
2679 19138
2680 10498
2680 11584
2680 13304
2680 13947
2680 16000
2680 16742
2680 17022
2681 2747
2681 2920
2681 5443
2681 5525
2681 9057
2681 9496
2681 10525
2681 12060
2681 12165
2681 12613
2681 23001
2681 23559
2681 24045
2681 24079
2681 24210
2682 5443
2682 7240
2682 7537
2682 7597
2682 12060
2682 12165
2682 15309
2682 18067
2682 24045
2683 7641
2683 12649
2683 16225
2683 22408
2683 23559
2683 24079
2683 24096
2683 24150
2684 2800
2684 13546
2684 16494
2684 19024
2685 2792
2685 5436
2685 5905
2685 8825
2685 18969
2686 12870
2687 6524
2687 12591
2687 22592
2687 23431
2688 11694
2689 7854
2689 23503
2689 23881
2690 4540
2690 13181
2690 13378
2690 21316
2690 23898
2691 8866
2691 9719
2691 15100
2692 5526
2692 17305
2693 4184
2693 7051
2693 10396
2693 20087
2694 8848
2694 12145
2694 17349
2694 18413
2695 2784
2695 4484
2695 5638
2695 11379
2695 11486
2695 13488
2695 13789
2695 14886
2695 15364
2695 15786
2695 17935
2695 18034
2695 18403
2695 19748
2695 20527
2695 22872
2695 23174
2695 23600
2696 5005
2696 21548
2696 23234
2697 10608
2697 15933
2698 9422
2698 20695
2699 2716
2699 8329
2699 9950
2699 16022
2700 3490
2700 19587
2701 3756
2701 7972
2701 9096
2701 9290
2701 11683
2701 16561
2701 19051
2701 20053
2702 4328
2702 4935
2702 19997
2703 3749
2703 14804
2703 19382
2703 23155
2704 23308
2705 9329
2705 14639
2705 19601
2705 20093
2705 20638
2706 2771
2706 6966
2706 7294
2706 8658
2706 9806
2706 11872
2706 20793
2707 12303
2707 12735
2707 18188
2708 6014
2708 21551
2709 11626
2709 15278
2709 21667
2710 17646
2711 5244
2711 6510
2711 14616
2711 15023
2711 19780
2712 3791
2712 8326
2712 13051
2712 14233
2712 20439
2713 3833
2713 10065
2713 18683
2713 22740
2714 6360
2714 7977
2714 10053
2715 10245
2715 10571
2715 22064
2715 22841
2716 4185
2716 22424
2716 24190
2717 2749
2717 4158
2717 4231
2717 5406
2717 5889
2717 6035
2717 6831
2717 7581
2717 9008
2717 11041
2717 13427
2717 15181
2717 16143
2717 21106
2717 22091
2717 23294
2718 3491
2718 5719
2718 14948
2718 24288
2718 24406
2719 6864
2719 7974
2719 11995
2719 23723
2719 23786
2719 23789
2720 4937
2720 5108
2720 21880
2721 4148
2721 5435
2721 15586
2721 19025
2721 20123
2722 5290
2722 7888
2722 11921
2722 21760
2723 7038
2723 7700
2723 10290
2723 11502
2723 11505
2723 20875
2724 12562
2724 14424
2724 15347
2724 18954
2724 22984
2725 18279
2725 18326
2726 3469
2726 14999
2726 21332
2727 2729
2727 2730
2727 7835
2727 10598
2727 10938
2727 11230
2727 11665
2727 24130
2728 2729
2728 2730
2728 7835
2728 10938
2728 13032
2729 7835
2729 10598
2729 10938
2730 7835
2730 10598
2730 11230
2730 11665
2730 24130
2731 6376
2731 16659
2731 22907
2732 3850
2732 9073
2732 12357
2733 11818
2733 18299
2733 18771
2733 21663
2734 4234
2734 14405
2734 15646
2734 23337
2735 17005
2735 19447
2735 20429
2735 21964
2735 22755
2736 3490
2736 12117
2736 18474
2736 19587
2736 21659
2736 21909
2736 22466
2737 11584
2737 14267
2737 17022
2737 23123
2737 23510
2738 4537
2738 13474
2738 18345
2738 21563
2739 4832
2739 6534
2740 3146
2740 4648
2740 7377
2740 9370
2740 9869
2740 18952
2740 19446
2740 19635
2740 19995
2740 21105
2741 5856
2741 11699
2741 15750
2741 18710
2742 4981
2742 6158
2742 24282
2743 3594
2743 5999
2743 13718
2744 4018
2744 12699
2745 5783
2745 7170
2745 11622
2745 13121
2745 13208
2745 13953
2745 15755
2745 17142
2745 20090
2745 22861
2746 3657
2746 6549
2746 6997
2746 10446
2746 10917
2746 12112
2746 12254
2746 20149
2746 20961
2746 22400
2747 7640
2747 24166
2748 6358
2748 9270
2748 9271
2748 12566
2748 16018
2748 18313
2748 23617
2748 23975
2749 5889
2749 17640
2750 17337
2751 3034
2751 6606
2751 8619
2751 10051
2751 10189
2751 13880
2751 13997
2751 15921
2751 21670
2752 2929
2752 3829
2752 4672
2752 17172
2752 17273
2752 21326
2753 6266
2753 8451
2753 9805
2753 13261
2753 13996
2753 14828
2754 16425
2754 16511
2755 15730
2755 20144
2756 5258
2756 11854
2756 22111
2756 23209
2756 24408
2757 7324
2757 8437
2757 11978
2757 21528
2758 24436
2759 3745
2759 7091
2759 13717
2759 20651
2760 4234
2760 14405
2760 23337
2761 3787
2761 5213
2761 11182
2761 13267
2762 3068
2762 5089
2762 6207
2762 11404
2762 16185
2762 16851
2763 4577
2763 8782
2763 10523
2764 3251
2764 4503
2764 6223
2764 8476
2764 10670
2764 13212
2764 14956
2764 15941
2764 17405
2765 7669
2765 10608
2765 23528
2766 2895
2766 2916
2766 5607
2766 6204
2766 11953
2766 13174
2766 18615
2766 18977
2766 21213
2766 23940
2766 24060
2766 24422
2766 24448
2767 2785
2767 5096
2767 16656
2767 23933
2768 8201
2768 9210
2768 9723
2768 10810
2768 10995
2768 11892
2768 12782
2768 18577
2768 24438
2769 3422
2769 4795
2769 7146
2769 17974
2770 3836
2770 5206
2770 5515
2770 5577
2770 5862
2770 8835
2770 9790
2770 10697
2770 11695
2770 12143
2770 12322
2770 13436
2770 13614
2770 14575
2770 16992
2770 17305
2770 17785
2770 18252
2770 19349
2770 22354
2770 22490
2770 22640
2770 22926
2771 6966
2771 7294
2771 8658
2771 9836
2771 15976
2772 2933
2772 7463
2772 10342
2772 11553
2772 12281
2772 20909
2773 7578
2773 7996
2773 10568
2773 10601
2773 15555
2773 18249
2773 19427
2774 3151
2774 17554
2774 18094
2774 18548
2774 23123
2775 7888
2775 8156
2775 13166
2775 14874
2776 3397
2776 8413
2776 21009
2777 16456
2777 18312
2777 20430
2778 3021
2778 5478
2778 7003
2778 9806
2778 15824
2778 18419
2778 22601
2780 9988
2780 12734
2780 20028
2780 20032
2781 6138
2781 7646
2781 7979
2781 8824
2781 12930
2781 17460
2781 17584
2781 23031
2781 23072
2781 23447
2782 4935
2782 10567
2782 18732
2783 16563
2783 22488
2783 23054
2784 3205
2784 3867
2784 4079
2784 5110
2784 5557
2784 6570
2784 6750
2784 6811
2784 7147
2784 7276
2784 7992
2784 8691
2784 9017
2784 10105
2784 10693
2784 11256
2784 13488
2784 13515
2784 13643
2784 13789
2784 14783
2784 15364
2784 15786
2784 16949
2784 17133
2784 17311
2784 17635
2784 17935
2784 17941
2784 21853
2784 23600
2785 23912
2786 4296
2786 7551
2786 17782
2786 22643
2787 9278
2787 12452
2787 13029
2787 15129
2787 17800
2787 19189
2787 21124
2787 21520
2787 23298
2788 7984
2788 8788
2788 24428
2789 3907
2789 4988
2789 8867
2789 14725
2789 18077
2790 23637
2790 24189
2790 24239
2791 4372
2791 16615
2791 18201
2791 20845
2791 21580
2792 4538
2792 4600
2792 8269
2792 8825
2792 12264
2792 14408
2792 18969
2792 19185
2792 20969
2792 20977
2792 23588
2793 8427
2793 15017
2793 20545
2793 22998
2794 7922
2794 14697
2794 15977
2794 17833
2794 18752
2795 3701
2795 4580
2795 23964
2795 24099
2796 2908
2796 7397
2796 10730
2796 14138
2796 21730
2797 6699
2797 9834
2797 15136
2797 20345
2797 20769
2797 23178
2798 4472
2798 12726
2798 16634
2798 23004
2799 3639
2799 3841
2799 5115
2799 17899
2799 20057
2800 7439
2800 14063
2800 20468
2801 3466
2801 4541
2801 22281
2801 23284
2802 9066
2802 14419
2802 17872
2802 19393
2802 21269
2803 5197
2803 9963
2803 16194
2803 16540
2803 19564
2803 19890
2803 21270
2804 7602
2804 10013
2804 18479
2804 19678
2804 19679
2804 19950
2804 20530
2804 22038
2805 3464
2805 3897
2805 10789
2805 16815
2805 20557
2806 4188
2806 8609
2806 9190
2806 9307
2806 10311
2806 14394
2806 23336
2807 9662
2807 14278
2807 18925
2807 19866
2808 8026
2808 8800
2808 14585
2808 21593
2808 21614
2809 7731
2809 17186
2809 22955
2810 5384
2810 9300
2810 11061
2810 15167
2811 9689
2811 10034
2811 18372
2811 22722
2811 23085
2812 15641
2812 15645
2813 5294
2813 5614
2813 5827
2813 5965
2813 10413
2813 10724
2813 10950
2813 13711
2813 13746
2813 13914
2813 18028
2813 19872
2813 20229
2814 5614
2814 5827
2815 7130
2815 17411
2816 3686
2816 3687
2816 7569
2816 7721
2816 7848
2816 8481
2816 23630
2816 23936
2816 24118
2816 24120
2816 24191
2816 24192
2816 24358
2817 9202
2817 12878
2817 17014
2817 19759
2817 23096
2818 18580
2819 8306
2819 15281
2819 18580
2819 20393
2820 12066
2820 13770
2820 15281
2820 17289
2820 23159
2820 23165
2821 12274
2821 12394
2821 17595
2822 6686
2822 8299
2822 9415
2822 12065
2822 13054
2822 13090
2822 15263
2822 16534
2822 16788
2822 21215
2822 21382
2823 3833
2823 4662
2823 12740
2823 17248
2823 19722
2824 23369
2825 3948
2825 8450
2825 19022
2825 20607
2825 21753
2826 6939
2826 8544
2826 14093
2826 14545
2826 20360
2827 11849
2827 15975
2827 19757
2827 23019
2828 5668
2828 10970
2828 11027
2828 13630
2828 15163
2829 6713
2829 8096
2829 8433
2829 10278
2829 12516
2829 17019
2829 18512
2830 5496
2830 5913
2830 6920
2830 17225
2830 19506
2831 4820
2831 4984
2831 4990
2831 14773
2832 5429
2832 6255
2832 6458
2832 22305
2833 9101
2833 13913
2834 3935
2834 8606
2834 13523
2835 6379
2835 6718
2835 7311
2835 7591
2835 11346
2835 19452
2835 19690
2835 21514
2836 4756
2836 10252
2836 11137
2836 11254
2836 11309
2836 12465
2836 13829
2836 14276
2836 16317
2836 19176
2836 21171
2836 23033
2836 23598
2837 3313
2837 13883
2838 4168
2838 11444
2838 23719
2838 23952
2839 14895
2839 20568
2840 4666
2840 6042
2840 7258
2840 12449
2840 13370
2840 14402
2840 15362
2840 17335
2840 20566
2840 21807
2840 21935
2840 22804
2840 23225
2840 23369
2841 9395
2841 12722
2841 18193
2842 4120
2842 7846
2842 13965
2842 16936
2842 22152
2843 11508
2844 6624
2844 12664
2844 24382
2845 4026
2845 5530
2845 9919
2845 10330
2845 12957
2845 13185
2845 14210
2845 14375
2845 15028
2845 16010
2845 16428
2845 17678
2845 18101
2845 19955
2845 20572
2845 21074
2845 22102
2846 4262
2846 16433
2846 17459
2846 23306
2846 23326
2847 5447
2847 12512
2847 22587
2848 6528
2848 12324
2848 20258
2848 22336
2849 8736
2849 10753
2849 12232
2849 17597
2849 24239
2850 7660
2850 9192
2850 11686
2850 20248
2851 5404
2851 8465
2851 10733
2851 12021
2851 19000
2851 19777
2851 20577
2851 20818
2851 21409
2852 6719
2852 10571
2852 12348
2852 20667
2852 22904
2853 6269
2854 3964
2854 4768
2854 5919
2854 8671
2854 15275
2854 16415
2855 3096
2855 10046
2855 11383
2855 14917
2855 23878
2855 23931
2855 24310
2856 4886
2856 20100
2856 23950
2857 5055
2857 6142
2857 9112
2857 22263
2857 22903
2858 3220
2858 3480
2858 3484
2858 5349
2858 5505
2858 6073
2858 8116
2858 10164
2858 10694
2858 11571
2858 13190
2858 14795
2858 16659
2858 17955
2858 21425
2858 21614
2858 23489
2859 9243
2859 10114
2859 17212
2859 20086
2859 21767
2859 21768
2860 5331
2860 6562
2860 11019
2860 14527
2860 16580
2860 19957
2860 20565
2861 3367
2861 16715
2861 18503
2861 19558
2861 20604
2862 10893
2862 15125
2862 21394
2862 22287
2863 14157
2863 16820
2864 8458
2864 10683
2864 13879
2864 21288
2865 7397
2865 9110
2865 13955
2865 22765
2866 6472
2866 9924
2867 9761
2867 18335
2867 20665
2868 6197
2868 23335
2868 23578
2869 19791
2869 20232
2869 21695
2869 21895
2869 23341
2870 8111
2870 10287
2870 14249
2870 15649
2870 16612
2870 19805
2870 20842
2870 22881
2871 2971
2871 3389
2871 9138
2871 10272
2871 10524
2871 11623
2871 13959
2871 14555
2871 15681
2871 17910
2872 4347
2872 11563
2872 11607
2872 23637
2872 24126
2873 3381
2873 3463
2873 16994
2873 17511
2874 2959
2874 3322
2874 21766
2875 9617
2875 10593
2875 10928
2875 16552
2875 22918
2875 23459
2876 9652
2876 10880
2876 11069
2876 15251
2876 18370
2877 8872
2877 9330
2877 13392
2877 17364
2877 18662
2878 6659
2878 7386
2878 9181
2878 9686
2878 15005
2878 20981
2878 23706
2878 23868
2878 23996
2879 5505
2879 13111
2879 21614
2880 12735
2880 12943
2880 14521
2880 18886
2881 6016
2881 19729
2881 22125
2882 4500
2882 5339
2882 8651
2882 9094
2882 13600
2882 14171
2882 17425
2882 21469
2882 23334
2883 3690
2883 5890
2883 18740
2884 3981
2884 14396
2884 19935
2884 20306
2885 7179
2885 8884
2885 11303
2885 12377
2885 13730
2885 13998
2885 14745
2885 15001
2885 16626
2885 18270
2885 20274
2885 22710
2886 19835
2887 8224
2887 8519
2887 22790
2888 4117
2888 10021
2888 10211
2888 24073
2889 3941
2889 16792
2889 22741
2890 10770
2890 19728
2890 21126
2891 8232
2891 11016
2891 18578
2891 23630
2892 2894
2892 3817
2892 4722
2892 4723
2892 6788
2892 8152
2892 12179
2892 13857
2892 16891
2892 19832
2892 21246
2892 23318
2892 24350
2893 6378
2893 16321
2893 19984
2893 24179
2893 24446
2894 3817
2894 8152
2894 21246
2894 24350
2895 9043
2895 23940
2896 5161
2896 6180
2896 7592
2896 10025
2896 12890
2896 15587
2896 17993
2896 19129
2896 20138
2896 20299
2897 6835
2897 20315
2898 9672
2898 20531
2898 22344
2899 4402
2899 17815
2900 7298
2900 13184
2900 13206
2900 14235
2900 18968
2900 22819
2901 11628
2901 12826
2901 16754
2902 9703
2902 14054
2902 17077
2902 24000
2903 5223
2903 12031
2903 13126
2903 15325
2903 15915
2903 16377
2903 22314
2903 22560
2904 3085
2904 3595
2904 4002
2904 4039
2904 4230
2904 7775
2904 14201
2904 14506
2904 15011
2904 17208
2904 19166
2904 19964
2904 20369
2905 2908
2905 4591
2905 7805
2905 12437
2905 20130
2905 20131
2906 12362
2906 12979
2906 12980
2906 14681
2907 11425
2907 14600
2907 15619
2908 7950
2909 12356
2909 18286
2909 18998
2909 23100
2910 5347
2910 12035
2910 18222
2910 19575
2911 6707
2911 9789
2911 21191
2912 8312
2912 9723
2913 5505
2913 20490
2913 21007
2915 14524
2915 15010
2915 17790
2915 17896
2916 9043
2916 11953
2916 23940
2917 9536
2917 24164
2917 24427
2918 5723
2918 14477
2918 17525
2918 17896
2919 5397
2919 6438
2919 8794
2919 10860
2919 17246
2920 9057
2920 9496
2920 10109
2920 10525
2920 12613
2920 13202
2920 14707
2920 14731
2920 20994
2920 22408
2920 23559
2921 4452
2921 4494
2921 4701
2921 5160
2921 7446
2921 9061
2921 10132
2921 21929
2922 5820
2922 6732
2922 14822
2922 15459
2922 17591
2922 22537
2923 2987
2923 4556
2923 8020
2923 15690
2923 18604
2923 21239
2923 22078
2923 22690
2924 5384
2924 9300
2924 11061
2924 15167
2925 4381
2925 12697
2925 17360
2925 22127
2926 10018
2926 10465
2926 20771
2927 3793
2927 5200
2927 9587
2927 9706
2927 11457
2927 13250
2927 19030
2927 21980
2928 4402
2928 19361
2929 18467
2930 11928
2930 18481
2930 20493
2930 20663
2931 9453
2931 19855
2931 22365
2932 6707
2932 7128
2932 9568
2932 14118
2932 19555
2932 22240
2932 22576
2933 17863
2934 12652
2934 13163
2934 15567
2934 21353
2935 19685
2936 4779
2936 5351
2937 5351
2937 5352
2937 9080
2937 9723
2937 13192
2937 13437
2937 23107
2937 24419
2938 7043
2938 12557
2938 24200
2939 23557
2940 4821
2940 5380
2940 6424
2940 18190
2940 18687
2941 5687
2941 12523
2941 12943
2941 14168
2941 17858
2941 18886
2942 2980
2942 4225
2942 5957
2942 11438
2942 22161
2942 23669
2942 24163
2942 24199
2942 24225
2943 5275
2943 24475
2944 24161
2944 24475
2945 3952
2945 5966
2945 10427
2945 13785
2945 15431
2945 19856
2946 9039
2946 12076
2947 4762
2947 13964
2947 21397
2948 3043
2948 24164
2948 24427
2949 6130
2949 9576
2949 12935
2949 20145
2950 3409
2950 8322
2950 9799
2950 20396
2951 3742
2951 5011
2951 9268
2951 11894
2951 22918
2952 5807
2952 14331
2952 15514
2952 16091
2952 20636
2953 18846
2953 21655
2954 2957
2954 3148
2954 4048
2954 14882
2954 19250
2955 10558
2955 13314
2955 21402
2956 5400
2956 8598
2956 12496
2956 16177
2957 3148
2957 4048
2957 14882
2958 3501
2958 10469
2958 19611
2958 20461
2959 3322
2959 12853
2959 17212
2959 20074
2959 21244
2959 21766
2960 10305
2960 13147
2960 18390
2960 20872
2960 22156
2961 18583
2961 19232
2961 20092
2961 21603
2961 22033
2962 23822
2962 24190
2962 24249
2963 6620
2963 7115
2963 21705
2963 21851
2964 11098
2964 14641
2964 20840
2965 6234
2965 12468
2965 16824
2965 23826
2966 9866
2966 15944
2966 19797
2966 22796
2967 6418
2967 14895
2968 3143
2968 12971
2968 20882
2969 3688
2969 7721
2969 12016
2969 12018
2969 16240
2969 22794
2969 23904
2969 23936
2969 24185
2969 24194
2969 24327
2970 23312
2970 23718
2970 24246
2970 24256
2971 5831
2971 8633
2971 9138
2971 9346
2971 10272
2971 11623
2971 13959
2971 14555
2971 15244
2971 17717
2972 22707
2973 4609
2973 9890
2973 14936
2973 16812
2973 16827
2973 18906
2973 19593
2973 21414
2973 23063
2974 6034
2974 7419
2974 16191
2975 5691
2975 9082
2975 10375
2975 24037
2975 24439
2976 9629
2976 19828
2977 3311
2977 3840
2977 4023
2977 4414
2977 4467
2977 6610
2977 6638
2977 7116
2977 8194
2977 13497
2977 14140
2977 14877
2977 15753
2977 16241
2977 17419
2977 18981
2977 19913
2977 20521
2977 21673
2977 21747
2977 22006
2977 22077
2978 5154
2978 8759
2978 10927
2979 9909
2979 11152
2979 11537
2979 13092
2979 21376
2980 4347
2980 22443
2981 3800
2981 7018
2981 12925
2981 16071
2981 16493
2981 18444
2981 19628
2981 20506
2981 21150
2982 4714
2982 17216
2982 19889
2983 8592
2983 17041
2984 4747
2984 4770
2984 7401
2984 8686
2984 18991
2984 21992
2985 5576
2985 5583
2985 7766
2985 11394
2985 11944
2985 22264
2986 7532
2986 11792
2986 12713
2986 13299
2986 13894
2987 4556
2987 8020
2988 3263
2988 8339
2988 18409
2988 18410
2988 18411
2989 3158
2989 17604
2989 23067
2990 3962
2990 9160
2990 13716
2990 17615
2990 22368
2991 5914
2991 5920
2991 12327
2991 13314
2991 18745
2991 21402
2992 12530
2992 16573
2992 19966
2992 21917
2992 22501
2993 3370
2993 3530
2993 4939
2993 5205
2993 6946
2993 8950
2993 11935
2993 13282
2993 17911
2993 21512
2993 21669
2994 12514
2994 19223
2994 19392
2995 4014
2995 15707
2995 16781
2995 16942
2995 21556
2996 4813
2996 7720
2996 11672
2997 12010
2997 12011
2997 24201
2997 24202
2997 24464
2998 10501
2998 22453
2998 24162
2999 9953
2999 17644
3000 3280
3000 6720
3000 8367
3000 12089
3000 18848
3001 15856
3001 15862
3001 16886
3001 19663
3002 3534
3002 5720
3002 7161
3002 7367
3002 11934
3002 12691
3002 12880
3002 13346
3002 13974
3002 19702
3002 20853
3002 23595
3003 16076
3003 20431
3003 21443
3004 4886
3004 23899
3004 23900
3005 3882
3005 5928
3005 9364
3005 17812
3005 18366
3006 3092
3006 7709
3006 8954
3006 10970
3006 14539
3007 3722
3007 4540
3007 7000
3007 9995
3007 14657
3007 16661
3007 16704
3007 19273
3008 10426
3008 15677
3008 15700
3009 9133
3009 10655
3009 21477
3010 3075
3011 5214
3011 5215
3011 6675
3011 17400
3011 23399
3012 9491
3012 13094
3012 18250
3012 19255
3012 20186
3013 8220
3013 11415
3013 15674
3014 8387
3014 21247
3014 22211
3014 23084
3015 7619
3015 7761
3015 11804
3015 17786
3015 22334
3016 11942
3016 19793
3016 20727
3016 20951
3017 3749
3017 8878
3018 6530
3018 12989
3018 16618
3019 3151
3019 18548
3020 13656
3021 7003
3021 22601
3022 3083
3022 9977
3023 3566
3023 5902
3023 6988
3023 7014
3023 8942
3023 13189
3023 13447
3023 17106
3024 7560
3024 9457
3024 9673
3024 9957
3024 14499
3024 15034
3024 16272
3024 20990
3024 21899
3024 22597
3024 23624
3025 4315
3025 13270
3025 19110
3026 4148
3026 10912
3026 19025
3026 19441
3027 5618
3027 10190
3027 14224
3027 16749
3027 17336
3027 18124
3027 21772
3027 22457
3028 23926
3029 4587
3029 6449
3029 7335
3029 10561
3029 11807
3029 14594
3029 17385
3029 23376
3030 3922
3030 4971
3030 6608
3030 6756
3030 10560
3030 12954
3030 13457
3030 21188
3030 21245
3030 21683
3030 22260
3030 22817
3031 11451
3032 7237
3032 10196
3032 17992
3033 11154
3033 11984
3033 16269
3033 18083
3033 19782
3033 20954
3034 9084
3034 13880
3035 11362
3035 11698
3035 23779
3036 5511
3036 6360
3036 15124
3037 4942
3037 12620
3037 23490
3037 23538
3038 10418
3039 5107
3039 9824
3039 10269
3039 13992
3039 16641
3039 20050
3040 4819
3040 12535
3040 20903
3040 21951
3041 4904
3041 4989
3041 7812
3041 8266
3041 9206
3041 10113
3041 11837
3041 15236
3041 18632
3041 20580
3042 3043
3042 4287
3042 4290
3042 22870
3043 4287
3043 7300
3043 9317
3043 10024
3043 12284
3043 12451
3043 13835
3043 14269
3043 16449
3043 19457
3043 23150
3043 24180
3044 5183
3044 5184
3044 7530
3044 18279
3045 3047
3045 6917
3045 7863
3045 20820
3046 3047
3046 18256
3047 6819
3047 7247
3047 13835
3047 18256
3047 20820
3048 4139
3048 7434
3048 8514
3048 12502
3048 18415
3048 20539
3049 3296
3049 4402
3049 10586
3049 22281
3050 3437
3050 7534
3050 18725
3050 21625
3051 4839
3051 4867
3051 8368
3051 12939
3051 15748
3052 5253
3052 8357
3052 15775
3052 16190
3054 9322
3054 12941
3054 13685
3054 17015
3054 21666
3055 3061
3055 17369
3056 6295
3056 6486
3056 16952
3056 20500
3057 3733
3057 8517
3057 9745
3057 10418
3058 14870
3058 16246
3058 17214
3058 17965
3058 19994
3058 20307
3058 21859
3058 22056
3058 22709
3059 4163
3059 7626
3059 13597
3060 3157
3060 6665
3060 9168
3061 3246
3061 4213
3061 5453
3061 5506
3061 8169
3061 8561
3061 10388
3061 11199
3061 11232
3061 14469
3061 20167
3061 21366
3061 22230
3061 22532
3061 23460
3062 5652
3062 7618
3062 14733
3062 18299
3062 22123
3063 3228
3063 17147
3064 6953
3064 7657
3064 11609
3064 13673
3064 17628
3064 19467
3065 9840
3065 12904
3065 16544
3065 18851
3065 19072
3067 5372
3067 9374
3067 12043
3068 5089
3068 6207
3068 7460
3068 16851
3069 24216
3070 6361
3070 7693
3070 11832
3070 14485
3070 14777
3070 15478
3070 15479
3070 15894
3071 4402
3072 8772
3072 8775
3072 11888
3073 4527
3073 4972
3074 22097
3074 22914
3075 5157
3075 5241
3075 6274
3075 7874
3075 8495
3075 9632
3075 12743
3075 17752
3075 18910
3075 19549
3075 20556
3076 3528
3076 8078
3076 8878
3076 19382
3078 9285
3078 12027
3078 14058
3079 4856
3079 13725
3080 7496
3080 18902
3080 22267
3080 23650
3081 6301
3081 13832
3081 15969
3081 17011
3082 8738
3082 12335
3082 14111
3082 16114
3082 20172
3083 9977
3083 19289
3083 20297
3084 10866
3084 12662
3084 23921
3084 23974
3085 15485
3086 4691
3086 12516
3086 14670
3086 21257
3087 9131
3087 17428
3087 18520
3087 19171
3088 9131
3088 17428
3089 6482
3089 9707
3089 11603
3090 8263
3090 9438
3090 17092
3090 18289
3090 19659
3091 5830
3091 18984
3092 12079
3092 14366
3092 15145
3092 17969
3092 21437
3092 22290
3093 3202
3093 8653
3093 10763
3093 20101
3094 4861
3094 7622
3094 8770
3094 10919
3094 11562
3094 13253
3094 13638
3094 19332
3094 19737
3094 20755
3094 21016
3094 21702
3094 22724
3094 23088
3094 23683
3095 7533
3095 21556
3096 3546
3096 10046
3096 24310
3097 3197
3097 4427
3097 8218
3097 11202
3097 13605
3097 17421
3097 18120
3097 22212
3098 7266
3098 17355
3098 22628
3099 5692
3099 9618
3099 9619
3099 24225
3099 24391
3100 4287
3100 9536
3100 23979
3100 24272
3101 3744
3101 10265
3101 11789
3101 14437
3101 15473
3101 23022
3102 7550
3102 11815
3102 14630
3102 15614
3102 20778
3103 15063
3103 16339
3103 16911
3103 17244
3103 17523
3103 21338
3104 4319
3104 4544
3104 12202
3104 19542
3104 21641
3104 22215
3104 22325
3104 23970
3105 3345
3105 7311
3105 9062
3105 19452
3105 20726
3106 3234
3106 18766
3106 23105
3107 4149
3107 5117
3107 6319
3107 11987
3107 13178
3107 13610
3107 16933
3107 19041
3107 22473
3108 4450
3108 7663
3108 10929
3108 12999
3109 4902
3109 12746
3109 21854
3109 23508
3110 6298
3110 12759
3110 15282
3111 5679
3111 5826
3111 5849
3111 8470
3111 13011
3111 15911
3111 22944
3112 11053
3112 11054
3112 23925
3113 5256
3113 5916
3113 18006
3113 19009
3114 24032
3114 24225
3114 24312
3115 10997
3115 11141
3115 11718
3115 16990
3115 22626
3116 4485
3116 12470
3116 16162
3117 6083
3117 9174
3117 9656
3117 17077
3117 22422
3118 3426
3118 7823
3118 10328
3118 18378
3119 3681
3119 3924
3119 5546
3119 5774
3119 6382
3119 9333
3119 9685
3119 11098
3119 12631
3119 12680
3119 12733
3119 13678
3119 14362
3119 14641
3119 16610
3119 17175
3119 18021
3119 19378
3119 20840
3119 22145
3119 22442
3120 8458
3120 17887
3121 10866
3121 12650
3121 23921
3121 23974
3121 24204
3122 5820
3122 6613
3123 9431
3123 12762
3123 13146
3123 16900
3124 4244
3124 6195
3124 6444
3124 18500
3124 21072
3125 5486
3125 14609
3125 15418
3125 22036
3125 22786
3126 3416
3126 4524
3126 18317
3127 3719
3127 9211
3127 9473
3127 11397
3127 23753
3128 4204
3128 10062
3128 10996
3128 14694
3129 5690
3129 6008
3129 19554
3129 22935
3130 4532
3130 5747
3130 13415
3130 14921
3130 16722
3130 17336
3130 17358
3130 17515
3130 18267
3130 20440
3131 8387
3131 12897
3131 15818
3132 6469
3132 12266
3132 21132
3132 23172
3133 7311
3133 11861
3133 14363
3133 17687
3134 9972
3135 3895
3135 4670
3135 5765
3135 10325
3135 16982
3135 18712
3135 22160
3136 4942
3136 9453
3136 23538
3137 6907
3137 13345
3138 13037
3138 20912
3139 5283
3139 7888
3139 11921
3140 4448
3140 7474
3140 20816
3141 5511
3141 21593
3141 21614
3142 4439
3142 5628
3142 12002
3142 12004
3142 13961
3142 15338
3143 3662
3143 4476
3143 5715
3143 7098
3143 9831
3143 10595
3143 11411
3143 12971
3143 13938
3143 14291
3143 16372
3143 20137
3143 20882
3143 21399
3143 22584
3144 5788
3144 8478
3144 10935
3144 13660
3144 19454
3145 3481
3145 6493
3145 16804
3146 14092
3148 4048
3148 4058
3148 6689
3148 14882
3148 19250
3149 11633
3149 17869
3149 19952
3149 23501
3150 9645
3150 15063
3150 19394
3151 4119
3151 4411
3151 9042
3151 9312
3151 12207
3151 15214
3151 17554
3151 22683
3152 5807
3152 15514
3152 20636
3153 11776
3153 13072
3153 21003
3153 23478
3154 8026
3154 14585
3154 21593
3155 8098
3155 12837
3155 18995
3155 24186
3156 14900
3156 14906
3156 22128
3157 4780
3157 5123
3157 6665
3157 8756
3157 9168
3157 10295
3157 12200
3157 13003
3157 13793
3157 16305
3157 18182
3157 18623
3157 18693
3157 19069
3157 22414
3158 5756
3158 6719
3158 7109
3158 9580
3158 10128
3158 10731
3158 17270
3158 23067
3159 3598
3159 5188
3159 6437
3159 6585
3159 9707
3159 9855
3159 10531
3159 10534
3159 10592
3159 11856
3159 14053
3159 14268
3159 15880
3160 6460
3160 15053
3160 22221
3161 10447
3161 12055
3161 12161
3161 14192
3161 21295
3162 7724
3162 11642
3162 14474
3162 18884
3162 20423
3162 22244
3162 23365
3163 23960
3163 24338
3164 9018
3164 15315
3165 6912
3165 12919
3166 5240
3166 6318
3166 23999
3167 8365
3167 20835
3168 9505
3168 23591
3169 6114
3169 24136
3169 24286
3170 8082
3170 18372
3170 20989
3171 5220
3171 5840
3171 5897
3171 6731
3171 8885
3171 8984
3171 9259
3171 9625
3171 10658
3171 13492
3171 15662
3171 21734
3171 22988
3172 4402
3173 19172
3173 19173
3173 19530
3174 5646
3174 13434
3174 16928
3174 18033
3175 12776
3175 17064
3175 20156
3176 5665
3177 5015
3177 6729
3177 22972
3178 8692
3178 11375
3178 21937
3178 22622
3179 6810
3179 14181
3179 14704
3179 15984
3179 18809
3180 14511
3180 20718
3181 3365
3181 13273
3181 22057
3181 22741
3182 21433
3183 7423
3183 14842
3183 18957
3184 6032
3184 7620
3184 8348
3184 13369
3184 17382
3184 17847
3184 18758
3184 19548
3184 20492
3184 21833
3185 11078
3185 17176
3186 4240
3186 6458
3186 11706
3186 12834
3187 7845
3187 10288
3187 10533
3187 20743
3188 14011
3188 16826
3188 17697
3188 20041
3188 20398
3188 21404
3189 7291
3189 12879
3190 23720
3190 24164
3190 24427
3191 3834
3191 7269
3191 8791
3191 18151
3191 18739
3191 21184
3192 12121
3192 14220
3192 14715
3193 10558
3193 11514
3193 13314
3193 21137
3193 21402
3194 3403
3194 17287
3194 20209
3194 21415
3195 17369
3195 22230
3196 3428
3196 8387
3197 8218
3197 17421
3197 22212
3198 4282
3198 4487
3198 4715
3198 5223
3198 6450
3198 6678
3198 7554
3198 10956
3198 13321
3198 13354
3198 13912
3198 14484
3198 21706
3198 23046
3199 9652
3199 10880
3199 15251
3199 18370
3200 5667
3200 8091
3200 11555
3200 16653
3201 23792
3201 23943
3201 23990
3201 24397
3201 24420
3202 8653
3202 10763
3202 11424
3202 17375
3202 20101
3202 21148
3203 12355
3203 13486
3204 12779
3204 14536
3204 22917
3204 23839
3205 12216
3205 13515
3205 18066
3206 12836
3206 15634
3206 17481
3206 17988
3206 21000
3207 18998
3207 23100
3208 18870
3208 21009
3209 18322
3209 20562
3209 22365
3210 6269
3210 11362
3210 23640
3210 23709
3211 13320
3211 13564
3212 4796
3212 21508
3212 22499
3213 10557
3214 6861
3214 9703
3214 10368
3214 14012
3214 18885
3215 16079
3215 20178
3216 9300
3216 13870
3216 17992
3217 5161
3217 10025
3217 13885
3217 19522
3218 5231
3218 5488
3218 7210
3218 7637
3218 8361
3218 10463
3218 10739
3218 13888
3218 14602
3218 17633
3218 17715
3218 18073
3218 18675
3218 20120
3218 20648
3218 23132
3218 23297
3218 23324
3219 7619
3219 7761
3219 11804
3219 17786
3219 22334
3220 3484
3220 21556
3220 21614
3220 23489
3221 5891
3221 10315
3221 10316
3221 14067
3222 12118
3223 5943
3224 15734
3224 16421
3225 4206
3225 8683
3225 12027
3225 13871
3225 17519
3225 18206
3225 18916
3225 23076
3226 23068
3226 23731
3227 3748
3227 6049
3227 7369
3227 8172
3227 10610
3227 16699
3227 17109
3227 21981
3228 4789
3228 8853
3228 11030
3228 12134
3228 13111
3228 13222
3228 14795
3228 15435
3228 19522
3228 21614
3228 23381
3229 20257
3229 21397
3230 14894
3230 21592
3230 23520
3231 7189
3231 7223
3231 7933
3231 9116
3231 9399
3231 11617
3231 11822
3231 13935
3231 14210
3231 17568
3231 19001
3231 22322
3232 5522
3232 7715
3232 9404
3232 13235
3232 13410
3232 14044
3232 14294
3232 17486
3232 18179
3233 13714
3233 14285
3233 17767
3233 21700
3234 6219
3234 10667
3234 11490
3234 11956
3234 13830
3234 14126
3234 18766
3234 19231
3234 20223
3234 20914
3234 21002
3234 23105
3235 4841
3235 5400
3235 15243
3235 16177
3236 7324
3236 23435
3237 7061
3237 11528
3237 13458
3237 15299
3238 3550
3238 5018
3238 6023
3238 20207
3239 4251
3239 4260
3239 4849
3239 4913
3239 5908
3239 6715
3239 7053
3239 7079
3239 8110
3239 8715
3239 10185
3239 10824
3239 11158
3239 12303
3239 12735
3239 13551
3239 14215
3239 14572
3239 14573
3239 14653
3239 14669
3239 14845
3239 15361
3239 15787
3239 16419
3239 16922
3239 18090
3239 18188
3239 18741
3239 19715
3239 20968
3239 21065
3239 21136
3239 21738
3239 22083
3239 22506
3239 22605
3239 22615
3239 22754
3239 22897
3239 23028
3239 24018
3239 24483
3240 3535
3240 6341
3240 6672
3240 7330
3240 12388
3240 13144
3240 23788
3240 23789
3240 24063
3241 3242
3241 7494
3241 9334
3241 11643
3241 12252
3241 23066
3241 23097
3242 7494
3242 11643
3242 23097
3243 23788
3243 23789
3244 4236
3244 7231
3244 20245
3245 6170
3245 10095
3245 12778
3245 12928
3245 14573
3245 16303
3245 21181
3245 22885
3246 5506
3247 5097
3247 13626
3247 22586
3248 6173
3248 10985
3248 13976
3248 18395
3248 19698
3249 4563
3249 9477
3249 13731
3249 16210
3249 21356
3251 3381
3251 3953
3251 17405
3251 20999
3252 17322
3252 17773
3252 21786
3253 12968
3253 17650
3253 19367
3254 12722
3254 18193
3254 19191
3254 22246
3255 8365
3256 14803
3256 14873
3256 15149
3256 15150
3256 16495
3256 16950
3256 17238
3256 18384
3256 19814
3256 19815
3257 3317
3257 4293
3257 11297
3257 12551
3258 4614
3258 5711
3258 7743
3258 22013
3258 23738
3258 24254
3258 24284
3259 4546
3259 12215
3259 13963
3259 16170
3259 16396
3259 20185
3259 21090
3259 22011
3260 4891
3260 12942
3260 18723
3260 21268
3260 22906
3261 7511
3261 11583
3262 5088
3262 8419
3262 12924
3262 12927
3262 21527
3263 8339
3263 13138
3263 18410
3263 18411
3264 11320
3264 13423
3264 15906
3264 16582
3264 22762
3265 4025
3265 4217
3265 8616
3265 9495
3265 16123
3265 18457
3265 18531
3265 22016
3265 23158
3266 12235
3266 13797
3266 20287
3267 3543
3267 5199
3267 13450
3268 4021
3268 10553
3268 13187
3268 15538
3268 16581
3268 17739
3268 18261
3268 19228
3268 19265
3268 21894
3269 4297
3269 14418
3269 19562
3269 21896
3270 8026
3270 14585
3270 21593
3271 7356
3271 10690
3271 18298
3271 18854
3272 3434
3272 5796
3272 6834
3272 7972
3272 9096
3272 13381
3272 13707
3273 4358
3273 9044
3273 10271
3273 15574
3273 15830
3273 19644
3273 21398
3274 7261
3274 8009
3274 8443
3274 8596
3274 9653
3274 10488
3274 19233
3274 21021
3275 5320
3275 7577
3275 17094
3276 4857
3276 10476
3276 15331
3276 17583
3276 19363
3276 20485
3276 22890
3276 23002
3277 7306
3277 9721
3277 19382
3277 20062
3278 3493
3278 17541
3278 19772
3279 5017
3279 10250
3279 22315
3280 8367
3280 19670
3280 20609
3281 9861
3282 5236
3282 7896
3283 6146
3283 6169
3283 8909
3283 10519
3283 12844
3283 24392
3284 12864
3284 22365
3285 5425
3285 14531
3286 7965
3286 10836
3286 17712
3286 18035
3287 3852
3287 7124
3287 8145
3287 9712
3287 11483
3288 3510
3288 8776
3288 15731
3288 17922
3288 22706
3289 4098
3289 4274
3289 4725
3289 5296
3289 5873
3289 6170
3289 7345
3289 7557
3289 8142
3289 8292
3289 9223
3289 9342
3289 10708
3289 11967
3289 12256
3289 12565
3289 13918
3289 14123
3289 15705
3289 15736
3289 16303
3289 17909
3289 18667
3289 19003
3289 21025
3289 21181
3289 21392
3289 21849
3289 22303
3289 22436
3289 23453
3290 3461
3290 11445
3290 17035
3290 17116
3290 22356
3290 23065
3291 12710
3291 22059
3291 23243
3292 8026
3292 14585
3293 8319
3293 17029
3293 20576
3293 22095
3294 10150
3294 11816
3294 20960
3294 23282
3295 9002
3295 13150
3295 16591
3296 10056
3296 10586
3296 20595
3296 22281
3297 5704
3297 8140
3297 15323
3297 17343
3298 17305
3298 19923
3299 7644
3299 9191
3299 11968
3299 14975
3299 15557
3299 18153
3300 3301
3300 6773
3300 10377
3300 10380
3300 16707
3301 10380
3301 15851
3301 16707
3301 20791
3302 12510
3302 22010
3302 23510
3303 4011
3303 12192
3304 3721
3304 4825
3304 6967
3304 21677
3304 22042
3305 4601
3305 8000
3305 13490
3305 13988
3305 19987
3305 21845
3305 22168
3306 11694
3307 7755
3307 7859
3307 8930
3307 22299
3307 22736
3307 23818
3307 24083
3307 24362
3307 24380
3308 14513
3308 18566
3308 20837
3308 22623
3308 23449
3308 23496
3309 8234
3309 10260
3309 11500
3310 6627
3310 10505
3310 15521
3310 18093
3310 22274
3310 23043
3311 9713
3311 17419
3311 21036
3311 22300
3312 5440
3312 6297
3312 12490
3312 21629
3312 22164
3313 5143
3313 6933
3313 9299
3313 10392
3313 12051
3313 12915
3313 13038
3313 13587
3313 13883
3313 14580
3313 16129
3313 16993
3313 20543
3313 20623
3313 21995
3313 22867
3314 11911
3314 19318
3315 5515
3315 6538
3315 9790
3315 10078
3315 10697
3315 13167
3315 13614
3315 16507
3315 16992
3315 17785
3315 22354
3315 22490
3315 22926
3316 16865
3317 3798
3317 4111
3317 4293
3317 6956
3317 9318
3317 10400
3317 11452
3317 14007
3317 20712
3317 24134
3317 24452
3317 24486
3318 12455
3319 5163
3319 6746
3319 8717
3319 8724
3319 14251
3319 22232
3320 6007
3320 6286
3320 8400
3320 12167
3321 3951
3321 8507
3321 11846
3321 24054
3322 3579
3322 10175
3322 10876
3322 11076
3322 11631
3322 11972
3322 14059
3322 15761
3322 15809
3322 16594
3322 17718
3322 18621
3322 19622
3322 20074
3322 20517
3322 21277
3322 21701
3323 12675
3323 23937
3323 24080
3323 24296
3324 3359
3324 6598
3324 10140
3324 21787
3325 4167
3326 4237
3326 4272
3326 9531
3326 14461
3326 19165
3326 21656
3326 23465
3327 10245
3327 11583
3328 7707
3328 10881
3328 12756
3328 20108
3329 3527
3329 14502
3329 15180
3329 15652
3329 18624
3329 22546
3330 4406
3330 14048
3330 23276
3331 6178
3331 7241
3331 15810
3331 19021
3332 17730
3332 19421
3333 4790
3333 12056
3333 18222
3334 3486
3334 4106
3334 7209
3334 10911
3334 13836
3334 16266
3334 19822
3335 5781
3335 13148
3335 18983
3336 5683
3336 7765
3336 12862
3336 13565
3336 14008
3336 14119
3336 14363
3336 15343
3336 16249
3336 17696
3336 19314
3336 20627
3337 7977
3337 18332
3337 21640
3338 19435
3338 21363
3338 22827
3339 10639
3339 15494
3339 17838
3340 8458
3340 9560
3340 13879
3341 12863
3341 14191
3341 20522
3341 23567
3342 5361
3342 8355
3342 13862
3342 15189
3342 20972
3342 21053
3342 22919
3343 13898
3343 19519
3344 4262
3344 23306
3345 7263
3345 7314
3345 8340
3345 11239
3345 12823
3345 15438
3345 17848
3345 19747
3345 21710
3345 23519
3346 6252
3346 11690
3346 16550
3347 3348
3347 5483
3347 6704
3347 11900
3347 18834
3348 11900
3348 17804
3349 6553
3349 11513
3349 14370
3349 14475
3349 16151
3349 19988
3349 22913
3349 23121
3350 6059
3350 6907
3350 11241
3350 13345
3350 23488
3351 6920
3351 6949
3351 11691
3351 13316
3351 23258
3352 9703
3352 15185
3352 17077
3352 18164
3353 3907
3353 7716
3353 14414
3353 14585
3353 15613
3353 18019
3353 23185
3354 9430
3354 21090
3355 3824
3355 4853
3355 13776
3355 14387
3355 16736
3356 4220
3356 5008
3356 10048
3356 11114
3356 14614
3356 15015
3356 18131
3356 21630
3356 21825
3356 22067
3356 23277
3358 7506
3358 8301
3358 24384
3359 8280
3359 11070
3359 13917
3359 14436
3359 18769
3360 3361
3360 12865
3360 15651
3361 7037
3361 12321
3361 12793
3361 12865
3361 20051
3362 7399
3362 7625
3362 20692
3363 4988
3363 19731
3364 3381
3364 6086
3364 14129
3364 15262
3364 22456
3364 23762
3365 8143
3365 22741
3365 23961
3366 4897
3366 11302
3366 15232
3366 18993
3366 22333
3367 19026
3367 22680
3368 12212
3368 19279
3368 20756
3369 9439
3369 13391
3369 14955
3370 11403
3371 5394
3371 14514
3371 15743
3371 15920
3371 22021
3372 3649
3372 3650
3372 4764
3372 6803
3372 19501
3372 20072
3373 18041
3373 19426
3373 22729
3374 4687
3374 4688
3374 5563
3374 14034
3374 14059
3374 21079
3375 7555
3375 13872
3375 16165
3375 21684
3376 5727
3377 3593
3377 18050
3377 20717
3378 13765
3378 15781
3378 19621
3378 21795
3378 22307
3379 23619
3379 23913
3379 23998
3379 24213
3380 6121
3380 11682
3380 13440
3380 14368
3380 18467
3381 3463
3381 3953
3381 5118
3381 5138
3381 9753
3381 10670
3381 11084
3381 12328
3381 13056
3381 13217
3381 13491
3381 13644
3381 14129
3381 15038
3381 15262
3381 15846
3381 15899
3381 16375
3381 16833
3381 17177
3381 18552
3381 18830
3381 19142
3381 20379
3381 20579
3381 21227
3381 21420
3381 21716
3381 21946
3381 22459
3381 22958
3382 8116
3382 8853
3382 14579
3383 4066
3383 5136
3383 6063
3383 7969
3383 9751
3383 10618
3383 11650
3383 11732
3383 12500
3383 14431
3383 15261
3383 15932
3383 16513
3383 20285
3383 20418
3383 20431
3383 21443
3383 21543
3384 9773
3384 11916
3384 12495
3384 12671
3384 12770
3384 18589
3384 23146
3385 3393
3385 5644
3385 7238
3385 20417
3385 21419
3386 14227
3386 16089
3386 17303
3386 21762
3386 22937
3387 6641
3387 12466
3387 13401
3387 21651
3387 23733
3387 23784
3388 3416
3388 4353
3388 4524
3388 7893
3388 9954
3388 17149
3388 18317
3388 23411
3389 7546
3389 11947
3389 13959
3390 4395
3390 17639
3390 21254
3391 9275
3391 13340
3391 24099
3392 9453
3392 11049
3393 7238
3393 11209
3393 21419
3394 4273
3394 4504
3394 8174
3394 8857
3394 9981
3394 11744
3394 16961
3394 17698
3394 20799
3394 23404
3395 8082
3395 15672
3396 11489
3397 3501
3397 5590
3397 6889
3397 8413
3397 9523
3397 11547
3397 14045
3397 14569
3397 15345
3397 15463
3397 15518
3397 16899
3397 17367
3397 18643
3397 18726
3397 18944
3397 19605
3397 19907
3397 21009
3397 21098
3397 22449
3397 23840
3397 24165
3398 4552
3398 8529
3398 18649
3398 19235
3398 24008
3399 8617
3400 10320
3400 16631
3400 23488
3401 6472
3401 13870
3402 7685
3402 17636
3402 18663
3402 23223
3403 3796
3403 6216
3403 9013
3403 9304
3403 10381
3403 10440
3403 11248
3403 17287
3403 18581
3403 19896
3403 20209
3403 20860
3403 21415
3403 21797
3403 23368
3404 17126
3404 19468
3404 19469
3405 7782
3405 14688
3406 4520
3406 4917
3406 9768
3406 13950
3406 14504
3406 18406
3408 7161
3408 7367
3408 12348
3408 20853
3409 7869
3409 9281
3409 9799
3409 20396
3410 12540
3410 20771
3411 6617
3411 13388
3411 16008
3412 6046
3413 8007
3413 8660
3413 18257
3414 15793
3414 19586
3415 6284
3415 7205
3415 9046
3415 14643
3415 15354
3415 15756
3416 4353
3416 4524
3416 7893
3416 8322
3416 9470
3416 9829
3416 9954
3416 10341
3416 12282
3416 14125
3416 18317
3416 18978
3416 19063
3416 19718
3416 19799
3417 3712
3417 3714
3417 3715
3417 23661
3417 23816
3418 15371
3418 15373
3418 21314
3418 22564
3418 23140
3419 11351
3419 13657
3419 17005
3419 21081
3419 21964
3420 3623
3420 15933
3420 23322
3421 7175
3421 10589
3421 19639
3422 7146
3423 4935
3424 6468
3424 10527
3424 15199
3424 19588
3425 3897
3425 10299
3425 15382
3426 4619
3426 7823
3426 10328
3426 18378
3427 8779
3427 11347
3427 13645
3428 13927
3428 14458
3428 17066
3428 18667
3428 20055
3428 20300
3428 22885
3428 23084
3428 23355
3429 14021
3429 23862
3430 5448
3430 6908
3430 17548
3430 21362
3431 3466
3431 6737
3431 7490
3431 14229
3431 23284
3431 23526
3432 3728
3432 4651
3432 5460
3432 15286
3432 17876
3432 20152
3432 21971
3432 22654
3432 23407
3432 23562
3433 6714
3433 10639
3433 16872
3433 20039
3434 6834
3434 7972
3434 13381
3435 4793
3436 10206
3436 12381
3436 12573
3436 14418
3436 14504
3436 14890
3437 8702
3437 12371
3437 18725
3437 22553
3437 22704
3438 6377
3438 7803
3438 9416
3438 10134
3438 15495
3438 16880
3438 16999
3438 17723
3438 20251
3438 21087
3438 21455
3438 21802
3438 22073
3439 3440
3439 6316
3439 10104
3439 11321
3439 17493
3439 20359
3439 22477
3440 4921
3440 4922
3440 8534
3440 17493
3441 17830
3441 17994
3441 18199
3442 8082
3442 9689
3442 16551
3442 18372
3442 23085
3443 8238
3443 10740
3443 11980
3443 24154
3444 7742
3444 11774
3444 15103
3444 17758
3445 4792
3445 6256
3445 7035
3445 7929
3445 11058
3445 12003
3445 13459
3445 13520
3445 13635
3445 16186
3445 18845
3445 19222
3446 6231
3446 11002
3446 24290
3447 6067
3447 13122
3447 17757
3447 22138
3448 4623
3448 6522
3448 9474
3448 9861
3448 15771
3449 7070
3449 10406
3449 13004
3449 18870
3450 5205
3450 11986
3450 18253
3451 7316
3451 8236
3451 11740
3451 12889
3452 4389
3452 4829
3452 11358
3452 12243
3452 14298
3452 16346
3452 21120
3452 21309
3452 23156
3452 23556
3453 4826
3453 9925
3453 15649
3453 17990
3453 19568
3454 3809
3454 4993
3454 21556
3454 21614
3455 9827
3456 7736
3456 9445
3456 16991
3456 19005
3457 3461
3457 6822
3457 7912
3457 11727
3457 12445
3457 15553
3457 16299
3457 17193
3457 17668
3458 12562
3458 14424
3458 15036
3458 15347
3458 16878
3459 8528
3459 16231
3459 18905
3460 21998
3461 5995
3461 19088
3461 20980
3461 22356
3461 23302
3462 10492
3462 15762
3463 9753
3463 11084
3463 13056
3463 13217
3463 15846
3463 15899
3463 20579
3463 22799
3464 9522
3464 11742
3464 20557
3465 4401
3465 7072
3465 13848
3466 4102
3466 4541
3466 7490
3466 12983
3466 19960
3466 23284
3467 4757
3467 8165
3467 13613
3468 11523
3468 19131
3468 22964
3469 17689
3469 20618
3469 21607
3470 6073
3470 8026
3470 14585
3471 6126
3471 11417
3471 14758
3471 17224
3471 20811
3471 22565
3472 5454
3472 23369
3473 13572
3473 14145
3473 20076
3474 4224
3474 6242
3474 13602
3474 19436
3474 20502
3475 7447
3475 7516
3475 14255
3475 19613
3476 6948
3476 19052
3477 5463
3477 14443
3477 14447
3477 15479
3477 22563
3478 5721
3478 6144
3478 14578
3478 15147
3478 21819
3479 8070
3479 14847
3480 4789
3480 8853
3480 23070
3481 4027
3481 5712
3481 6493
3481 6935
3481 9377
3481 10664
3481 13553
3481 14950
3481 18631
3481 20718
3481 21287
3482 13951
3482 14000
3482 18917
3483 4643
3483 5156
3483 8192
3483 10087
3483 11998
3483 13028
3483 15584
3483 17505
3483 17976
3483 18787
3483 20415
3483 22170
3483 22496
3483 23401
3484 19576
3484 21556
3484 21614
3485 4672
3485 12424
3485 18467
3486 3845
3486 4106
3486 10911
3486 16266
3487 7997
3487 10007
3487 16360
3487 20776
3488 3698
3488 5526
3488 5862
3488 7714
3488 8675
3488 8835
3488 8899
3488 8933
3488 10777
3488 11801
3488 12548
3488 14105
3488 15464
3488 16515
3488 17305
3488 17586
3488 19734
3488 20212
3488 22856
3488 22862
3489 9020
3489 12440
3489 17387
3489 21785
3489 21890
3490 5001
3490 7744
3490 8334
3490 10430
3490 15637
3490 17927
3490 18474
3490 19127
3490 19587
3490 21909
3490 22466
3491 5719
3491 8480
3491 14948
3491 24288
3491 24406
3492 16483
3492 22885
3493 4367
3493 5006
3493 6191
3493 6229
3493 7304
3493 7830
3493 8497
3493 10467
3493 11540
3493 12399
3493 13443
3493 17541
3493 17626
3493 19772
3493 20578
3493 22398
3493 22746
3494 4796
3494 20771
3495 6244
3495 13365
3495 22585
3496 3760
3496 6066
3496 19611
3497 12526
3497 14304
3497 19229
3497 20237
3497 22589
3498 5656
3498 9387
3498 10303
3498 13656
3498 21833
3498 22347
3499 3787
3499 5213
3499 13267
3500 4917
3500 5616
3500 14504
3501 6154
3501 7964
3501 9808
3501 10111
3501 10469
3501 11513
3501 19197
3502 7839
3502 11197
3502 15432
3502 17043
3502 19534
3502 20009
3502 21121
3502 22580
3503 4166
3503 8387
3503 11255
3503 23084
3504 9506
3504 15740
3504 19355
3504 20765
3505 5135
3505 5713
3505 7331
3505 8711
3505 10556
3505 10910
3505 15812
3505 17171
3505 17756
3505 17787
3505 19042
3505 20003
3505 22262
3505 22641
3506 5729
3506 7319
3506 22216
3507 15963
3507 20329
3507 20581
3508 8702
3508 14426
3509 14207
3509 21097
3510 9499
3510 15666
3510 17922
3511 6067
3511 8227
3511 13122
3512 3837
3512 4596
3512 5648
3512 19788
3513 6760
3513 7332
3513 12250
3514 8927
3514 11680
3515 10407
3515 11647
3515 15367
3515 23205
3515 24173
3515 24410
3516 4093
3516 19169
3517 4093
3517 23139
3518 8402
3518 9843
3518 10894
3518 17068
3518 22529
3519 4631
3519 9944
3519 12034
3519 13311
3520 4015
3520 10960
3520 16853
3521 8277
3521 10562
3521 12321
3521 12793
3521 14767
3522 9130
3522 10914
3522 16680
3522 17488
3522 21770
3523 20941
3524 9874
3524 10018
3525 4712
3526 4540
3526 13181
3526 14657
3527 3596
3527 3768
3527 4420
3527 9216
3527 14502
3527 15652
3527 16326
3527 18624
3528 3749
3528 6557
3528 12087
3528 13028
3528 14728
3528 18787
3528 20731
3528 23401
3528 23760
3529 9633
3529 11374
3529 13075
3529 13753
3529 17524
3531 10268
3531 11093
3531 14002
3532 8088
3532 12509
3532 12987
3532 21482
3533 6303
3533 8722
3533 16405
3534 8976
3534 12691
3534 13974
3534 22904
3535 24369
3536 6101
3536 11510
3536 12749
3536 13236
3536 15353
3536 16630
3536 19244
3536 22766
3537 10419
3537 10443
3537 24175
3538 5548
3538 7375
3538 7842
3538 12624
3538 20177
3538 22571
3539 5044
3539 5812
3539 5970
3539 8810
3539 9103
3539 9868
3539 10146
3539 10376
3539 11545
3539 13484
3539 18505
3539 19043
3539 20658
3539 22213
3539 23129
3539 23482
3540 3914
3540 19061
3540 23302
3541 6293
3541 8071
3541 14643
3541 22151
3542 4542
3542 20661
3543 9398
3543 13450
3543 14184
3543 15419
3544 6839
3544 11130
3544 13505
3544 15615
3545 6067
3545 9543
3545 12131
3546 5910
3546 5911
3546 10046
3546 14917
3546 17290
3546 23878
3546 24033
3547 8861
3547 12666
3547 13279
3547 16427
3547 22416
3547 23288
3548 13052
3548 21073
3548 22650
3549 5634
3549 10082
3550 4535
3550 4574
3550 5018
3550 5313
3550 9378
3550 9468
3550 11803
3550 15497
3550 16803
3550 18255
3550 18660
3550 19967
3550 20093
3550 22712
3551 4400
3551 8863
3551 9737
3552 4043
3552 4072
3552 6572
3552 9287
3552 10526
3552 16095
3552 21019
3553 5213
3553 13267
3553 13842
3554 9080
3554 9337
3554 24215
3555 16441
3555 17278
3555 18446
3555 23614
3556 10135
3556 19687
3557 3751
3557 4867
3557 4888
3557 12939
3557 18389
3558 9116
3558 21029
3558 22365
3559 6663
3559 9173
3559 15665
3559 21167
3560 10465
3560 11006
3560 20639
3561 15448
3561 23258
3562 5811
3562 5955
3562 7769
3562 9604
3562 10038
3562 10172
3562 10323
3562 11300
3562 14801
3562 16209
3562 16847
3562 19630
3562 19951
3562 20686
3562 20794
3562 21038
3562 21486
3562 23056
3563 7513
3563 8999
3563 11086
3563 12189
3563 12225
3563 12758
3563 13902
3563 20904
3564 8911
3564 10489
3564 16318
3564 17959
3564 22069
3565 24067
3565 24321
3566 4276
3566 4498
3566 5426
3566 5603
3566 5902
3566 6651
3566 10318
3566 11381
3566 12012
3566 13189
3566 15536
3566 15604
3566 18282
3566 19503
3566 19930
3566 20896
3566 21860
3567 6169
3567 7379
3567 10864
3567 23825
3568 5481
3568 10016
3568 10255
3568 15835
3568 19606
3569 3570
3569 3572
3569 3574
3569 3575
3569 4684
3569 13472
3569 22480
3570 3571
3570 3573
3570 3577
3570 13472
3570 21493
3570 22480
3571 3574
3571 3575
3571 3577
3571 4684
3572 3575
3572 4684
3572 13472
3572 21493
3573 3574
3573 3575
3573 22480
3574 3575
3574 4684
3574 21493
3575 3577
3576 4550
3576 14476
3576 20554
3578 4685
3578 11723
3578 20864
3578 21780
3578 22996
3579 5563
3579 16594
3580 7965
3581 4035
3581 9598
3581 14691
3581 15379
3581 21749
3582 3902
3582 14380
3582 23041
3583 4694
3583 5790
3583 7270
3583 7636
3583 8358
3583 10182
3583 10728
3583 12386
3583 12457
3583 12644
3583 16226
3583 17260
3583 17617
3583 19182
3583 19625
3583 23319
3584 4696
3584 17012
3585 17162
3585 21881
3586 4167
3586 19451
3586 21838
3586 22999
3587 6549
3587 6910
3587 10446
3588 4950
3588 5194
3588 5759
3588 9420
3588 11720
3588 12838
3588 14788
3588 23576
3589 6506
3589 6975
3589 7093
3589 8578
3589 10606
3589 11790
3589 21507
3589 21944
3589 21989
3590 23932
3590 24162
3590 24442
3591 5306
3591 12433
3591 12929
3591 23162
3592 9493
3592 18083
3592 19539
3593 6145
3593 18727
3593 19775
3593 19972
3593 20732
3593 20817
3593 22121
3594 15265
3595 18978
3595 19063
3596 3768
3596 18624
3597 5003
3597 5544
3597 7396
3597 9684
3597 11093
3597 13283
3597 13603
3597 14357
3597 14953
3597 15908
3597 16353
3597 17267
3597 20344
3598 5188
3598 7413
3598 11520
3598 11856
3599 15145
3599 18210
3599 21437
3600 6758
3600 8947
3600 15994
3601 3621
3601 4838
3601 10329
3602 8554
3602 11911
3602 15151
3602 22025
3603 5242
3603 6875
3603 8013
3603 8347
3603 9072
3603 10235
3603 19108
3604 4617
3604 5112
3604 10609
3604 16875
3604 18284
3604 19651
3604 22748
3605 4523
3605 6184
3605 6354
3605 7051
3605 8391
3605 9220
3605 9556
3605 16710
3605 18646
3605 19687
3605 21902
3605 22608
3606 7638
3606 18877
3606 20893
3606 21243
3606 23955
3606 24423
3607 23820
3607 24254
3607 24284
3608 5331
3608 17062
3608 17949
3608 19692
3608 19865
3608 20562
3608 22365
3609 17765
3609 19973
3610 4602
3610 7025
3610 8067
3610 12219
3610 12926
3610 13145
3610 13850
3610 16365
3610 19199
3610 19825
3610 20737
3610 22070
3610 23431
3611 5298
3611 7938
3611 12223
3611 13412
3612 14517
3613 3614
3613 3616
3613 3618
3613 6349
3613 6706
3613 8582
3613 18150
3614 3615
3614 3616
3614 3617
3614 6345
3614 14378
3614 21238
3614 22705
3614 23037
3615 3616
3615 6349
3615 8583
3615 14378
3615 18150
3615 22481
3615 22705
3616 6349
3616 8583
3616 18150
3616 19915
3616 21236
3616 21238
3616 22105
3616 22481
3616 23037
3617 3618
3617 6349
3617 8582
3617 8583
3617 18150
3617 21238
3617 22481
3617 22705
3617 23037
3618 21238
3618 22105
3618 22481
3618 23037
3619 8736
3619 11880
3619 17597
3619 19050
3619 20162
3619 22905
3620 18169
3620 20989
3621 4838
3621 8848
3621 18413
3622 8826
3622 16394
3622 17616
3623 7045
3623 9264
3623 10608
3623 11905
3623 12409
3623 12627
3623 15933
3623 17623
3623 17632
3623 18405
3623 18672
3623 23322
3624 5714
3624 7668
3624 12047
3624 12393
3624 15201
3625 9694
3625 10037
3626 4095
3626 8294
3628 10679
3628 17394
3628 22986
3629 4970
3629 7297
3629 14865
3629 15203
3630 6188
3630 9458
3630 17587
3630 20646
3631 17765
3631 18846
3631 19586
3632 7698
3632 8553
3632 17090
3632 20114
3632 20271
3633 3672
3633 4451
3633 9664
3633 10540
3633 12830
3633 19481
3634 5889
3634 8576
3634 17640
3634 18561
3635 4946
3635 11498
3635 22727
3635 23996
3636 8593
3636 19604
3636 23982
3637 5295
3637 5379
3637 9238
3637 16514
3637 17802
3637 19719
3637 22575
3637 23058
3638 6999
3638 17509
3639 3841
3639 5115
3639 17899
3639 20057
3639 23811
3639 23929
3640 4720
3640 22392
3641 17480
3641 22475
3641 23943
3642 4720
3642 6859
3642 24061
3643 4117
3643 7069
3643 8932
3643 11013
3643 19150
3644 4117
3644 7069
3644 10954
3644 11013
3644 24302
3645 7942
3645 12897
3645 15818
3645 22716
3646 18886
3647 4336
3647 16723
3649 19501
3649 20072
3650 4764
3650 19501
3650 23498
3651 3791
3651 4954
3651 8326
3652 10960
3652 16580
3652 23242
3653 4931
3653 12571
3653 17994
3654 4896
3654 8102
3654 22629
3655 19318
3656 6597
3656 9027
3656 10414
3656 10857
3656 11117
3657 4099
3657 6141
3657 6549
3657 6910
3657 6997
3657 9844
3657 12112
3657 13318
3657 16965
3657 18701
3657 18818
3657 20149
3657 22400
3657 22642
3658 4248
3658 8773
3658 9487
3658 12187
3658 13957
3659 9323
3659 15417
3660 18782
3660 19923
3661 10991
3661 12114
3661 12260
3661 14830
3661 16602
3661 18798
3662 12971
3662 20882
3662 21399
3663 10391
3663 10716
3663 17956
3663 20115
3664 11714
3664 19693
3664 22510
3665 16054
3665 18516
3665 19033
3666 8597
3666 14881
3666 18953
3666 19250
3667 3868
3667 20571
3667 20747
3667 20876
3668 10159
3668 17157
3668 20812
3669 9393
3669 17851
3669 19566
3670 5754
3670 9389
3670 14187
3670 21581
3670 21591
3671 4648
3671 5316
3671 8737
3671 14132
3671 19995
3672 10550
3672 12830
3672 16636
3672 17383
3673 4732
3673 6310
3673 6962
3673 7528
3673 8512
3673 8640
3673 10966
3673 14272
3673 16662
3673 19657
3674 4485
3674 15066
3674 16001
3674 17918
3674 22511
3675 5993
3675 9637
3675 14263
3675 15790
3675 17189
3675 18520
3675 19173
3676 13993
3677 7619
3677 9284
3678 8330
3678 9973
3678 16430
3679 6519
3679 8491
3679 8774
3679 16502
3680 14191
3680 22627
3681 13519
3681 14641
3682 4351
3682 4510
3682 9056
3682 10657
3682 14797
3682 15162
3682 23267
3683 6604
3683 14298
3683 19258
3684 22701
3684 22757
3685 13176
3685 22289
3685 23212
3686 8481
3686 24358
3686 24469
3687 24120
3688 6794
3688 24191
3688 24192
3688 24194
3689 15104
3689 21690
3690 4309
3690 4773
3690 5890
3690 6149
3690 6934
3690 10383
3690 11260
3690 13227
3690 13648
3690 18740
3690 19144
3690 19723
3690 21963
3691 4935
3691 11870
3691 12512
3692 7641
3693 7246
3693 12972
3693 14493
3693 19075
3693 21770
3694 21872
3695 6755
3695 14247
3695 18278
3696 8503
3696 12951
3696 12953
3696 12955
3696 15645
3697 9933
3697 12416
3698 5526
3698 18782
3699 5592
3699 5981
3699 6540
3699 12876
3699 14648
3699 14649
3699 17081
3699 18328
3699 19448
3700 5025
3700 15092
3700 15563
3701 4580
3701 7479
3701 23964
3702 3920
3702 5051
3702 5728
3702 6587
3702 9280
3702 9825
3702 10088
3702 10679
3702 17394
3702 18215
3702 21842
3702 21843
3702 23665
3702 23701
3702 23783
3702 24444
3703 6977
3703 24109
3703 24239
3703 24269
3704 4701
3704 11467
3704 20768
3705 4506
3705 8524
3705 15210
3705 17806
3705 20558
3706 4105
3706 8864
3706 17737
3706 21496
3707 9616
3707 11885
3707 16268
3708 5896
3708 11010
3708 11941
3708 12135
3709 4719
3709 7931
3709 8392
3709 16769
3709 17530
3709 18547
3710 9251
3711 5258
3711 16320
3711 22111
3711 23209
3711 23632
3712 3713
3712 3714
3712 3715
3712 9021
3712 11184
3712 11646
3712 12341
3712 17588
3712 23110
3712 23816
3712 24027
3712 24108
3712 24209
3712 24356
3713 3714
3713 17588
3713 23816
3713 24027
3713 24356
3714 3715
3714 9021
3714 12271
3714 23661
3714 24108
3715 9021
3715 11184
3715 12271
3715 12341
3715 17588
3715 23661
3715 24027
3715 24108
3715 24209
3716 15610
3716 17606
3717 11396
3717 13295
3717 21181
3718 8554
3718 15151
3718 22025
3719 9211
3719 9961
3719 10171
3719 21253
3719 24203
3719 24229
3720 12201
3720 16599
3720 17555
3720 17928
3720 20833
3721 4137
3721 4825
3721 5516
3721 18549
3722 4540
3722 7000
3722 7627
3722 14657
3723 3749
3723 4226
3723 19109
3724 10893
3724 17305
3724 17992
3725 9559
3725 11704
3725 14459
3725 18454
3725 22330
3726 6046
3727 8019
3727 8615
3727 11627
3727 19997
3728 20152
3728 20202
3728 21971
3728 23407
3729 5454
3729 14321
3729 23369
3730 7350
3730 7351
3730 18348
3730 21544
3730 21642
3731 7268
3731 10390
3731 10759
3731 15168
3731 23059
3732 5179
3732 7382
3732 8143
3732 8199
3732 11253
3732 11575
3732 22508
3732 22741
3732 23912
3732 24376
3732 24415
3733 5275
3733 8517
3733 23968
3734 6104
3734 9998
3734 10165
3734 18300
3734 18301
3734 22836
3735 6615
3735 7092
3735 13467
3735 15868
3735 17727
3735 18193
3735 19191
3735 20341
3736 5191
3736 9116
3736 21029
3736 22365
3737 8203
3737 10320
3738 9585
3738 22188
3739 4012
3739 5298
3739 9084
3739 11334
3739 12223
3739 17221
3739 20560
3740 9785
3740 13684
3740 14024
3740 15027
3740 16294
3740 19052
3740 21285
3741 14306
3741 23888
3742 11894
3742 13847
3742 22918
3743 6438
3743 11763
3743 18178
3744 5941
3744 6089
3744 10452
3744 12846
3744 18088
3744 19557
3745 8375
3745 12275
3745 17937
3745 20651
3745 21324
3746 3890
3746 5874
3746 21210
3747 7285
3747 10816
3747 11414
3747 13143
3747 18098
3748 10610
3748 16162
3749 6300
3749 8078
3749 8891
3749 10811
3749 11663
3749 12769
3749 13284
3749 14802
3749 15718
3749 19109
3749 19382
3749 21334
3749 22352
3749 22657
3750 5239
3750 19134
3750 22332
3751 4867
3751 8368
3752 6964
3752 20014
3753 8515
3753 17611
3753 23515
3753 23851
3754 5320
3754 7577
3754 10120
3754 17094
3755 6169
3755 17610
3755 24024
3756 17857
3756 19051
3756 20075
3756 22391
3757 5767
3757 10129
3757 14639
3757 15177
3757 19601
3757 20093
3758 9300
3758 15615
3759 4069
3759 9823
3760 6829
3760 10665
3760 14569
3760 14944
3760 18453
3760 19611
3760 19906
3760 20199
3760 20461
3760 20653
3760 22167
3761 5501
3761 18692
3761 22068
3762 8391
3762 10135
3762 19687
3763 5696
3763 19040
3763 20355
3763 21583
3764 4516
3764 4671
3764 5355
3764 11570
3764 14022
3764 14565
3764 15502
3764 16245
3764 17044
3764 20452
3764 21481
3765 13040
3765 13597
3765 13632
3765 18649
3766 12101
3766 14030
3766 18223
3767 8736
3767 12232
3767 16314
3768 5077
3768 9216
3768 16326
3768 18624
3768 22546
3769 15606
3769 18631
3770 10704
3770 10845
3770 16004
3770 18585
3770 22363
3771 4424
3771 4433
3771 15123
3772 5526
3772 20409
3773 8356
3773 12897
3773 16016
3773 20669
3773 22086
3774 8024
3774 11266
3774 14242
3774 14523
3774 14781
3774 15780
3774 17602
3774 21962
3774 22087
3775 4426
3775 4430
3775 4433
3776 7488
3776 20098
3777 4426
3777 4431
3777 9982
3778 12455
3778 13581
3778 21112
3779 4952
3779 11931
3779 12176
3779 16141
3779 17218
3779 20524
3779 23770
3779 23803
3779 23956
3779 23972
3779 23986
3779 24273
3780 4950
3780 5194
3781 17625
3781 19009
3781 21886
3782 5189
3782 6430
3782 9715
3782 10107
3782 10841
3782 10972
3782 12460
3782 15667
3782 16806
3782 17339
3782 17903
3782 18352
3782 18708
3782 19087
3782 20252
3783 4846
3783 11469
3783 12130
3783 12540
3784 16827
3784 23329
3785 6302
3785 7785
3785 14935
3785 18473
3785 21525
3786 11214
3786 12211
3786 12620
3787 4355
3787 5092
3787 5213
3787 5500
3787 5738
3787 5746
3787 6363
3787 7178
3787 9240
3787 11182
3787 11226
3787 11943
3787 12022
3787 12230
3787 13267
3787 13842
3787 14250
3787 14991
3787 19267
3787 19297
3787 19326
3787 20336
3787 20644
3787 21448
3787 21531
3787 22090
3787 22963
3788 4490
3788 4615
3788 5731
3788 6456
3788 9508
3788 9960
3788 11692
3788 19844
3788 22743
3789 5822
3789 7107
3789 8393
3789 17622
3789 19274
3790 6526
3790 12088
3790 16341
3790 16733
3790 21385
3791 13051
3792 4595
3792 8781
3792 11208
3793 12620
3793 16506
3793 21781
3793 22156
3794 7432
3794 11209
3794 20417
3795 8860
3795 11637
3795 13392
3795 17753
3795 18662
3796 6193
3796 17287
3796 20209
3797 4129
3797 7171
3797 13716
3797 14776
3797 22934
3798 4293
3798 8134
3799 4117
3799 11746
3799 24383
3799 24473
3800 21150
3800 23563
3801 5892
3801 8666
3801 17067
3802 6312
3802 8745
3802 10933
3802 17743
3802 22144
3802 23609
3803 5473
3803 8959
3803 10298
3804 10417
3804 16076
3804 16300
3805 9322
3805 13685
3805 18606
3806 23784
3806 24135
3806 24285
3807 3886
3807 4200
3807 5070
3807 19521
3807 22558
3808 4049
3808 19237
3808 23761
3809 19576
3809 21556
3809 23489
3810 9092
3810 12692
3810 20006
3811 8714
3811 22738
3812 4732
3812 8640
3812 8688
3812 14272
3812 19071
3812 23273
3813 9518
3813 24076
3814 6719
3814 8323
3814 12029
3814 20667
3814 22904
3815 8149
3815 12675
3815 15774
3816 5204
3816 11328
3816 15828
3816 17894
3816 18796
3817 4722
3817 4723
3817 8152
3817 12179
3817 13857
3817 16891
3817 23318
3817 24350
3818 4389
3818 6372
3818 19313
3818 20767
3819 4402
3819 8857
3819 13870
3819 18166
3820 5059
3820 16213
3821 10056
3821 16546
3821 20918
3822 10678
3822 12561
3822 12632
3822 22894
3823 12772
3823 23476
3824 5308
3824 8182
3824 13441
3824 13776
3824 16189
3824 22435
3825 5665
3825 9054
3825 11821
3825 15446
3825 16484
3825 18996
3825 20922
3825 23328
3826 3853
3826 6887
3826 12132
3826 14693
3826 22518
3827 9386
3827 10087
3827 22170
3828 4307
3828 7292
3828 12719
3828 20338
3829 4672
3829 5356
3829 17273
3830 4087
3830 6303
3830 16076
3831 7355
3831 15156
3831 15680
3831 16363
3831 20894
3832 5572
3832 8442
3832 8839
3832 12524
3833 8338
3833 8818
3833 10065
3833 11431
3833 14505
3833 15542
3833 15765
3833 18931
3833 19985
3833 20195
3833 22668
3833 22740
3833 22843
3833 23231
3834 18151
3834 20161
3835 10238
3835 10608
3835 10978
3835 20405
3835 21483
3835 21717
3836 5526
3836 8835
3836 9028
3836 9790
3836 10078
3836 11695
3836 12322
3836 16507
3836 16992
3836 22354
3836 22490
3836 22606
3836 22926
3837 4466
3837 14048
3837 17893
3837 19788
3837 22851
3838 6426
3838 15329
3839 10825
3839 10879
3839 11173
3839 13091
3839 21813
3840 13870
3840 23200
3841 15928
3841 18241
3842 5435
3842 11456
3842 15586
3843 7965
3843 13233
3843 18035
3844 8228
3844 23784
3845 12987
3845 19822
3846 6439
3846 10647
3846 11976
3846 20783
3846 22277
3847 7362
3847 8593
3847 23731
3848 13270
3848 20000
3849 15984
3849 18809
3850 17680
3851 8198
3851 10303
3851 11214
3852 7517
3853 6887
3853 8028
3853 12031
3853 23572
3854 4402
3854 8716
3854 10056
3854 12776
3854 22281
3855 9620
3855 24176
3855 24196
3856 10034
3856 11180
3856 23589
3857 9213
3857 13648
3858 6067
3858 6602
3858 13122
3858 14467
3858 20598
3859 9258
3859 14626
3859 15486
3860 4324
3860 7501
3860 15770
3860 16474
3860 17971
3860 19303
3861 4056
3861 10365
3861 10369
3861 10371
3861 24260
3862 11621
3862 18631
3862 22365
3863 7965
3863 10836
3863 17712
3863 22338
3864 6461
3864 9072
3864 17897
3864 18889
3864 20505
3866 4254
3866 4550
3866 10004
3866 16102
3866 18358
3867 13515
3868 18706
3868 20876
3869 23823
3869 24303
3869 24339
3869 24474
3870 6719
3871 11055
3871 14819
3871 17704
3871 18574
3871 21918
3872 4480
3872 6993
3872 8930
3873 18921
3873 19373
3874 5244
3874 14892
3874 15023
3874 17771
3874 18240
3875 7012
3875 7778
3875 9622
3875 14311
3875 15523
3875 16506
3875 18801
3875 19216
3875 22695
3876 4754
3876 8124
3876 11248
3876 12851
3877 6670
3877 23837
3877 24286
3878 10009
3878 16083
3879 8139
3879 12461
3879 22757
3880 5973
3880 8200
3880 9099
3880 10750
3880 14198
3880 17912
3880 20293
3880 21061
3880 21985
3880 22081
3880 23327
3881 4327
3881 6813
3881 8903
3881 17211
3881 20361
3881 21791
3881 22681
3882 8030
3882 9364
3882 10237
3882 13564
3882 17812
3883 23305
3883 23809
3883 24388
3883 24394
3884 5059
3884 5328
3884 20376
3884 22287
3885 18867
3886 5070
3886 9506
3886 10356
3886 14971
3886 19521
3886 23550
3887 6370
3887 6588
3887 6646
3887 7578
3887 8502
3887 8562
3887 8798
3887 9524
3887 10568
3887 10601
3887 10937
3887 11649
3887 12814
3887 14532
3887 15184
3887 16794
3887 17340
3887 17414
3887 18249
3887 18331
3887 19427
3887 22092
3888 4971
3888 21245
3888 21683
3888 22260
3889 10593
3889 17559
3889 20188
3889 20667
3889 21428
3890 5874
3890 18720
3890 21832
3891 16417
3891 16477
3892 5212
3892 8914
3892 11136
3892 14134
3892 19819
3893 4661
3893 9577
3893 9982
3893 10695
3894 10893
3894 17992
3895 4670
3896 7072
3896 10913
3896 13055
3897 5918
3897 9522
3897 10000
3897 13532
3897 20557
3897 22603
3897 23285
3898 9560
3898 17887
3899 8523
3899 16878
3899 18954
3899 20974
3899 22984
3900 4008
3900 19687
3900 21902
3901 4305
3901 4556
3901 8020
3901 8591
3901 15105
3901 15729
3901 16385
3902 7427
3902 20436
3902 23041
3903 7984
3903 12169
3903 12173
3903 24104
3904 10250
3904 14496
3904 21635
3904 22315
3905 21844
3906 5315
3906 9265
3906 9694
3906 12667
3907 4988
3907 8867
3907 14585
3907 15434
3907 18077
3907 19731
3907 19770
3908 18880
3908 19581
3908 20065
3908 23396
3909 12866
3909 16926
3909 19413
3909 21804
3910 4701
3910 16591
3911 8230
3911 10258
3911 16739
3911 22916
3912 4567
3912 5684
3912 10481
3912 13128
3912 15128
3912 19339
3913 5307
3913 7444
3914 9599
3914 14716
3915 4144
3915 13431
3915 18967
3916 12434
3916 19259
3916 19878
3916 20264
3917 12057
3917 14927
3917 16952
3917 21775
3918 4571
3918 4796
3918 19096
3919 7135
3919 18614
3919 23778
3920 10902
3920 11969
3920 12115
3921 8383
3921 22650
3922 6608
3922 10560
3923 23955
3923 24279
3924 5201
3924 7268
3924 11129
3925 9917
3926 22285
3926 23094
3926 23416
3927 13324
3928 9100
3928 12620
3928 15991
3928 22156
3929 11959
3929 12501
3929 15094
3929 18319
3929 20310
3929 21166
3930 4506
3930 8524
3930 14193
3930 15210
3930 22614
3931 7857
3931 8276
3931 10339
3931 16106
3931 16107
3932 9040
3932 12571
3933 5820
3933 15988
3934 5870
3934 14590
3934 18534
3935 13523
3935 17054
3936 4402
3936 18166
3936 19923
3937 8145
3937 22051
3938 6150
3938 6866
3938 7393
3938 22633
3939 4356
3939 4613
3939 8608
3939 9864
3939 12081
3940 10029
3940 14081
3940 14538
3941 6339
3941 13273
3941 19897
3941 20466
3942 18886
3942 21942
3943 8225
3943 16066
3943 19767
3943 21102
3944 10004
3944 20554
3945 24078
3945 24393
3946 6131
3946 7489
3946 8494
3946 12765
3946 12873
3946 13288
3946 16555
3946 17707
3946 19132
3946 20253
3946 20659
3946 22256
3946 23255
3947 7852
3947 10868
3947 13539
3947 13826
3947 17156
3947 17788
3947 19739
3947 22835
3947 22994
3948 4561
3948 4743
3948 5489
3948 5528
3948 6409
3948 7844
3948 7983
3948 8753
3948 8784
3948 9432
3948 9529
3948 10626
3948 10848
3948 11476
3948 12842
3948 14097
3948 14392
3948 15212
3948 15445
3948 15958
3948 16344
3948 16407
3948 16457
3948 16478
3948 16811
3948 17589
3948 17674
3948 17746
3948 17966
3948 18642
3948 18784
3948 19022
3948 19839
3948 20693
3948 20891
3948 21223
3948 21685
3948 22329
3948 22388
3949 5078
3949 7697
3949 9677
3949 9749
3949 9890
3949 10659
3949 13939
3949 20429
3949 21082
3949 21405
3950 17473
3950 19271
3950 22037
3951 5751
3951 5994
3951 8507
3951 9374
3951 11846
3951 13533
3951 14283
3951 15505
3951 19873
3951 22210
3951 22987
3951 23799
3952 10427
3952 11435
3952 13785
3952 15600
3952 19856
3952 21039
3953 10670
3953 13393
3953 17117
3953 17205
3954 4563
3954 9477
3954 13731
3954 16210
3954 21356
3955 3997
3955 8758
3955 13473
3955 15630
3955 17582
3955 20827
3956 3957
3956 5512
3956 11819
3956 16304
3956 21761
3957 5531
3957 11237
3957 12914
3957 16844
3957 20484
3958 4724
3958 15952
3958 17984
3958 22193
3959 7108
3959 13479
3959 13509
3960 7177
3960 7200
3960 15982
3960 19886
3961 7807
3961 9549
3961 10661
3961 10723
3961 16538
3962 9314
3962 9631
3962 13716
3963 4702
3963 6396
3963 6527
3963 11494
3963 13932
3964 5574
3964 7905
3964 11080
3964 11481
3964 13512
3964 13920
3964 14346
3964 15358
3964 16415
3964 17182
3964 19654
3964 22148
3964 22582
3965 9102
3965 10796
3965 15613
3966 4385
3966 8207
3966 16406
3966 18983
3966 23766
3967 5958
3967 7118
3967 7481
3967 8321
3967 8710
3967 9195
3967 10056
3967 11660
3967 15233
3967 15633
3967 20408
3968 4354
3968 4911
3968 10585
3968 23915
3968 24359
3969 11419
3969 12166
3969 13357
3969 16747
3969 19503
3969 22899
3969 23089
3969 23312
3970 14989
3970 15967
3970 21048
3970 23094
3970 23697
3971 11764
3971 12474
3971 18275
3971 19278
3971 21320
3972 7733
3972 9532
3972 12057
3972 16701
3972 19677
3972 22369
3973 6596
3973 9493
3973 9769
3973 20954
3974 5482
3974 6512
3974 6896
3974 13169
3974 13193
3974 18807
3974 22405
3975 5697
3975 23835
3976 6287
3976 8137
3976 24397
3976 24420
3977 4902
3977 10529
3977 11029
3977 21854
3977 23508
3978 9866
3978 17299
3979 18001
3979 18170
3980 6695
3980 7283
3980 7486
3980 12634
3980 18476
3980 23025
3981 14396
3981 15018
3981 22910
3982 8957
3982 10479
3982 12608
3982 18232
3982 18777
3982 21426
3982 22866
3983 19024
3984 11057
3984 12289
3984 12290
3985 5809
3985 12612
3986 6950
3986 14419
3986 19393
3986 21269
3987 8026
3987 18127
3987 21614
3988 5538
3988 6568
3988 6838
3988 12579
3988 15588
3988 18306
3989 6169
3989 7341
3989 20725
3989 23962
3989 24392
3990 8835
3990 17305
3991 5095
3991 6011
3991 7514
3991 7773
3991 9772
3991 10453
3991 11193
3991 11948
3991 13043
3991 13723
3991 13795
3991 14033
3991 14094
3991 14863
3991 15082
3991 19538
3991 20792
3991 21735
3992 4077
3992 4378
3992 4681
3992 5190
3992 7068
3992 7967
3992 8023
3992 16736
3992 17923
3992 18515
3992 20956
3992 21141
3992 21190
3992 21770
3992 23101
3992 23179
3994 4615
3994 5490
3994 7889
3996 13371
3996 13536
3996 19355
3997 8758
3997 10336
3997 12762
3997 13473
3997 22172
3997 23608
3998 9285
3998 19082
3999 8431
3999 8682
3999 9989
3999 10066
3999 11341
3999 11810
3999 22616
3999 23408
4000 7298
4000 22819
4001 5215
4001 13195
4001 13196
4001 15071
4001 18537
4002 11291
4002 11514
4002 22940
4003 4243
4003 5925
4003 6473
4003 18121
4003 20724
4003 22393
4004 7324
4004 13094
4004 20186
4004 21480
4005 4991
4005 13139
4005 16361
4005 22049
4006 8563
4006 10906
4006 11162
4006 24320
4006 24465
4007 5240
4007 9983
4008 6354
4008 8391
4008 18646
4008 19687
4008 20741
4008 21902
4008 22608
4009 5011
4009 9053
4009 16650
4010 5624
4010 6053
4010 9321
4010 13863
4010 14709
4011 4499
4011 5606
4011 6028
4011 7498
4011 8436
4011 8866
4011 9045
4011 9490
4011 9719
4011 10090
4011 10850
4011 11305
4011 11363
4011 12192
4011 13271
4011 15100
4011 15725
4011 16333
4011 17546
4011 19425
4011 20943
4011 21549
4011 21983
4011 22349
4012 4460
4012 11334
4012 12223
4012 17221
4013 4347
4013 23859
4013 24008
4013 24225
4014 4731
4014 9971
4014 13969
4014 15707
4014 16781
4014 16942
4014 19637
4015 10960
4015 13081
4015 16853
4016 13504
4016 17553
4016 17744
4016 21803
4017 5815
4017 19515
4017 20103
4018 7450
4018 9360
4018 10807
4018 12699
4019 12827
4019 14465
4019 15439
4019 16751
4019 22930
4020 4167
4020 9598
4020 22999
4021 15538
4021 15704
4021 21894
4022 16166
4022 20306
4022 20533
4023 14877
4024 17432
4024 19789
4025 7117
4026 14375
4026 16029
4026 17678
4026 18101
4027 6167
4027 6632
4027 18631
4028 7731
4028 9286
4028 17186
4028 18730
4029 9747
4029 14653
4030 5277
4030 12804
4030 17808
4030 24071
4031 16021
4032 7859
4032 8930
4032 24083
4033 4750
4033 4882
4033 5304
4033 10242
4033 15694
4033 20890
4033 24003
4034 9360
4034 16237
4034 19398
4034 20719
4035 5549
4035 9598
4035 15311
4037 6438
4037 8989
4037 10011
4037 16285
4037 20397
4038 4701
4038 11467
4039 4230
4039 14506
4039 15485
4040 6296
4040 11738
4040 23188
4040 23311
4040 24349
4041 7977
4041 19198
4041 21556
4041 21640
4042 6328
4042 10159
4042 11688
4042 20812
4043 4072
4044 5258
4044 6404
4044 6405
4044 20227
4044 23678
4045 18290
4045 19289
4045 20297
4045 21850
4046 17397
4046 21735
4046 23083
4048 4058
4049 10332
4049 19237
4049 19595
4050 7049
4050 17163
4050 23492
4051 5134
4051 23725
4052 4054
4052 11322
4052 14064
4052 19245
4052 22410
4052 23445
4052 23679
4053 10369
4053 19246
4054 10370
4054 10372
4054 12446
4054 14947
4054 15081
4054 19245
4054 19246
4054 22687
4055 12446
4055 23679
4056 5152
4056 10259
4056 10369
4056 10371
4056 11322
4056 12446
4056 20810
4056 22779
4056 24260
4057 4059
4057 4061
4057 21208
4058 6689
4058 13313
4059 4060
4059 13313
4060 4061
4060 13313
4061 8236
4061 13313
4061 14881
4062 4550
4062 10004
4062 20866
4063 6081
4063 7075
4063 12974
4063 13837
4063 15076
4064 4293
4064 24134
4064 24452
4065 5298
4065 12223
4065 16402
4066 16076
4067 4762
4067 21397
4068 7364
4068 20771
4069 4086
4069 8324
4069 9663
4069 9823
4069 9898
4069 10803
4069 11423
4069 11705
4069 12246
4069 13517
4069 14336
4069 14498
4069 16647
4069 17255
4069 18761
4069 19917
4069 20938
4069 21733
4069 23454
4070 12897
4070 17025
4071 18843
4072 9287
4072 10890
4072 16095
4072 19170
4073 4550
4073 10004
4073 20554
4074 4644
4074 7076
4074 19319
4075 10652
4075 11369
4075 16734
4075 20992
4075 22024
4076 6941
4076 8526
4077 4378
4077 5190
4077 6027
4078 9416
4078 21489
4079 5071
4079 6107
4079 6750
4079 10314
4080 13077
4080 13582
4080 15259
4080 16980
4080 19918
4080 22691
4081 6328
4081 6795
4081 21067
4082 4180
4082 5131
4082 6728
4082 7511
4082 9125
4082 10264
4082 11583
4082 11707
4082 22696
4083 9151
4083 10939
4083 11656
4083 16422
4083 19862
4083 20687
4083 20688
4083 20689
4084 5720
4084 6719
4084 7161
4084 8467
4084 9224
4084 9815
4084 12880
4084 18707
4084 19702
4084 21884
4084 22973
4084 23595
4085 8082
4085 10034
4087 8722
4087 19624
4088 5196
4088 7529
4088 13629
4089 6528
4089 12324
4089 12365
4089 20258
4089 20593
4090 4784
4090 4799
4090 6190
4090 7512
4090 12579
4090 15109
4090 16646
4090 17878
4091 8249
4091 8452
4091 9355
4091 18645
4091 19902
4092 9086
4092 13588
4092 14566
4092 21408
4093 11025
4093 23982
4093 24459
4094 8059
4094 13711
4094 15329
4094 21606
4094 22795
4095 9917
4096 4402
4096 18166
4096 19923
4097 4680
4097 8515
4097 20847
4098 13918
4098 14234
4098 21849
4099 10574
4099 13318
4099 14640
4100 10501
4100 23932
4100 24162
4100 24216
4101 17280
4101 17480
4101 17531
4101 22475
4102 4541
4102 22281
4102 23284
4103 5923
4103 13601
4103 15428
4103 16737
4103 19064
4104 15658
4104 16128
4104 18964
4105 5558
4105 8865
4105 9927
4105 12970
4105 15616
4105 17736
4105 21176
4105 21496
4105 21877
4105 23564
4106 19822
4107 6782
4107 13266
4107 15217
4107 17738
4107 19947
4107 20784
4107 21360
4107 22009
4108 10337
4108 15260
4108 17263
4108 19779
4108 20520
4109 12892
4109 19122
4110 6194
4110 9706
4110 10454
4110 20651
4111 4293
4111 11297
4111 12551
4111 23938
4112 7212
4112 8134
4113 11020
4113 14145
4113 20393
4114 15240
4114 15650
4114 19742
4115 5051
4115 8379
4115 10088
4115 10423
4115 10433
4115 11750
4115 19649
4115 20702
4116 10914
4116 14154
4116 17302
4116 21616
4117 7521
4117 10021
4117 10211
4117 13307
4117 16616
4117 17069
4117 17223
4117 18767
4117 22142
4117 22245
4117 23714
4117 24182
4117 24383
4117 24409
4117 24473
4118 10250
4118 16805
4118 22315
4119 4411
4119 18548
4119 22852
4120 7846
4120 7908
4120 11267
4120 13965
4120 17654
4121 8528
4122 4930
4122 7284
4122 10760
4122 20640
4123 9551
4123 19066
4123 20417
4124 6643
4124 12557
4124 24277
4125 10806
4125 13008
4125 16291
4126 20753
4127 7757
4127 9800
4127 12627
4127 12791
4127 18126
4127 18292
4127 18405
4127 21225
4128 4970
4128 13962
4128 18932
4129 9314
4129 9631
4129 10633
4129 13716
4129 14776
4129 17615
4129 18903
4129 22934
4130 9167
4130 15841
4130 18498
4130 20798
4131 4916
4131 8789
4131 13254
4131 17522
4131 18344
4131 23388
4132 5532
4132 14099
4132 20924
4132 21256
4132 23352
4133 24266
4134 4232
4134 5313
4134 13086
4134 17849
4135 9577
4135 9982
4135 10729
4135 14743
4135 14909
4135 16296
4135 18095
4135 18272
4135 19385
4136 5678
4136 6385
4136 6489
4136 7041
4136 7119
4136 7816
4136 9097
4136 14912
4136 17053
4136 18876
4136 20265
4136 20406
4137 5423
4137 5516
4137 6967
4137 14452
4137 21677
4138 7598
4138 12336
4138 14570
4138 17000
4139 9835
4139 15376
4139 19729
4139 22125
4140 8570
4140 11318
4140 11505
4140 20875
4141 9434
4141 9833
4141 14325
4141 14326
4142 16791
4142 22110
4142 22488
4142 23054
4143 9035
4143 12429
4143 12753
4143 16867
4144 21274
4145 10613
4145 18631
4146 5834
4146 7841
4146 12276
4146 16537
4146 21874
4146 22597
4147 14264
4147 20800
4148 4258
4148 5435
4148 12213
4148 15586
4148 19441
4148 22751
4149 8383
4149 16933
4150 4691
4150 12516
4150 21257
4150 21660
4151 16624
4151 16768
4152 13870
4152 20107
4153 5743
4153 6167
4153 7764
4153 8144
4154 5798
4154 12303
4154 14486
4154 18900
4154 22053
4155 7977
4156 17528
4156 19565
4157 6534
4157 23369
4157 24479
4158 5406
4158 5889
4158 9115
4159 23497
4160 13416
4160 17598
4160 19426
4160 22729
4161 5810
4161 8144
4162 5553
4162 12120
4162 15648
4163 7626
4163 13040
4163 13632
4163 23375
4164 10642
4164 14850
4164 24335
4164 24454
4165 5328
4165 6388
4165 18286
4165 18998
4166 4475
4166 11280
4166 11966
4166 15867
4167 5549
4167 9217
4167 9598
4167 16565
4167 21838
4168 5181
4168 5957
4168 16332
4168 18995
4168 19408
4168 21017
4168 22161
4168 23959
4168 24029
4168 24225
4169 12000
4169 18754
4169 19310
4170 10644
4170 10986
4170 11617
4170 12864
4170 16428
4170 18080
4170 21437
4171 6704
4171 8564
4171 12617
4171 17804
4172 12549
4172 14800
4172 20045
4173 5099
4173 13676
4173 14225
4173 18978
4174 6067
4174 13122
4174 22138
4175 21783
4175 22628
4176 8169
4176 20328
4176 22532
4177 9626
4178 8947
4178 13207
4178 15360
4179 8300
4179 8439
4179 8655
4179 9192
4179 13130
4180 10264
4180 22696
4181 5186
4181 9241
4181 16734
4181 22178
4182 5229
4183 9242
4183 10880
4183 11069
4184 7051
4184 9220
4184 19687
4185 6358
4185 9270
4185 9271
4186 12202
4186 23970
4186 24434
4186 24460
4187 6994
4187 13176
4188 21371
4188 24112
4188 24171
4189 7987
4189 23503
4189 24299
4190 8062
4190 11795
4190 16771
4190 21688
4191 5025
4191 13286
4191 16248
4192 4426
4192 21496
4192 23564
4193 9694
4193 18918
4193 21152
4194 5228
4194 6125
4194 6644
4194 7719
4194 11630
4194 11826
4194 12560
4194 14035
4194 14329
4194 15320
4194 16079
4194 18152
4194 20178
4194 20321
4195 6830
4195 9503
4195 10631
4195 12033
4195 13170
4196 11056
4196 12047
4196 15201
4197 6092
4197 8163
4197 12693
4198 6328
4198 11624
4198 11688
4199 8507
4199 9374
4200 7271
4200 23550
4201 5728
4201 12007
4202 9034
4202 11233
4202 14133
4202 14932
4203 5191
4204 10996
4205 11780
4205 20955
4205 22602
4206 9285
4206 20098
4206 23076
4207 4662
4207 4677
4207 4782
4207 5541
4207 5843
4207 6004
4207 6432
4207 17248
4207 19377
4207 19722
4207 20110
4207 23457
4208 19757
4208 20996
4208 23019
4209 18900
4209 22053
4210 5257
4210 8880
4211 11446
4211 17895
4211 23706
4212 5820
4212 15877
4213 17687
4213 21593
4214 6719
4214 9815
4214 10245
4214 10571
4214 22904
4216 4850
4216 8231
4216 9639
4216 15913
4216 20963
4217 9495
4217 12720
4217 16123
4217 18531
4217 22016
4218 11100
4218 14286
4218 16571
4218 18679
4218 19428
4219 7284
4219 10760
4220 5008
4220 6745
4220 10048
4220 10682
4220 11114
4220 14027
4220 14614
4220 15015
4220 18131
4220 22067
4220 23277
4220 23301
4221 8079
4221 10189
4221 19287
4221 21670
4222 7888
4222 12391
4222 13166
4222 18781
4223 5277
4223 8309
4223 24071
4224 8133
4224 13602
4224 18423
4225 16527
4225 24163
4225 24199
4226 10942
4226 19382
4226 22352
4226 23155
4227 5205
4227 13296
4227 20503
4228 8173
4228 19314
4228 23028
4229 16436
4229 17794
4229 17809
4230 11291
4230 15011
4231 9115
4231 16143
4232 6416
4232 13537
4232 17849
4233 5680
4233 13391
4233 19664
4234 15646
4234 17563
4234 18690
4235 4284
4235 4558
4235 13137
4235 13246
4235 15531
4235 16126
4235 18043
4235 19518
4235 19911
4235 20664
4236 7231
4236 12652
4236 21135
4236 21353
4236 22797
4236 23333
4237 4272
4237 8148
4237 14461
4237 18914
4237 21656
4237 23465
4238 6420
4238 7244
4238 11495
4238 11496
4238 19608
4239 7679
4239 10608
4239 17632
4239 18672
4239 22769
4240 6458
4240 9489
4241 4242
4241 7376
4241 12248
4241 13026
4241 13027
4241 13923
4241 20395
4242 7376
4242 13027
4242 13923
4242 18922
4242 20395
4243 4516
4243 5925
4243 6473
4243 10563
4243 14565
4243 15897
4243 17044
4243 20182
4243 21481
4243 22295
4244 6444
4244 7624
4244 9288
4244 12750
4244 13779
4244 16559
4244 17326
4244 17373
4244 17482
4244 17532
4244 18500
4244 20042
4244 23436
4245 23899
4245 23900
4245 24361
4246 16572
4246 18248
4247 5912
4247 7000
4247 8474
4247 10347
4247 13181
4247 14806
4247 17844
4247 22849
4248 8773
4248 9487
4248 13957
4249 9975
4249 16441
4249 18954
4249 20473
4250 5543
4250 9876
4250 10168
4250 11991
4250 15390
4250 16075
4250 16077
4250 17840
4251 5230
4251 12897
4251 18900
4252 17398
4253 8120
4253 9975
4253 11586
4253 11654
4253 12895
4253 13109
4253 14884
4253 15240
4253 20473
4253 20838
4253 21910
4253 22689
4254 4550
4254 10004
4255 23938
4255 24101
4256 8905
4256 9717
4256 11149
4256 15254
4256 22285
4256 23623
4257 4886
4257 24067
4257 24361
4258 15586
4258 19441
4258 22751
4259 7529
4259 13059
4259 15167
4259 18285
4259 19921
4260 12897
4261 4614
4261 7743
4261 24254
4261 24284
4262 23306
4263 11545
4263 18984
4264 5320
4264 17094
4265 11655
4265 18219
4266 6240
4266 10725
4266 11251
4266 17868
4267 5371
4267 7816
4267 13218
4268 4616
4268 23795
4268 24303
4269 4368
4269 5487
4269 8760
4269 11111
4269 17913
4269 20270
4269 20957
4269 22767
4270 8709
4270 10879
4270 18377
4271 5252
4271 7465
4271 9253
4271 11456
4271 16902
4271 18970
4271 20158
4272 21656
4272 23465
4273 15615
4273 17698
4274 14297
4275 6415
4275 8679
4275 19403
4276 5902
4276 13189
4276 18282
4277 5013
4277 6847
4277 7122
4277 16724
4277 19498
4277 22223
4278 12495
4278 14642
4278 16309
4278 17268
4278 22535
4279 4876
4279 18462
4279 23729
4279 24328
4280 5532
4280 14581
4281 5757
4281 13757
4281 16673
4281 18168
4281 18814
4282 4487
4282 4715
4282 6450
4282 13321
4282 22296
4283 12737
4283 19122
4283 22297
4284 4345
4284 5659
4284 9436
4284 13246
4284 14174
4284 15531
4284 20643
4284 21934
4285 8100
4285 16486
4285 17243
4285 22239
4286 4289
4286 9221
4286 21432
4286 21778
4286 23857
4286 24098
4286 24345
4287 12284
4287 12451
4287 20820
4287 22870
4287 23979
4287 24272
4288 6318
4288 7544
4288 19542
4288 23765
4288 23872
4288 23970
4289 9221
4289 11388
4289 11477
4289 12515
4289 12615
4289 20392
4289 21432
4289 21778
4289 22201
4289 22382
4289 22441
4289 23017
4289 24098
4289 24345
4290 4291
4290 19457
4291 24164
4291 24427
4292 7398
4292 9180
4292 13177
4292 14454
4292 16766
4292 21032
4292 24111
4292 24474
4293 6052
4293 6120
4293 7212
4293 7412
4293 7871
4293 8093
4293 8134
4293 9626
4293 10400
4293 10515
4293 11297
4293 11452
4293 13191
4293 14007
4293 20712
4293 21841
4293 24134
4293 24452
4293 24486
4294 11328
4294 17894
4295 6647
4295 10106
4295 19855
4296 6226
4296 14124
4296 15142
4296 16294
4296 21285
4297 7403
4297 10206
4297 14418
4297 14890
4297 19562
4297 23749
4298 15945
4298 19399
4299 13171
4299 17544
4300 9366
4300 10557
4301 8895
4301 21831
4301 24031
4301 24094
4301 24439
4302 23053
4303 6471
4303 11987
4304 7619
4304 7761
4304 11804
4304 17786
4305 4556
4305 15052
4305 18570
4305 22820
4306 15121
4306 19418
4306 19834
4307 5033
4307 12391
4307 13166
4307 14874
4307 18398
4307 18418
4307 18781
4307 18861
4307 23149
4308 14332
4308 14512
4308 18736
4309 9213
4310 6093
4310 7344
4310 7673
4310 7976
4310 12100
4310 19758
4310 21278
4310 23023
4311 7862
4311 10283
4311 13889
4311 18228
4312 5465
4312 6584
4313 5553
4313 15648
4314 10762
4314 17248
4315 4624
4315 4643
4315 5757
4315 5846
4315 10826
4315 12498
4315 13396
4315 14150
4316 19305
4316 19307
4316 19368
4316 22324
4317 4361
4318 12162
4318 21818
4318 22278
4321 4361
4322 7611
4322 9637
4322 17189
4322 17428
4323 8909
4324 15770
4324 17971
4325 13119
4325 16572
4325 18248
4325 19080
4325 21364
4325 21748
4326 18998
4327 6883
4327 8782
4327 19706
4328 7864
4328 12263
4328 22313
4329 9976
4329 11060
4329 12763
4329 15327
4329 16374
4329 18339
4329 22660
4330 9038
4330 9866
4330 11861
4331 4502
4331 5251
4331 5776
4331 20650
4332 5889
4332 7073
4332 17071
4332 18298
4332 21455
4333 16286
4333 17842
4333 19710
4334 7409
4334 10532
4334 11459
4335 19318
4335 20107
4335 21658
4336 5636
4336 13685
4336 16723
4337 11144
4337 11516
4337 14090
4337 14689
4337 20763
4338 5213
4338 8557
4339 7047
4339 15381
4339 20401
4339 22858
4340 9085
4341 13419
4341 15145
4342 9315
4342 13344
4342 20573
4343 6401
4344 9851
4344 11034
4344 17765
4344 21187
4345 15531
4345 20643
4346 8930
4346 9211
4346 23949
4347 5141
4347 5142
4347 5957
4347 6100
4347 7405
4347 10286
4347 11205
4347 12247
4347 13705
4347 17574
4347 21573
4347 22161
4347 22711
4347 23617
4347 23618
4347 23619
4347 23669
4347 23750
4347 23822
4347 24344
4347 24371
4347 24402
4347 24456
4348 5940
4348 6944
4348 14751
4349 4776
4349 9441
4349 15318
4349 15516
4350 6098
4350 6868
4350 13882
4350 20495
4351 4510
4351 6960
4351 10657
4351 14797
4352 5317
4352 9002
4352 16591
4352 17756
4353 14029
4353 18317
4353 18978
4353 23262
4354 24243
4354 24393
4356 8608
4356 12081
4357 4740
4357 7177
4357 7825
4357 19886
4357 23653
4358 6466
4358 13758
4358 14179
4358 15947
4358 21297
4358 22234
4359 4886
4359 12043
4359 24378
4360 5197
4360 18631
4361 20004
4361 23395
4362 5124
4362 5341
4362 5900
4362 11264
4362 15422
4362 24005
4363 23354
4363 23728
4364 4417
4364 4933
4364 7491
4364 8216
4364 17158
4364 18878
4364 22839
4364 23346
4364 24328
4364 24446
4364 24449
4365 10453
4365 11120
4365 14094
4365 16754
4365 21735
4366 4911
4366 10585
4366 23915
4366 24004
4366 24026
4367 11540
4367 17541
4367 17626
4367 19772
4368 5391
4368 17913
4368 20957
4369 5329
4369 12580
4369 14373
4369 19842
4370 4613
4370 8608
4370 9864
4370 10405
4371 13941
4371 16501
4371 17913
4372 6282
4372 16615
4372 18201
4372 20845
4373 13301
4373 13875
4374 4529
4374 11077
4374 13365
4374 23242
4375 19509
4376 8909
4377 4852
4377 6401
4378 6051
4378 21770
4379 7010
4379 7596
4379 10091
4379 10183
4379 11648
4379 14209
4379 17915
4379 19294
4379 21522
4379 22674
4380 6213
4380 12272
4380 23428
4381 5198
4382 8766
4382 16528
4382 17501
4382 18514
4382 19484
4383 5127
4383 9786
4383 13617
4383 15569
4383 16907
4383 20702
4383 21173
4383 22235
4384 12093
4384 15988
4384 18379
4384 18837
4384 22943
4385 8180
4385 13148
4385 21411
4385 21911
4386 5889
4386 9115
4386 15181
4387 10042
4387 10174
4387 11782
4387 12219
4388 6222
4388 7674
4388 17432
4389 6372
4389 8197
4389 19313
4389 20767
4390 10245
4390 22696
4391 11413
4391 17742
4391 22339
4392 5083
4392 5730
4392 8386
4392 9352
4392 21704
4393 5889
4393 6035
4393 7581
4393 13427
4393 19460
4393 20744
4393 22091
4394 6034
4394 11295
4394 16191
4394 20590
4395 4797
4395 5631
4395 6854
4395 7400
4395 9257
4395 9347
4395 10003
4395 11052
4395 15008
4395 17121
4395 17637
4395 17639
4395 17667
4395 21228
4395 21231
4395 21254
4396 11994
4396 17447
4396 18632
4397 4959
4397 22283
4399 9175
4399 10909
4399 14159
4399 21988
4400 4841
4400 8863
4400 10622
4401 7072
4401 19911
4401 22500
4402 4618
4402 4683
4402 4735
4402 5250
4402 5278
4402 5312
4402 5705
4402 5725
4402 5817
4402 5872
4402 5878
4402 5883
4402 5898
4402 6152
4402 6472
4402 6976
4402 7725
4402 7971
4402 8364
4402 8623
4402 8857
4402 9139
4402 9300
4402 9309
4402 9397
4402 9802
4402 9916
4402 10112
4402 10210
4402 10226
4402 10439
4402 10686
4402 10915
4402 11353
4402 11536
4402 11726
4402 11767
4402 11982
4402 12346
4402 12373
4402 12529
4402 12697
4402 12776
4402 13216
4402 13244
4402 13544
4402 13870
4402 13949
4402 14151
4402 14328
4402 14335
4402 14617
4402 14701
4402 14877
4402 14910
4402 14977
4402 15351
4402 15499
4402 15559
4402 15636
4402 16081
4402 16330
4402 17125
4402 17138
4402 17275
4402 17371
4402 17503
4402 17957
4402 17967
4402 18134
4402 18523
4402 19105
4402 19288
4402 19336
4402 19371
4402 19387
4402 19527
4402 19852
4402 20061
4402 20206
4402 20438
4402 20464
4402 20595
4402 20610
4402 20656
4402 20681
4402 21510
4402 21578
4402 21602
4402 21662
4402 21990
4402 22127
4402 22373
4402 22432
4402 22725
4402 23091
4402 23143
4402 23200
4402 23232
4402 23359
4402 23369
4402 23392
4402 23540
4403 5395
4403 8030
4403 10025
4403 14376
4403 20304
4404 6525
4404 8528
4404 9766
4404 12555
4404 17564
4404 21034
4405 5392
4405 6584
4405 8014
4405 14348
4405 14599
4405 15785
4405 18417
4405 23148
4406 4466
4406 8166
4406 10878
4406 12044
4406 14048
4406 18992
4406 20380
4407 9647
4407 16168
4407 16975
4407 21211
4408 7177
4408 21257
4408 21660
4409 9630
4409 23023
4410 6297
4410 12195
4410 19311
4410 19703
4411 9042
4411 12207
4411 18548
4412 7977
4412 18898
4412 21556
4413 22592
4413 22904
4414 9569
4414 21673
4415 4562
4415 5177
4415 8299
4415 17609
4415 21893
4416 21077
4416 21308
4417 24355
4417 24450
4418 12185
4418 12729
4418 15182
4418 22732
4419 16398
4420 15527
4420 20258
4421 8427
4421 13623
4421 21061
4421 22998
4422 10740
4422 23312
4422 24400
4423 4426
4423 4433
4424 4425
4424 4426
4424 4430
4424 4431
4424 4432
4424 4433
4425 4431
4425 4432
4425 4433
4425 9577
4426 4430
4426 4431
4426 4432
4426 4434
4426 5458
4426 15123
4426 15631
4426 19925
4427 13605
4427 19612
4428 10893
4428 17305
4428 17992
4429 9982
4429 23244
4430 4432
4430 4433
4430 19925
4431 4432
4431 4433
4431 4434
4431 5458
4431 19925
4432 4433
4432 5458
4432 5533
4432 5950
4432 15631
4433 4434
4433 5533
4433 6340
4433 9982
4433 10179
4433 10859
4433 15123
4433 15631
4433 18272
4433 19925
4433 23244
4435 4713
4435 22529
4436 5197
4436 7671
4436 13641
4436 13844
4436 15208
4436 18287
4436 18382
4436 19564
4436 20941
4436 21412
4437 5737
4437 7176
4437 8730
4437 8978
4437 11195
4437 16623
4437 17220
4438 9554
4438 9801
4438 12464
4439 5628
4439 12002
4439 12004
4440 12289
4440 12290
4440 23781
4440 24225
4441 23786
4441 24053
4442 7654
4442 12146
4442 16204
4442 18656
4443 8440
4443 10409
4443 16175
4443 18571
4443 20584
4443 23131
4444 6311
4444 9731
4444 9732
4444 10099
4444 11657
4444 12921
4444 13514
4445 11233
4445 16159
4445 16947
4445 20608
4445 23402
4446 5468
4446 7913
4446 8019
4446 17630
4446 21047
4447 4448
4447 7474
4447 10801
4447 11591
4447 12238
4448 7220
4448 7474
4448 10801
4448 11591
4448 12238
4448 13089
4448 13721
4448 13799
4448 16017
4448 19112
4448 19756
4448 20066
4449 5587
4449 16410
4450 7663
4450 12999
4451 10550
4451 16636
4452 7095
4452 9061
4452 10132
4452 11847
4452 14152
4452 21929
4453 4454
4453 4455
4453 12705
4453 20358
4453 20775
4454 12705
4454 20775
4455 5535
4455 5536
4455 12705
4455 16837
4455 20775
4456 4457
4456 5562
4456 13278
4456 16836
4456 18823
4456 18824
4456 18825
4457 7243
4457 13234
4457 18607
4457 18824
4457 22133
4458 10905
4458 24433
4459 24326
4460 7938
4460 16402
4461 9491
4461 13385
4462 4790
4462 6172
4462 8786
4462 10916
4462 12056
4462 13594
4462 18222
4462 20710
4462 23616
4463 12924
4463 15803
4463 21527
4464 5724
4464 9828
4464 13959
4465 5113
4465 6504
4465 6623
4465 9146
4465 16093
4465 18361
4465 22701
4465 22757
4465 23237
4466 8166
4466 14048
4467 8857
4467 9300
4467 17419
4467 21673
4468 11488
4468 13624
4468 14310
4468 20887
4468 24090
4469 6930
4469 12303
4469 18900
4469 22053
4470 5083
4470 6029
4470 6248
4470 7108
4470 11605
4471 11936
4471 14797
4471 18078
4472 12726
4472 23452
4473 6067
4473 8227
4474 18432
4475 8387
4475 11255
4475 23084
4476 6996
4476 12971
4477 5399
4477 8601
4477 11628
4477 15996
4477 16754
4478 4826
4478 15582
4478 15649
4478 16612
4479 18631
4479 21270
4479 22365
4480 7772
4480 24083
4481 6867
4481 18321
4481 24043
4481 24217
4482 4895
4482 11131
4482 13722
4482 16356
4483 5593
4483 8144
4483 15357
4483 17820
4483 20454
4484 5110
4484 15786
4484 17935
4485 5793
4485 7446
4485 11342
4485 11371
4485 12279
4485 13150
4485 13429
4485 14741
4485 15066
4485 17402
4485 17647
4485 17763
4485 17796
4485 17810
4485 17918
4485 22511
4486 6014
4486 11531
4486 21551
4487 6462
4487 8699
4487 9665
4487 9857
4487 11827
4487 13000
4487 13912
4487 20368
4487 21445
4487 23046
4488 16289
4488 21658
4488 22216
4489 5802
4489 7347
4489 7348
4489 7349
4489 23166
4490 5731
4490 6261
4490 7889
4490 9960
4490 11330
4491 7311
4491 9100
4491 11861
4492 17391
4492 19536
4492 23006
4493 8153
4493 8804
4493 24158
4494 4701
4494 11847
4494 14152
4494 21929
4495 6171
4495 6234
4495 18852
4495 23826
4496 5501
4497 5213
4497 8557
4497 13267
4498 5902
4498 15604
4498 18282
4499 7498
4499 10090
4499 15100
4499 22349
4500 9094
4501 6181
4501 10385
4501 12444
4501 13104
4501 14356
4501 14500
4501 14574
4501 17004
4501 18785
4501 21595
4501 23040
4502 20650
4503 9185
4503 11701
4503 12714
4503 17378
4504 8498
4504 9981
4504 12922
4504 17698
4504 20868
4505 9105
4505 17809
4506 14193
4506 20558
4506 22614
4507 10283
4507 12407
4507 13889
4508 12160
4508 13692
4508 17704
4509 6153
4509 8203
4509 10637
4509 20449
4509 23644
4510 6960
4510 7776
4510 14797
4510 15162
4511 12021
4511 13142
4513 5863
4513 10751
4513 11354
4513 12138
4513 14750
4513 15335
4513 16020
4513 20230
4513 20777
4513 21930
4513 22341
4513 23181
4514 14692
4515 10121
4515 15601
4516 6473
4516 14565
4516 17044
4517 10148
4517 14688
4517 15679
4517 22557
4518 10614
4518 18821
4519 9575
4519 17369
4519 23460
4520 5616
4520 5801
4520 9768
4520 14504
4520 17596
4520 18406
4520 20754
4521 15624
4521 19674
4522 13870
4522 16535
4522 20107
4522 23200
4523 7051
4523 8337
4523 9220
4524 6508
4524 7561
4524 19063
4525 5124
4525 23969
4525 24339
4526 12845
4526 15310
4526 23282
4527 6347
4527 7027
4527 12454
4527 13538
4527 22094
4528 6171
4528 8054
4528 9787
4528 12468
4528 14051
4528 15576
4528 16824
4528 23306
4529 23242
4530 9866
4530 17508
4530 17985
4531 5085
4531 7503
4532 8780
4532 15072
4532 16722
4532 17649
4532 20115
4533 23856
4533 24113
4533 24114
4533 24115
4533 24426
4534 10041
4534 11116
4534 13738
4534 14433
4534 15471
4534 22059
4534 22969
4535 6023
4535 20207
4536 11357
4536 18375
4536 18998
4536 23100
4537 13465
4537 21560
4538 4600
4538 5804
4538 14408
4538 17277
4538 21702
4539 8091
4539 12421
4539 16653
4539 17605
4539 20372
4539 21754
4540 7000
4540 8694
4540 9000
4540 10835
4540 13001
4540 13181
4540 13378
4540 16704
4540 18930
4540 22849
4540 23537
4540 23547
4540 23898
4541 5598
4541 6737
4541 7338
4541 7502
4541 8128
4541 16490
4541 18974
4541 19960
4541 22281
4541 23284
4541 23526
4542 7440
4542 16391
4542 21020
4543 6383
4543 10712
4543 14290
4543 14463
4543 21391
4544 12202
4544 22215
4545 5510
4545 5663
4545 14612
4545 15437
4545 18742
4545 20261
4546 6210
4546 10627
4546 13963
4546 16396
4546 19431
4546 21090
4546 22011
4547 15114
4548 10004
4549 13571
4549 14288
4549 15114
4550 6709
4550 7359
4550 7826
4550 7951
4550 8813
4550 11087
4550 11884
4550 14344
4550 14476
4550 14552
4550 20857
4550 21319
4551 6259
4551 9571
4551 12075
4551 19180
4551 19370
4552 6100
4552 8529
4552 16471
4552 17192
4552 23952
4552 24271
4553 5491
4553 7102
4553 13821
4553 15363
4553 15726
4553 22381
4553 23289
4554 8868
4554 19705
4555 23928
4555 24078
4556 5745
4556 7592
4556 8020
4556 8591
4556 8871
4556 10410
4556 11252
4556 14970
4556 15105
4556 15398
4556 15729
4556 16155
4556 16385
4556 16579
4556 22578
4557 8800
4557 14585
4557 21593
4557 21614
4558 20664
4559 6581
4559 9865
4559 13608
4560 5823
4560 13365
4560 15612
4560 15714
4560 23387
4561 4743
4561 5489
4561 12819
4561 19022
4562 5177
4562 8299
4562 9482
4562 13063
4562 20552
4562 21893
4563 8518
4563 19060
4563 20786
4563 21337
4563 21644
4564 11906
4564 19201
4564 21108
4565 4597
4565 9827
4565 15890
4565 19215
4566 5290
4566 7888
4566 11921
4566 13166
4567 10481
4567 13128
4568 5205
4568 11986
4568 18253
4569 5916
4569 9913
4569 18006
4570 5582
4570 10903
4571 4796
4571 8205
4571 9820
4571 18535
4571 19096
4571 19765
4572 17305
4573 5596
4573 20018
4573 20022
4573 20026
4573 20028
4573 20030
4573 20031
4573 20032
4573 20033
4574 4866
4574 5018
4574 5313
4574 6023
4574 18255
4575 9388
4575 18498
4575 20798
4576 10018
4576 20601
4576 20771
4577 6883
4577 8022
4577 10523
4577 12966
4577 17211
4577 19706
4578 23258
4579 9440
4579 12587
4579 13327
4579 17819
4580 5416
4580 11115
4580 23800
4580 24152
4581 5951
4581 6281
4581 9331
4581 11555
4581 12421
4581 12856
4581 17502
4581 17605
4581 19136
4582 11702
4582 13903
4582 17365
4582 18994
4582 23056
4583 7000
4584 6853
4584 8213
4584 13557
4584 17462
4585 7888
4585 8156
4585 12391
4585 13166
4586 15817
4587 6260
4587 6449
4588 4935
4588 8019
4588 10567
4588 18732
4589 11456
4589 11966
4589 12213
4589 14778
4590 6233
4590 11778
4590 20342
4590 23440
4591 5707
4591 12437
4591 15377
4591 20130
4592 20856
4592 23338
4593 14231
4593 20856
4593 21667
4593 23338
4594 20856
4594 23338
4595 9207
4595 12790
4595 19640
4596 8166
4596 14048
4596 17893
4597 13886
4597 15890
4598 5860
4598 23094
4598 23704
4599 10192
4599 14518
4600 5436
4600 5905
4600 20977
4601 10470
4601 11638
4602 13489
4602 17117
4603 5439
4603 12723
4603 14706
4603 15239
4604 11761
4604 12188
4604 12604
4604 14990
4604 19077
4604 19417
4604 21509
4604 22882
4605 12217
4605 17179
4605 22904
4606 7055
4606 8185
4606 14006
4607 10512
4607 20808
4607 24075
4608 7975
4608 8539
4609 16812
4610 10125
4610 11156
4610 13814
4610 14780
4610 16896
4610 22824
4611 12145
4611 13701
4611 13816
4612 4745
4612 12730
4612 12855
4612 13603
4612 19761
4613 8608
4613 9864
4613 10405
4613 12081
4613 20476
4614 7743
4614 18720
4614 23738
4614 24254
4615 5413
4615 5617
4615 5731
4615 6456
4615 9508
4615 9960
4615 11330
4615 11692
4615 18165
4615 18840
4615 22743
4616 9180
4616 11979
4616 15138
4616 22331
4616 23795
4616 24484
4617 5112
4617 18284
4617 19651
4617 20250
4617 22748
4617 24220
4619 6722
4619 6774
4619 7142
4619 7823
4619 10142
4619 10328
4619 11398
4619 13906
4619 15060
4619 15176
4619 19374
4619 20998
4619 21272
4619 22346
4619 22789
4619 23597
4620 8019
4620 8615
4620 13227
4620 19997
4621 7769
4621 14837
4621 23056
4622 12666
4622 16427
4622 22624
4624 10826
4624 14150
4624 14347
4625 14135
4625 14538
4625 21556
4626 6111
4626 23912
4626 23992
4627 7804
4627 7814
4627 18059
4627 18485
4627 23224
4628 7804
4628 7814
4628 13763
4628 23224
4629 4935
4629 5866
4629 12879
4629 18996
4629 19318
4631 11112
4631 12034
4632 6513
4632 13397
4632 15040
4632 15400
4632 16259
4633 7947
4633 8869
4633 15334
4633 18376
4634 7784
4634 10716
4634 13440
4635 6355
4635 20678
4635 22068
4636 6719
4636 9815
4636 12348
4637 10004
4638 4639
4638 9920
4638 10194
4638 15086
4638 15087
4638 17103
4638 21296
4639 15086
4639 20763
4641 5654
4641 8159
4641 9948
4641 10639
4641 10712
4641 13155
4641 19260
4642 12356
4642 18286
4642 18998
4643 13270
4643 19110
4644 10268
4644 11093
4644 18350
4645 5624
4645 9114
4645 9321
4645 14709
4646 5107
4646 7683
4646 10269
4647 13292
4647 13767
4647 15980
4647 17181
4647 19671
4647 23647
4648 9869
4648 14132
4648 18952
4648 19995
4649 5102
4649 13281
4649 16072
4649 22505
4649 23204
4650 5102
4650 16072
4650 16148
4650 17943
4650 17960
4650 20067
4650 20324
4650 20432
4651 20152
4651 20202
4651 21971
4651 23407
4652 6719
4652 10245
4652 19590
4653 5418
4653 12614
4653 14546
4653 23870
4653 24414
4654 8528
4655 8729
4655 15603
4655 16944
4655 17513
4655 18436
4655 20456
4656 7820
4656 8072
4656 10776
4656 15077
4656 16856
4656 22088
4656 22692
4656 22854
4657 11902
4657 15940
4658 8656
4658 9408
4658 9412
4658 11999
4658 21955
4659 23913
4659 24062
4660 14049
4660 15061
4660 17686
4661 7877
4661 13373
4661 14154
4661 14292
4661 19257
4661 21154
4661 21352
4662 5541
4662 12740
4662 17248
4663 8174
4663 17698
4664 12262
4664 22816
4665 6850
4665 8049
4665 16545
4665 17845
4665 18774
4665 19149
4665 20142
4665 22686
4665 23594
4666 18058
4666 18846
4666 19973
4667 8631
4667 12633
4667 17028
4668 6163
4668 7064
4668 20976
4668 22236
4668 22659
4669 6096
4669 17636
4669 17741
4669 18663
4669 18807
4670 5765
4670 10325
4670 18309
4671 6473
4671 14565
4671 16245
4672 5356
4672 9396
4672 11682
4672 21326
4673 5553
4673 11619
4673 13210
4673 15648
4674 4958
4674 22942
4675 4821
4675 5380
4675 9339
4675 19248
4676 6530
4676 9814
4676 9856
4676 17162
4677 10762
4677 16948
4677 17248
4677 21279
4678 11507
4678 15278
4678 21667
4679 6857
4679 7909
4679 16310
4679 16894
4680 5280
4680 7611
4680 8515
4680 8830
4680 9637
4680 9695
4680 10044
4680 11963
4680 13032
4680 13074
4680 13668
4680 14263
4680 15568
4680 16850
4680 17370
4680 17428
4680 17599
4680 17611
4680 18057
4680 18373
4680 18374
4680 18591
4680 18620
4680 19057
4680 19171
4680 19172
4680 19173
4680 19174
4680 19556
4680 20140
4681 6051
4681 9798
4681 21190
4682 18369
4683 8857
4683 13870
4683 14482
4683 19986
4684 13472
4684 21493
4684 22480
4685 21780
4685 22996
4686 10648
4686 11699
4686 12742
4686 14663
4686 14853
4686 16394
4687 15844
4687 19956
4688 13275
4688 14902
4688 14903
4688 15844
4688 19956
4689 9211
4689 24297
4690 5805
4690 8290
4690 13122
4690 22138
4691 7456
4691 13782
4691 14670
4691 21660
4692 7237
4692 10072
4692 14446
4693 14621
4693 17583
4693 19363
4694 5790
4694 8358
4694 17260
4695 9447
4695 9920
4695 17118
4695 21294
4695 22366
4695 22367
4695 23371
4696 9644
4696 11990
4697 7042
4697 18504
4698 9650
4698 10119
4698 13838
4698 14009
4698 15019
4698 15316
4699 7012
4699 8477
4699 9380
4699 13165
4699 14311
4699 16506
4699 18801
4699 19216
4699 22695
4699 23176
4700 13470
4700 18114
4700 22188
4701 5433
4701 5484
4701 6151
4701 6569
4701 6754
4701 6968
4701 7868
4701 7942
4701 8260
4701 9061
4701 9421
4701 9945
4701 9996
4701 10132
4701 10218
4701 10707
4701 11784
4701 11847
4701 12897
4701 12938
4701 13372
4701 13607
4701 14152
4701 14334
4701 15705
4701 16969
4701 17885
4701 18919
4701 19357
4701 20383
4701 20757
4701 21568
4701 21611
4701 21732
4701 22756
4702 6396
4702 13932
4703 8175
4703 10234
4703 12196
4703 16109
4703 16609
4703 17046
4703 21080
4703 21855
4704 8930
4705 5875
4705 11704
4705 13160
4705 14253
4705 16285
4706 6284
4706 7205
4706 9046
4706 15756
4707 4708
4707 5837
4707 7597
4707 7640
4708 23802
4709 5837
4709 7218
4709 24279
4710 5187
4710 6090
4710 24007
4711 10795
4711 13933
4711 14577
4711 18631
4712 6276
4712 6714
4712 9010
4712 9642
4712 10639
4712 13924
4712 15493
4712 15727
4712 20039
4712 20696
4712 21975
4713 9555
4713 10951
4713 17068
4713 19574
4713 21222
4714 17602
4714 23645
4715 5632
4715 22296
4716 5394
4716 14514
4716 22021
4717 7184
4717 7987
4717 23503
4717 24177
4717 24299
4718 23503
4718 24177
4718 24299
4719 7593
4719 16769
4719 17713
4719 18547
4720 6723
4720 8150
4720 13783
4720 14197
4720 20100
4720 22392
4720 24061
4720 24205
4721 4883
4721 22238
4721 23855
4721 23928
4722 4723
4723 12179
4723 21246
4724 5839
4724 9074
4724 12347
4724 13513
4724 14654
4724 14979
4724 15388
4724 15952
4724 20594
4724 20852
4724 22062
4724 22150
4724 23253
4725 9611
4725 15705
4726 5063
4726 5340
4726 6407
4726 18962
4727 7651
4727 23878
4727 24310
4728 16358
4728 22097
4728 22914
4729 7789
4729 8290
4729 10743
4729 15457
4730 6175
4730 8064
4730 10503
4730 15306
4730 19824
4730 22904
4731 16942
4731 19637
4732 7732
4732 14272
4732 19071
4733 17162
4734 8458
4734 9560
4734 17887
4735 16163
4735 16192
4735 16631
4735 18939
4735 21736
4736 6697
4736 14104
4736 15253
4736 16718
4736 16835
4736 18804
4737 7616
4737 9286
4738 15256
4738 19478
4738 24432
4740 7177
4740 7200
4740 15982
4740 19886
4741 5841
4741 5884
4741 6832
4741 23772
4741 23797
4742 8034
4742 9687
4742 14651
4742 15130
4743 5489
4743 17674
4744 7980
4744 15134
4744 17565
4744 18594
4744 19554
4745 13603
4745 14953
4746 9316
4746 10958
4746 13652
4746 19097
4747 7401
4747 9845
4747 18402
4748 5328
4748 6538
4748 18998
4748 22116
4749 17480
4750 4882
4750 9739
4750 24395
4751 13706
4751 13891
4751 23891
4751 24167
4751 24213
4751 24459
4752 6719
4752 10571
4752 12348
4752 20667
4752 22904
4753 12789
4753 19308
4754 10706
4754 11455
4755 5191
4755 5317
4755 23413
4756 11309
4756 12465
4756 16120
4756 16317
4756 19695
4756 21406
4756 22492
4756 22874
4756 23033
4757 7505
4757 8165
4757 13613
4758 5657
4758 8750
4758 11611
4758 15683
4758 17415
4758 19147
4758 21623
4758 22941
4759 11134
4759 24424
4760 8684
4760 11078
4760 11739
4760 17176
4760 22609
4761 16452
4761 22927
4762 5036
4762 6628
4762 9154
4762 11350
4762 12206
4762 12643
4762 13076
4762 13095
4762 13674
4762 19115
4762 19188
4762 20192
4762 21924
4763 11134
4763 23856
4763 23954
4763 24424
4764 19501
4765 18476
4766 9920
4766 22367
4766 23371
4767 9776
4767 16921
4767 20919
4768 6254
4768 6577
4769 12926
4769 15599
4770 7401
4770 9845
4771 6178
4771 10520
4771 15810
4771 15979
4771 16923
4771 23690
4772 5302
4772 6860
4772 10628
4772 12497
4772 21978
4772 22141
4773 8019
4773 11627
4773 19997
4774 6401
4774 11842
4774 23735
4775 12749
4775 22371
4775 22396
4776 9441
4777 11246
4777 17821
4777 22255
4778 11157
4778 11716
4778 23126
4779 9518
4779 24076
4779 24169
4780 10295
4780 21658
4781 5542
4781 6698
4781 7130
4782 17248
4782 20110
4783 9471
4783 13870
4783 21085
4784 12579
4784 14657
4784 16481
4785 24176
4785 24225
4786 5653
4786 8657
4786 10705
4786 15995
4786 21958
4787 9920
4787 22364
4787 23371
4788 7619
4788 7761
4788 17786
4788 22334
4789 5349
4789 5505
4789 6110
4789 10998
4789 14135
4789 15552
4789 17147
4789 20164
4789 21425
4789 21505
4789 21922
4789 23070
4790 6038
4790 6172
4790 7813
4790 8786
4790 8832
4790 8946
4790 10483
4790 10805
4790 10916
4790 11250
4790 12731
4790 13594
4790 13696
4790 15386
4790 17345
4790 17781
4790 18711
4790 18795
4790 19575
4790 20710
4790 20921
4790 21686
4790 23584
4790 23616
4791 11265
4791 12405
4791 14036
4791 23423
4792 7035
4792 7929
4792 12020
4792 13520
4792 14069
4792 14786
4792 16186
4792 19222
4792 20260
4792 22120
4793 7172
4793 8990
4793 9246
4793 12597
4793 13896
4793 19211
4793 19619
4793 20726
4793 20825
4793 21725
4794 8223
4794 8531
4794 11805
4794 22777
4795 7077
4795 10689
4795 23691
4796 8855
4796 10068
4796 12715
4796 16432
4796 16968
4796 18535
4796 19096
4796 21721
4796 22499
4796 23034
4797 17639
4797 18692
4798 21378
4799 6190
4799 16646
4799 16661
4799 17871
4799 17878
4799 19347
4800 23615
4800 23700
4800 23861
4801 8916
4801 9539
4801 16350
4802 13639
4802 16585
4803 9100
4803 10604
4803 11214
4803 11861
4804 4807
4804 14248
4805 4809
4805 14988
4805 21378
4806 4807
4806 5980
4806 21378
4806 23222
4807 5592
4807 5980
4807 6540
4807 15778
4807 16642
4807 19448
4807 20469
4807 23222
4808 21378
4808 22242
4809 7934
4809 13183
4809 13873
4809 14647
4809 14650
4809 15013
4809 15452
4809 15594
4809 16280
4809 18274
4809 20102
4809 22316
4809 22317
4809 22524
4810 5592
4810 7727
4810 14648
4810 14649
4810 15778
4811 5059
4811 10893
4811 12797
4811 16213
4812 9874
4812 22894
4813 8039
4813 8123
4813 9016
4813 9313
4813 21303
4813 22644
4813 22653
4814 13549
4814 13907
4814 23292
4815 6857
4815 7790
4815 7909
4815 16310
4816 4832
4816 6534
4816 7586
4816 11210
4816 11376
4816 11541
4816 19697
4817 5344
4817 13135
4817 23069
4817 23321
4817 24144
4818 16926
4818 19141
4818 21804
4819 20903
4819 21952
4819 24178
4820 4984
4820 15898
4820 17843
4821 5380
4821 6338
4821 7402
4821 7599
4821 9339
4821 9562
4821 9889
4821 10089
4821 10173
4821 10195
4821 11301
4821 11528
4821 12054
4821 13458
4821 14374
4821 15299
4821 18687
4821 19248
4821 21769
4821 21779
4821 22573
4821 23849
4822 5377
4822 11121
4822 12191
4822 13272
4822 18874
4823 8286
4823 11047
4823 21530
4823 23276
4824 5913
4824 19506
4825 5516
4825 21677
4825 21739
4826 8111
4826 9925
4826 14249
4826 15582
4826 15649
4826 16612
4826 17990
4826 18045
4826 19535
4826 20842
4826 21634
4827 6067
4828 6515
4828 10614
4828 17625
4828 18821
4828 19811
4829 12243
4829 21309
4830 16612
4831 6980
4831 23543
4831 24138
4832 7586
4833 5001
4833 23424
4834 7426
4834 8856
4834 15487
4835 5961
4835 6992
4835 7993
4835 11387
4836 9193
4836 18192
4836 18254
4836 18901
4836 22174
4837 7879
4837 24177
4837 24322
4838 8417
4838 8848
4838 10329
4838 18748
4839 4888
4839 12939
4839 15748
4840 18028
4841 8863
4841 9737
4841 10622
4841 14740
4841 15955
4841 16177
4842 19353
4842 21344
4843 7585
4843 8147
4844 8668
4844 12903
4844 21636
4844 22895
4845 5933
4845 5935
4845 7185
4845 8918
4845 10602
4845 11311
4845 12226
4845 15764
4845 17207
4845 17417
4845 19839
4845 22226
4845 23544
4846 10045
4846 13803
4846 19406
4846 19999
4847 9694
4847 13251
4847 14309
4847 16972
4847 19899
4847 21015
4847 21152
4847 21719
4848 10018
4848 22894
4850 9639
4850 13333
4850 20963
4851 6233
4851 14671
4851 15351
4851 20924
4852 7647
4852 8050
4852 10324
4852 11908
4852 12800
4852 18956
4852 23812
4852 24305
4852 24333
4853 8182
4853 14387
4853 16736
4853 20585
4853 22435
4853 23081
4854 5732
4854 10040
4854 19552
4854 21289
4855 9868
4855 11977
4855 12507
4855 19043
4856 5784
4856 13724
4856 19720
4857 10476
4857 14621
4857 22890
4857 23002
4858 13364
4858 17353
4858 17860
4858 18943
4859 9726
4859 10246
4859 17341
4860 6007
4860 6286
4860 8400
4860 24157
4861 19332
4862 5342
4862 5343
4862 9215
4862 24379
4863 9936
4863 14264
4864 9469
4864 11331
4864 21666
4865 6155
4865 7468
4865 7469
4865 8806
4865 16524
4866 5018
4866 5313
4866 6023
4866 9468
4866 11803
4866 18238
4866 22712
4867 8368
4867 15748
4867 18389
4868 12919
4868 16963
4869 5724
4869 9828
4869 13959
4869 17910
4870 5748
4870 11071
4870 12679
4870 20404
4871 6459
4871 9075
4871 10780
4871 12711
4871 19225
4871 22749
4871 22891
4872 16578
4872 19026
4873 5812
4873 5970
4873 20658
4874 11224
4874 11636
4874 16637
4874 18399
4874 18494
4874 20564
4875 7418
4875 15796
4875 18835
4875 20246
4875 20962
4875 22933
4876 24032
4876 24328
4876 24446
4878 7769
4878 14837
4878 23056
4879 9053
4879 11811
4879 12926
4879 15599
4879 17361
4879 18113
4880 11428
4880 12618
4880 16203
4880 22043
4880 24248
4881 4883
4881 6978
4881 23406
4881 23656
4881 24154
4882 10242
4882 14098
4882 15694
4882 20685
4882 24003
4883 7918
4883 9235
4883 11980
4883 22238
4883 23698
4883 23928
4883 24154
4884 8643
4884 13273
4885 12079
4885 19381
4885 21437
4886 6858
4886 7149
4886 9374
4886 12043
4886 22509
4886 22989
4886 23899
4886 23950
4886 24001
4886 24252
4887 7029
4887 9225
4887 13014
4887 18051
4887 21674
4888 12939
4888 18389
4889 11957
4889 22044
4890 11634
4890 13365
4890 22176
4891 12942
4891 21268
4891 23681
4892 14025
4892 15868
4893 6246
4893 12563
4893 12931
4893 13582
4893 16509
4893 16954
4893 19061
4894 6450
4894 7554
4894 13354
4894 22296
4895 8077
4895 12600
4895 15492
4895 23148
4896 5339
4896 6533
4896 8651
4896 9349
4896 23334
4897 11302
4897 13048
4897 20513
4898 5227
4898 8138
4898 11896
4898 13055
4899 8202
4899 9338
4899 12900
4899 13665
4899 17259
4900 10751
4900 15335
4900 20230
4901 5279
4901 8097
4901 13353
4901 21194
4902 6089
4902 9187
4902 10529
4902 11029
4902 17479
4902 21854
4902 23508
4903 6681
4903 7353
4903 11780
4903 11890
4903 15660
4903 20955
4904 16768
4904 18632
4905 5369
4905 8638
4905 9353
4905 18783
4906 5005
4906 11671
4906 19346
4907 12010
4907 24201
4907 24340
4908 11444
4909 7144
4909 8948
4909 20237
4909 20266
4909 22589
4910 6318
4910 8137
4910 9273
4910 10650
4910 11679
4910 24429
4911 23915
4911 24026
4911 24372
4912 6043
4912 13305
4912 14444
4912 14904
4912 15886
4912 16912
4913 12303
4914 9152
4914 10517
4914 24421
4915 7871
4915 23713
4915 23752
4915 24292
4916 8330
4916 8789
4916 9973
4916 17522
4916 23388
4917 17596
4918 18375
4918 18998
4918 23100
4919 6917
4919 7245
4919 7863
4919 18256
4920 4923
4920 7037
4920 9111
4920 13472
4920 15651
4920 21493
4921 8534
4921 17493
4922 8534
4922 10103
4922 11321
4922 17493
4922 20359
4923 6593
4923 10232
4923 11319
4923 21201
4924 8718
4924 8929
4924 10765
4924 17688
4924 18778
4924 18985
4924 19993
4924 23506
4924 23530
4925 8717
4925 16665
4926 10465
4926 14122
4926 21013
4927 12159
4928 15641
4928 15642
4928 15647
4929 5723
4929 12378
4929 14477
4929 17525
4929 17896
4929 18855
4930 5542
4930 5584
4930 7284
4930 16654
4930 18587
4930 21052
4931 17830
4932 10680
4932 15702
4932 18828
4933 23346
4933 24355
4933 24450
4934 8026
4934 8800
4934 21614
4935 5515
4935 7291
4935 7847
4935 7864
4935 8611
4935 9028
4935 9092
4935 9466
4935 9509
4935 9790
4935 9924
4935 10078
4935 10097
4935 10697
4935 11316
4935 11568
4935 11695
4935 11708
4935 11728
4935 12104
4935 12143
4935 12263
4935 12322
4935 12799
4935 13167
4935 13356
4935 13614
4935 14223
4935 14667
4935 14673
4935 14703
4935 15504
4935 16507
4935 16828
4935 16992
4935 17241
4935 17785
4935 18086
4935 18385
4935 19318
4935 19997
4935 21746
4935 22064
4935 22313
4935 22542
4935 22606
4935 23438
4936 11446
4936 18502
4936 18521
4936 20699
4936 23912
4936 24436
4937 5121
4937 8221
4937 16220
4938 5902
4938 18282
4938 20896
4939 11523
4939 12519
4939 17911
4939 20503
4940 5603
4940 5902
4940 13189
4940 15604
4941 16948
4941 17248
4942 11049
4942 13368
4942 17276
4942 23538
4943 9068
4943 10869
4943 12182
4943 17281
4943 20546
4943 21379
4943 22018
4944 8714
4944 9672
4944 10759
4944 20531
4945 5277
4945 8309
4945 23874
4946 6624
4947 9100
4947 9691
4947 11861
4947 15991
4947 17687
4948 11516
4948 15087
4948 20763
4949 5011
4949 9053
4950 5194
4950 8378
4950 9420
4950 12838
4950 14788
4951 8062
4951 23243
4952 12177
4953 17587
4953 20646
4954 8226
4954 9370
4954 11919
4954 14077
4954 14233
4954 14883
4955 8656
4955 9011
4955 22179
4956 6799
4956 11348
4956 21906
4956 23434
4957 7125
4957 10447
4957 12001
4957 12055
4957 12161
4957 21295
4958 5133
4958 12635
4958 22942
4959 6543
4959 8426
4959 8546
4959 9550
4959 10706
4959 14275
4959 19517
4959 22283
4959 23147
4960 6647
4960 19855
4961 6045
4961 17234
4961 21398
4962 7504
4962 11865
4962 13655
4962 16606
4963 6231
4963 11002
4963 12674
4963 23213
4964 5964
4964 9492
4964 14518
4964 15751
4964 22504
4964 22770
4964 23198
4965 10412
4965 12046
4965 13295
4965 20682
4966 9237
4967 11047
4967 15987
4967 17050
4968 8930
4969 6719
4970 7297
4971 21245
4971 22260
4972 6347
4972 7027
4972 7620
4972 11045
4972 12454
4972 13538
4972 16905
4972 17847
4972 18590
4972 19548
4972 20492
4972 20504
4972 22094
4972 23545
4973 5282
4973 15597
4974 13059
4974 14877
4974 15167
4975 7827
4975 11955
4975 17560
4975 22555
4975 22828
4976 8676
4976 9019
4976 22010
4976 23510
4977 11134
4977 23854
4977 23856
4977 24424
4978 5561
4978 9354
4979 19824
4979 22904
4980 15569
4980 20702
4981 4982
4981 14915
4981 24282
4982 6158
4982 10785
4982 16225
4983 8857
4983 10555
4984 14266
4984 15898
4985 9923
4985 11636
4985 13697
4985 14460
4985 15784
4985 16757
4985 18494
4985 19464
4986 8124
4986 11248
4987 8019
4987 21820
4988 19731
4988 19770
4988 21923
4989 16768
4989 17447
4990 11261
4990 15898
4990 17843
4990 21145
4990 22562
4991 5879
4991 15687
4992 5063
4992 7198
4992 14561
4993 5750
4993 9340
4993 21556
4993 21614
4994 17438
4994 22713
4995 5174
4995 10721
4995 18157
4995 20219
4996 9591
4996 12903
4996 12905
4996 21636
4997 5277
4997 8309
4997 23787
4997 23915
4998 5651
4998 5882
4998 12372
4998 12459
4998 12601
4998 13018
4998 21476
5000 5505
5000 6566
5000 20164
5001 7744
5001 11170
5001 12117
5001 18474
5001 19127
5001 21659
5001 22466
5002 5486
5002 15418
5002 21144
5002 22786
5003 5636
5003 9014
5003 10030
5003 17521
5004 13054
5004 16098
5005 8664
5005 14238
5005 18217
5006 17626
5006 19772
5007 8290
5007 18149
5007 22138
5008 11114
5008 23301
5009 14974
5009 16133
5010 18886
5011 7973
5011 9476
5011 11894
5011 16650
5011 16678
5011 17962
5011 18042
5011 22159
5011 22258
5011 22918
5011 22968
5011 23358
5012 7434
5012 13302
5012 18415
5013 7733
5013 12580
5013 14556
5013 16138
5014 7464
5015 8472
5015 8727
5015 10931
5015 11067
5015 13750
5015 16228
5015 16617
5015 19143
5015 21186
5016 7215
5016 12977
5016 17538
5016 21370
5017 17472
5017 21209
5017 21635
5017 22315
5018 6023
5018 9378
5018 9468
5018 11962
5018 15497
5018 19967
5018 20093
5018 20207
5019 15159
5019 16455
5019 19040
5020 7355
5020 16363
5021 10411
5021 15204
5021 15696
5021 23653
5022 5461
5022 8297
5022 10049
5022 18160
5022 23542
5023 11165
5023 14245
5023 20995
5023 22761
5023 22831
5024 11165
5024 11172
5024 12295
5024 14245
5024 22761
5024 22831
5025 12547
5025 13286
5025 15092
5025 15547
5025 15563
5025 16248
5025 17266
5025 18540
5025 23880
5025 24306
5028 5798
5028 12303
5028 14486
5028 18900
5028 22053
5030 5031
5030 11036
5031 5561
5031 9716
5031 11035
5031 13154
5031 15285
5032 8946
5032 13045
5032 13696
5032 14302
5032 17781
5032 18441
5032 18711
5032 20058
5032 20921
5033 14874
5034 9741
5034 20794
5035 6520
5035 11127
5035 12299
5035 17105
5035 21139
5036 13964
5036 21805
5037 6719
5037 10245
5037 10571
5037 18908
5037 19590
5038 5177
5038 7632
5038 8299
5038 16788
5039 5120
5039 5459
5039 5701
5039 9336
5039 11063
5040 18846
5040 19586
5041 21489
5042 10026
5042 13448
5042 14010
5043 8055
5043 10571
5043 19227
5043 20096
5044 9103
5044 11545
5044 13484
5044 19043
5044 19712
5045 22088
5045 22692
5045 22854
5046 17333
5046 18852
5046 22222
5046 23326
5047 7362
5047 13172
5047 23731
5047 23798
5047 24416
5048 5318
5048 5319
5048 8538
5048 10225
5048 13729
5048 17334
5048 18038
5048 19213
5048 19239
5048 19494
5048 20916
5048 21368
5048 22500
5049 10974
5049 16054
5049 18031
5049 18147
5049 20510
5050 9174
5050 9703
5050 11203
5050 15079
5052 9393
5052 17851
5053 6823
5053 11697
5053 14191
5053 17567
5054 5171
5054 5470
5054 7451
5054 8512
5054 8688
5054 10779
5054 13590
5054 15589
5054 18982
5054 19465
5054 21006
5055 6142
5055 9112
5055 14023
5056 21865
5057 7182
5057 8414
5057 16096
5057 23780
5057 23862
5057 24460
5058 6187
5058 8414
5058 23862
5059 5328
5059 11185
5059 14115
5059 14312
5059 15125
5059 15372
5059 15632
5059 19008
5059 19573
5059 19650
5059 20184
5059 20376
5059 22287
5059 22327
5059 22549
5060 5185
5060 5996
5060 15653
5061 17214
5061 22709
5062 15913
5062 21117
5063 5521
5063 6792
5063 7394
5063 7406
5063 8084
5063 8112
5063 8353
5063 9052
5063 9429
5063 9463
5063 9822
5063 10564
5063 10833
5063 10953
5063 12342
5063 12508
5063 13123
5063 13256
5063 13380
5063 13852
5063 14079
5063 14199
5063 14208
5063 14561
5063 14833
5063 15350
5063 15752
5063 16640
5063 16793
5063 17456
5063 17536
5063 18049
5063 18230
5063 18327
5063 18422
5063 19055
5063 19359
5063 20617
5063 20704
5063 21128
5063 21276
5063 23858
5064 5951
5064 8458
5064 11555
5064 13879
5065 7972
5065 9096
5065 16561
5065 20053
5066 13747
5066 15411
5066 20132
5067 23970
5067 24485
5068 8520
5068 12105
5068 13326
5068 20849
5068 21138
5068 23484
5069 14579
5069 17147
5069 21505
5071 10314
5071 17133
5072 7274
5072 12576
5072 17556
5072 21468
5073 8434
5073 11602
5073 15013
5074 11790
5074 16067
5075 13532
5075 14178
5076 6156
5076 9498
5076 14102
5076 15292
5076 22734
5077 14502
5077 18624
5078 10659
5078 13939
5078 21405
5079 11750
5079 16786
5079 16787
5079 18497
5079 20702
5079 23227
5080 11980
5080 24078
5081 19952
5081 22386
5082 19227
5083 5730
5083 6029
5083 6248
5083 8386
5083 12447
5083 13268
5083 20308
5084 9085
5084 22443
5084 23726
5084 23848
5085 6150
5085 6866
5085 7482
5085 9142
5085 24482
5086 6964
5086 9596
5086 12150
5086 19543
5086 20014
5086 20242
5086 21604
5086 23505
5087 5560
5087 8654
5087 10150
5087 10999
5088 5129
5088 6352
5088 8419
5088 10941
5088 11390
5088 12924
5088 12927
5088 13659
5088 14629
5088 17424
5088 17540
5088 18262
5088 21527
5089 6207
5089 11404
5089 16185
5089 16851
5090 14316
5090 14823
5090 22099
5091 10095
5091 12778
5092 5746
5092 7178
5092 19326
5093 9450
5093 12866
5093 16926
5093 21804
5094 5805
5094 8290
5094 13122
5094 16340
5095 6011
5095 7621
5095 11158
5095 15571
5095 15907
5095 18741
5095 19354
5095 21713
5095 22395
5095 22605
5095 22754
5096 10086
5096 16656
5096 23933
5097 8757
5097 11219
5097 16639
5097 17337
5098 12488
5098 13567
5098 16334
5099 6674
5099 14974
5099 16133
5099 22394
5100 12888
5100 16100
5101 5795
5101 9607
5101 12047
5101 15201
5102 5104
5102 15294
5102 15456
5102 16072
5102 17308
5102 17309
5102 17310
5102 17803
5102 17960
5102 17964
5102 18107
5102 20067
5102 22505
5102 23340
5103 7977
5103 21556
5104 17310
5104 17312
5104 17936
5104 18105
5104 18107
5104 20067
5104 20324
5104 21347
5104 23114
5104 23204
5105 10169
5105 12640
5106 7141
5106 8486
5106 16713
5106 21986
5106 22685
5107 7683
5107 9172
5107 9824
5107 13992
5107 16641
5107 21292
5107 22227
5109 8306
5109 15973
5109 21262
5110 5557
5110 12152
5110 13488
5110 15364
5110 15786
5110 16949
5110 17311
5110 17935
5111 7277
5111 8093
5111 12551
5111 15050
5111 16859
5112 16875
5112 19651
5112 22748
5113 5353
5113 13845
5113 16093
5113 18361
5113 22701
5113 22757
5114 6092
5114 13036
5114 13131
5114 18699
5114 23290
5115 15928
5115 18241
5117 8383
5117 16933
5117 20734
5117 21517
5117 22473
5118 12233
5119 8198
5119 9296
5119 9691
5119 11214
5119 12620
5120 7184
5120 11063
5121 8103
5121 8221
5122 8341
5122 18293
5122 18425
5123 9168
5123 18623
5124 7388
5124 10060
5124 14522
5124 15422
5124 15769
5124 22884
5124 23425
5124 23969
5124 24005
5125 6903
5125 9781
5125 11125
5125 11366
5125 15258
5126 9536
5126 24164
5126 24272
5126 24427
5127 13740
5127 15569
5128 6881
5128 17828
5128 21452
5129 6455
5129 21527
5130 8248
5130 13598
5130 14017
5130 16652
5130 23558
5131 6728
5131 11583
5131 11707
5132 5328
5132 6538
5132 18998
5132 22116
5133 12635
5133 14705
5134 8080
5134 10366
5134 10373
5134 12525
5134 15153
5134 16215
5134 16498
5134 18351
5134 19245
5134 24258
5135 5188
5135 22662
5136 11650
5136 15230
5136 16076
5137 5283
5137 7888
5137 11921
5137 13166
5138 14337
5138 20999
5139 6335
5139 11676
5140 6789
5140 23891
5140 24167
5140 24213
5141 6789
5141 23891
5141 24167
5141 24213
5142 6789
5142 7225
5142 7919
5142 10085
5142 13705
5142 13706
5142 13891
5142 22924
5142 23838
5142 23891
5142 24167
5142 24213
5142 24249
5142 24308
5143 13883
5143 16993
5143 20543
5145 9410
5145 12598
5145 22377
5146 13232
5147 6551
5147 7024
5147 10831
5147 22822
5148 12722
5148 14680
5148 19151
5148 20389
5149 7942
5149 12897
5149 22716
5150 10465
5150 16858
5150 21013
5151 5316
5151 11747
5151 19995
5152 10047
5152 10259
5152 10369
5152 10371
5152 15081
5152 19246
5152 20810
5152 22779
5153 13827
5153 16995
5153 17110
5154 7750
5155 12786
5155 17625
5155 18821
5155 19009
5156 9386
5156 22170
5157 10397
5157 18910
5158 5205
5158 11935
5158 20503
5159 10687
5159 11806
5159 17866
5159 22692
5160 21929
5161 6180
5161 10025
5161 19209
5161 20138
5161 22061
5161 23579
5162 7758
5162 16977
5162 19028
5162 20599
5163 5563
5163 7797
5163 16665
5164 8102
5164 17978
5164 22962
5164 23473
5165 5166
5165 5838
5165 11323
5165 11325
5165 20736
5165 23856
5165 23954
5165 24424
5165 24426
5166 6232
5166 11324
5166 11325
5167 5916
5167 19811
5168 17305
5168 22856
5169 5255
5169 5753
5169 6561
5169 10494
5169 12660
5169 12933
5169 13892
5169 16500
5169 16854
5170 17270
5172 5789
5172 7972
5173 10989
5173 11347
5173 22343
5174 6780
5174 10426
5174 18157
5174 20219
5174 23759
5175 8171
5175 14681
5175 15369
5176 5180
5176 8199
5176 10418
5177 9158
5177 9482
5177 9915
5177 12065
5177 13054
5177 13063
5177 15263
5177 16534
5177 17609
5177 18118
5177 20666
5177 21215
5177 21382
5177 21893
5177 23260
5178 5180
5178 8199
5179 5275
5179 10418
5179 23735
5179 24154
5180 8517
5180 10418
5180 11349
5180 23968
5181 11444
5181 16250
5182 5200
5182 9706
5182 19030
5182 21980
5183 6348
5183 7428
5183 7530
5183 15605
5184 6348
5184 7428
5184 7530
5184 15605
5185 5996
5185 15653
5185 16655
5185 19076
5185 19078
5185 21523
5186 9241
5186 9351
5187 6088
5187 11155
5187 12975
5187 16434
5187 18650
5187 20900
5187 24007
5188 6437
5188 7331
5188 7353
5188 7413
5188 8711
5188 9707
5188 9855
5188 10534
5188 10592
5188 11520
5188 11856
5188 14268
5188 14597
5188 15812
5188 16112
5188 17232
5188 17756
5188 17787
5188 21538
5189 5508
5189 10972
5189 23023
5190 6051
5190 8023
5190 21770
5191 5317
5191 6467
5191 6632
5191 7089
5191 8535
5191 8886
5191 9116
5191 9298
5191 10181
5191 10528
5191 10799
5191 11730
5191 12909
5191 12962
5191 13478
5191 13818
5191 14175
5191 14365
5191 15206
5191 16823
5191 18071
5191 18194
5191 18631
5191 19544
5191 19846
5191 20304
5191 20892
5191 21029
5191 21219
5191 22365
5191 23620
5192 6826
5192 8261
5192 13114
5192 19205
5193 21844
5193 24157
5194 8378
5194 12838
5194 14516
5194 16289
5194 23576
5195 8358
5195 11684
5195 17260
5195 17749
5196 10735
5196 11592
5196 13629
5196 18285
5197 6129
5197 6162
5197 6632
5197 7650
5197 9547
5197 10799
5197 13553
5197 14175
5197 15544
5197 15566
5197 16149
5197 16194
5197 16823
5197 17096
5197 17376
5197 18391
5197 18631
5197 19846
5197 20718
5197 20892
5197 22530
5197 23216
5197 23620
5198 17360
5199 13450
5200 13250
5200 17173
5200 21980
5201 6382
5201 6438
5201 18021
5201 18178
5201 21515
5201 22145
5202 6954
5202 11033
5202 23748
5203 7527
5203 12357
5203 13561
5204 15828
5204 17894
5204 18796
5205 7520
5205 8115
5205 12154
5205 12306
5205 12605
5205 13859
5205 14141
5205 14736
5205 15611
5205 15749
5205 16588
5205 18392
5206 6915
5206 17785
5207 10353
5207 16238
5207 18477
5207 22832
5208 6092
5208 7204
5208 13036
5209 21224
5209 21800
5209 22209
5209 23511
5210 5939
5210 7799
5210 13489
5210 18389
5210 19231
5211 12383
5212 7484
5212 8914
5212 14134
5212 16146
5212 16480
5213 5500
5213 5738
5213 5746
5213 8557
5213 11046
5213 11182
5213 11909
5213 12022
5213 12230
5213 14991
5213 20336
5213 20644
5213 21448
5214 5215
5214 7903
5214 9615
5214 10771
5214 13105
5214 13196
5214 13593
5214 15086
5214 18537
5215 7903
5215 9615
5215 13105
5215 13196
5215 18537
5215 23399
5216 9211
5216 24324
5217 12117
5217 18474
5218 5247
5218 15121
5218 19418
5219 15488
5219 17824
5220 8885
5220 9259
5221 5881
5221 19597
5222 24164
5222 24272
5223 5632
5223 7554
5223 7989
5223 8927
5223 10118
5223 11680
5223 13354
5223 14295
5223 15325
5223 15915
5223 16377
5223 17429
5223 21706
5223 22296
5224 9873
5224 16615
5224 17331
5224 20845
5225 22543
5226 5611
5226 13171
5226 14986
5226 17544
5226 20939
5227 9007
5227 13055
5227 14969
5227 22319
5228 11630
5229 7251
5229 7783
5229 8082
5229 11113
5229 14182
5229 14855
5229 18211
5229 19312
5229 22166
5229 22665
5229 22869
5230 5798
5230 6249
5230 12303
5230 16922
5230 20968
5230 21230
5230 22083
5230 22506
5231 10739
5231 23132
5232 19115
5233 12144
5233 23981
5233 24480
5234 10046
5234 24146
5234 24160
5234 24310
5235 8432
5235 12277
5235 23960
5235 24337
5236 10671
5236 21161
5237 5915
5237 12702
5237 17650
5237 17697
5238 5691
5238 9082
5238 19414
5238 23612
5239 19134
5239 22332
5239 22784
5240 8016
5240 10828
5240 12581
5240 15767
5240 15879
5240 17423
5240 18647
5240 18668
5240 19275
5240 19979
5240 20907
5240 22487
5240 22648
5240 23777
5240 23786
5240 23999
5240 24052
5240 24053
5240 24082
5240 24471
5241 10397
5241 18910
5241 20556
5242 9458
5242 9778
5242 10235
5242 16392
5242 19108
5243 21786
5243 23167
5244 6510
5244 13084
5244 14016
5244 17169
5244 17771
5244 18229
5244 18280
5244 19780
5244 19919
5244 20859
5244 22929
5245 14570
5246 12479
5246 14222
5246 15020
5246 16761
5247 19052
5248 10566
5248 18851
5248 21103
5248 21104
5249 8533
5249 9902
5249 16424
5249 20880
5250 10586
5250 22281
5251 20008
5251 21681
5252 7465
5252 9253
5252 18970
5254 9281
5254 9969
5254 17471
5255 5753
5255 8029
5255 12130
5255 12660
5255 16500
5255 17261
5256 12303
5257 8880
5257 9588
5257 23305
5257 24351
5257 24394
5258 19190
5258 23678
5259 15963
5259 18844
5259 23437
5259 23444
5260 14978
5260 18333
5261 6469
5261 18235
5261 19269
5261 21132
5261 23172
5262 8124
5262 11248
5262 20166
5263 8493
5263 23952
5263 24476
5264 9402
5264 23661
5264 23816
5265 9638
5265 10604
5265 11861
5265 13669
5266 6870
5266 9515
5266 24078
5267 5809
5267 10425
5267 15415
5267 22310
5268 5328
5268 6388
5268 18286
5268 22116
5269 6095
5269 19643
5269 20489
5269 21564
5270 12479
5270 12481
5270 14222
5270 15147
5271 15658
5272 7661
5272 8471
5272 23075
5272 23964
5272 24478
5273 6803
5273 16562
5274 10861
5274 18536
5275 7495
5275 10847
5275 11296
5275 13342
5275 17982
5275 23235
5275 23741
5275 23765
5275 24019
5276 8309
5276 15178
5276 23874
5276 24071
5277 6888
5277 8309
5277 9113
5277 12345
5277 19493
5277 23787
5277 24071
5278 14877
5278 23369
5279 13353
5279 14074
5279 18897
5279 21194
5279 22773
5279 23906
5280 8515
5280 17611
5280 20847
5280 23515
5281 8792
5281 23931
5282 15597
5282 17926
5282 20218
5283 7888
5283 8915
5283 10070
5283 11866
5283 13017
5283 15404
5283 15783
5283 16848
5283 18556
5283 22978
5284 8774
5284 10753
5284 24239
5285 16529
5285 19733
5285 22750
5286 5514
5286 10701
5286 20019
5286 20020
5286 20021
5287 13763
5287 18059
5288 7651
5288 10046
5288 23878
5289 8837
5289 15032
5289 20165
5290 7888
5290 8915
5290 10070
5290 11921
5290 13166
5290 13433
5290 15783
5290 16709
5290 17026
5290 18365
5290 21760
5291 6027
5291 8233
5291 8893
5291 8970
5291 13383
5291 18829
5291 20412
5291 21643
5291 21916
5291 22328
5292 15707
5292 16942
5293 6311
5293 14204
5293 14779
5293 15136
5294 18028
5294 18786
5295 5379
5295 9238
5295 16514
5295 23058
5296 14573
5296 22885
5297 9882
5297 17168
5298 9609
5298 10588
5298 11334
5298 12223
5298 12448
5298 12487
5298 12558
5298 13412
5298 14399
5298 14526
5298 15541
5298 16402
5298 16525
5298 17087
5298 17221
5298 20560
5298 21887
5298 24491
5299 6401
5299 11842
5299 23735
5299 24425
5300 19973
5301 7719
5301 14035
5302 10628
5302 13083
5303 9040
5303 12571
5303 15814
5303 17830
5303 22140
5304 14098
5304 24395
5305 6851
5305 7078
5305 9123
5305 17016
5305 18601
5305 19019
5305 20762
5306 12433
5306 12929
5306 20597
5306 23162
5307 14003
5307 19299
5308 13776
5308 16736
5309 12101
5309 14364
5310 10993
5311 11019
5311 16635
5311 20565
5311 23415
5311 23662
5312 13870
5312 19923
5313 6416
5313 7172
5313 9919
5313 9947
5313 10986
5313 17849
5313 18238
5313 20207
5313 20825
5314 5854
5314 7639
5314 7640
5314 23876
5315 6068
5315 7800
5315 9265
5315 10596
5315 10756
5315 12948
5315 15080
5315 21214
5316 8737
5316 11747
5316 14132
5317 7089
5317 9239
5317 14597
5317 15301
5317 18071
5317 18631
5317 21029
5317 21273
5318 19239
5319 17334
5319 20210
5320 10120
5320 16312
5320 17094
5320 22857
5320 23032
5321 10341
5321 11380
5321 11437
5321 21700
5322 6758
5322 13487
5323 5608
5323 15567
5323 22460
5324 10369
5324 10372
5324 19245
5324 23679
5325 7888
5325 8156
5325 8457
5325 14874
5326 16447
5326 17818
5326 21714
5326 21722
5327 8916
5327 13288
5328 5752
5328 6388
5328 6629
5328 6899
5328 7123
5328 7162
5328 7392
5328 7547
5328 7907
5328 9165
5328 9356
5328 9578
5328 9720
5328 10355
5328 10478
5328 10594
5328 10605
5328 10893
5328 10948
5328 11460
5328 11835
5328 11857
5328 12422
5328 12602
5328 12797
5328 13012
5328 13741
5328 14001
5328 14200
5328 14425
5328 14618
5328 15125
5328 15186
5328 15441
5328 15469
5328 15551
5328 15964
5328 16213
5328 16348
5328 16553
5328 16677
5328 17135
5328 17321
5328 17571
5328 17805
5328 17992
5328 18998
5328 19049
5328 19177
5328 20183
5328 20184
5328 20240
5328 20947
5328 21967
5328 22116
5328 22327
5328 22383
5328 22669
5328 23320
5328 23517
5329 19112
5329 20066
5330 9872
5330 10358
5330 20771
5330 21339
5331 5853
5331 16580
5332 16584
5332 18061
5332 18880
5332 23138
5333 15148
5333 21317
5333 24407
5334 10593
5334 10814
5334 21740
5335 24463
5336 24468
5337 5820
5337 14924
5337 22203
5338 7827
5338 15238
5338 17560
5338 22555
5339 21576
5340 6407
5340 8353
5340 9052
5340 9429
5340 9463
5340 10564
5340 12508
5340 14199
5340 14833
5340 16640
5340 17217
5340 17456
5340 18422
5340 20083
5340 20617
5340 21809
5340 22418
5341 8700
5342 5343
5342 5345
5342 6765
5342 23715
5343 5345
5344 13135
5344 23069
5344 23321
5344 23804
5344 24144
5345 9215
5345 9530
5345 24379
5346 11946
5346 14286
5346 17206
5347 9678
5347 12056
5348 15601
5348 19914
5349 6742
5350 5351
5350 5352
5350 8311
5350 9080
5350 9337
5351 5352
5351 8311
5351 9690
5351 11635
5351 13192
5351 15701
5351 18941
5351 20832
5351 22158
5351 23107
5351 23806
5351 24418
5351 24419
5352 8311
5352 9690
5352 11635
5352 13437
5352 14055
5352 15069
5352 15701
5352 18941
5352 23806
5352 23902
5352 24169
5353 22701
5353 22757
5354 10175
5354 11506
5355 5471
5355 9765
5356 9396
5356 11682
5356 17273
5356 18467
5356 21326
5357 10893
5357 17305
5357 17992
5358 7932
5358 9789
5358 12266
5358 18501
5359 6639
5359 6640
5359 9612
5359 9613
5359 9792
5359 12419
5359 14988
5359 16280
5359 21096
5360 8530
5360 8908
5360 10877
5360 13428
5360 14633
5360 18196
5360 21200
5360 22114
5360 22375
5360 22703
5361 15189
5361 20972
5361 21053
5361 22919
5362 9414
5362 15424
5363 6978
5363 9183
5363 19031
5363 23917
5364 23765
5365 6299
5365 8346
5365 13451
5365 13570
5365 13962
5365 15720
5365 18932
5366 7450
5366 9485
5366 17047
5366 17257
5367 11911
5367 14757
5367 20697
5367 22064
5368 10893
5368 22287
5368 23552
5369 10434
5369 17175
5370 8527
5370 21134
5371 6495
5371 9173
5371 16208
5372 6391
5372 12043
5372 24022
5372 24252
5373 5691
5373 9082
5373 24037
5374 15615
5375 6714
5375 12099
5375 18659
5375 19432
5375 20696
5376 13272
5376 14451
5377 7771
5377 9965
5377 13005
5377 20248
5378 8413
5378 11464
5378 11513
5378 19988
5378 22913
5379 7048
5379 19719
5379 23058
5380 6338
5380 7007
5380 7061
5380 9339
5380 9562
5380 9889
5380 10089
5380 10173
5380 10981
5380 11301
5380 11528
5380 12054
5380 12858
5380 13458
5380 13929
5380 14471
5380 15299
5380 17245
5380 19248
5380 19281
5380 21769
5380 21779
5380 22132
5380 22573
5380 22815
5380 23310
5380 23849
5381 9505
5381 22023
5381 23591
5382 7646
5382 18001
5382 23072
5382 23214
5384 8004
5384 8479
5384 11061
5384 11592
5384 13059
5384 15167
5384 20447
5384 20521
5385 6014
5385 11531
5385 16276
5385 21551
5386 5532
5386 15628
5386 19908
5387 14400
5387 16021
5387 16908
5387 18867
5388 8290
5388 18747
5389 9211
5389 10640
5389 22419
5389 23994
5390 8990
5390 11530
5390 14584
5391 5487
5391 8760
5391 12656
5391 14558
5391 17913
5391 21996
5392 6584
5392 17550
5393 5893
5393 6319
5393 10117
5393 10897
5393 20645
5393 22055
5394 14070
5394 14934
5394 22021
5395 14376
5395 18911
5395 19959
5396 8390
5396 16536
5396 20176
5396 22184
5396 22812
5397 5559
5397 6438
5397 8794
5397 10860
5397 17246
5397 18178
5397 19497
5397 21969
5398 8452
5398 10647
5398 20783
5398 23415
5399 11120
5399 11521
5399 11628
5399 12826
5399 15174
5399 15996
5399 16380
5399 16754
5400 7031
5401 6758
5401 8947
5401 13487
5401 15360
5401 18868
5402 8274
5402 10814
5402 11929
5402 17279
5403 10703
5403 15031
5403 19537
5403 19796
5403 21341
5403 22936
5404 12021
5404 13050
5405 8930
5405 23820
5405 24284
5406 5889
5406 8576
5406 13427
5406 23294
5407 17735
5407 17862
5407 19744
5408 7888
5408 13166
5408 14874
5408 18781
5409 5432
5409 7449
5409 7786
5409 11625
5409 13343
5409 20382
5410 8017
5410 15350
5411 8574
5411 17676
5412 8064
5412 10485
5412 19824
5412 22592
5413 5490
5413 18165
5414 6539
5414 6928
5414 8369
5414 12244
5414 14271
5414 19536
5414 21577
5414 21585
5414 22417
5415 7571
5415 7580
5415 15450
5415 16492
5415 20467
5415 23170
5416 23964
5416 24099
5417 5418
5417 5419
5417 5954
5417 6342
5418 5954
5418 14546
5419 12614
5419 24124
5420 5555
5420 9137
5420 9735
5420 12868
5420 13526
5420 14411
5420 15083
5420 15747
5420 18719
5420 19547
5420 19882
5420 20655
5420 20713
5420 21614
5420 22020
5420 22445
5421 8931
5421 10906
5421 24320
5422 11746
5423 5516
5423 14452
5423 21677
5423 21739
5424 7072
5424 13055
5424 19911
5425 8328
5425 10747
5426 5902
5426 13189
5427 6730
5427 19134
5427 22332
5427 22784
5428 16302
5429 6458
5429 7187
5429 14831
5430 6931
5430 7993
5430 11387
5430 14559
5430 18751
5430 22454
5431 6173
5431 13976
5431 18395
5432 7786
5432 12015
5433 12897
5433 17025
5433 18567
5434 5479
5434 7021
5434 18806
5435 15586
5435 19025
5436 14408
5436 19185
5437 8754
5438 10344
5438 15170
5438 19492
5438 20112
5439 12723
5439 14706
5440 6297
5440 8725
5440 16512
5441 6332
5441 8875
5441 10100
5441 15344
5441 15717
5441 16779
5441 18573
5442 11416
5442 12537
5442 14340
5442 18416
5443 7640
5444 12074
5444 13451
5444 13962
5445 9863
5445 16753
5445 18530
5445 19046
5446 10245
5446 10571
5446 22841
5447 12512
5448 9821
5448 21362
5449 10604
5449 11214
5449 11861
5449 12633
5450 11118
5450 11196
5450 11214
5450 12620
5450 12774
5450 13367
5450 13704
5450 15293
5450 23011
5451 9874
5451 13983
5451 21339
5451 22719
5452 6931
5452 7993
5452 9376
5452 11387
5452 18751
5452 22454
5453 8026
5453 11199
5453 17687
5454 14321
5454 23369
5455 8990
5455 11530
5455 19452
5455 20545
5456 22526
5457 6367
5457 16022
5457 24035
5457 24231
5458 9982
5459 7043
5459 11839
5459 24177
5460 20152
5460 23407
5461 5809
5461 15415
5461 20636
5462 6502
5462 17032
5463 15621
5463 17032
5463 19663
5464 9458
5464 15548
5464 17101
5464 18030
5464 18899
5464 21615
5464 21852
5464 22311
5465 8630
5465 10587
5465 14690
5465 16335
5465 17061
5465 18417
5465 23610
5466 7928
5466 15580
5466 18808
5467 8026
5467 10604
5467 12620
5467 21593
5468 8019
5468 10736
5469 10147
5469 11233
5469 12564
5469 16159
5469 17128
5469 18465
5469 20608
5469 23402
5470 8688
5470 14272
5471 9100
5471 11861
5471 17687
5472 5907
5472 6965
5472 8483
5472 14438
5472 16207
5473 21335
5474 16660
5474 19318
5474 21658
5475 6395
5475 9608
5475 15324
5475 16909
5476 20997
5477 15059
5477 19691
5478 18419
5479 9461
5479 9821
5479 14908
5479 15839
5479 18806
5479 19567
5480 22904
5481 20966
5482 6512
5482 6896
5482 10593
5483 8564
5483 12617
5484 7942
5484 9074
5484 14573
5484 22193
5485 17603
5486 5497
5486 6838
5486 10975
5486 11146
5486 12330
5486 19111
5486 21144
5486 22786
5487 8760
5487 17913
5487 20957
5488 10463
5488 14602
5488 20277
5488 23297
5489 9529
5489 19022
5490 5617
5490 6261
5490 8113
5491 15363
5491 18175
5491 19053
5492 9501
5492 13179
5492 13620
5493 9285
5493 12027
5493 14611
5493 19931
5493 20723
5494 5679
5495 9780
5495 18333
5495 23887
5496 6949
5496 8245
5496 8551
5496 17566
5496 19506
5496 20071
5497 11146
5497 22036
5497 22786
5498 5820
5498 15988
5498 22203
5499 7669
5499 7876
5499 17467
5500 5746
5500 13267
5500 13842
5501 6537
5501 8366
5501 8685
5501 9257
5501 10003
5501 15008
5501 16622
5501 17637
5501 17667
5501 18455
5501 18692
5501 19140
5501 20677
5501 23038
5502 7990
5502 8977
5502 16160
5502 17163
5502 18166
5502 20377
5502 20714
5502 23492
5503 13157
5504 12610
5504 16263
5504 16264
5504 18158
5504 19646
5505 6742
5505 8853
5505 10998
5505 11068
5505 13766
5505 14579
5505 17955
5505 19785
5505 20490
5505 20780
5505 20958
5505 21007
5507 12722
5507 15868
5507 19191
5507 20341
5507 22246
5508 7673
5508 10797
5508 10841
5508 17339
5508 18708
5508 20252
5509 13287
5510 10921
5510 16876
5510 22269
5511 9226
5511 11610
5511 12847
5511 15840
5511 19939
5511 21593
5511 21614
5511 22262
5511 22445
5512 11819
5512 19304
5513 8909
5513 17196
5514 10700
5514 10701
5514 20019
5515 15351
5516 6552
5516 14282
5516 14452
5516 22042
5517 9670
5517 15423
5517 16156
5517 22040
5518 11808
5518 13883
5518 16211
5519 9009
5519 9618
5519 9619
5519 24389
5520 11908
5520 20503
5521 14079
5521 18049
5521 18962
5521 19055
5522 13235
5522 21008
5523 7326
5523 7367
5523 8543
5523 10362
5523 13093
5523 13672
5523 13881
5523 15392
5523 15983
5523 17155
5523 21472
5523 21567
5524 7644
5524 14975
5524 15557
5524 18153
5525 24166
5526 5637
5526 5862
5526 7714
5526 8579
5526 8835
5526 8849
5526 8899
5526 8933
5526 9885
5526 11050
5526 11298
5526 11480
5526 11910
5526 12293
5526 12548
5526 13654
5526 14105
5526 14180
5526 15464
5526 17088
5526 17305
5526 17586
5526 17645
5526 17950
5526 20061
5526 20212
5526 21539
5526 22065
5526 22646
5526 22862
5526 23771
5527 7256
5527 9942
5527 19240
5528 8753
5528 11476
5528 12819
5528 19022
5529 24016
5529 24043
5529 24452
5530 12957
5530 13802
5530 17072
5530 18101
5530 20451
5530 21074
5530 23513
5531 10275
5531 11237
5531 20484
5532 10509
5532 11138
5532 14581
5532 15628
5532 19908
5532 20924
5532 23352
5533 15123
5533 15631
5533 19925
5533 21562
5533 23244
5534 21496
5534 22242
5535 6346
5535 6885
5535 20056
5536 6346
5536 6885
5536 20056
5537 6571
5537 13910
5537 19079
5537 19942
5538 12579
5539 11777
5539 18050
5539 20732
5540 7564
5540 13226
5540 15988
5540 17034
5540 19367
5541 5843
5541 6004
5541 6432
5541 12253
5541 12568
5541 13078
5541 17248
5541 20110
5542 5584
5542 5820
5542 7284
5542 10885
5542 12493
5542 14622
5542 14698
5542 15539
5542 15711
5542 16418
5542 22974
5543 8993
5543 10168
5543 15390
5543 16074
5543 16075
5544 13603
5544 14953
5545 7063
5545 7337
5545 7708
5545 14962
5545 17174
5545 17976
5545 20559
5545 23604
5546 7254
5546 7336
5546 19358
5547 9569
5547 17419
5547 21673
5548 6979
5548 7375
5548 7608
5548 8961
5548 10988
5548 15219
5548 16376
5548 19402
5548 23706
5548 24271
5549 12314
5549 12653
5549 14691
5549 15379
5549 15942
5549 19451
5549 22999
5550 9293
5551 5913
5551 18890
5551 21183
5551 22163
5551 22360
5552 5588
5552 8857
5553 5604
5553 5766
5553 6702
5553 6798
5553 7941
5553 9705
5553 10028
5553 10102
5553 11619
5553 11668
5553 11930
5553 12120
5553 13636
5553 16176
5553 17642
5553 18680
5553 19145
5553 20291
5553 20491
5553 20797
5553 21189
5553 21325
5553 22130
5553 22208
5554 5969
5554 11841
5554 11850
5555 10063
5555 15747
5555 21556
5556 24067
5557 15786
5558 8864
5558 8865
5558 13301
5558 13873
5558 13877
5558 15834
5558 15838
5558 21229
5559 6438
5559 8794
5559 10860
5559 19497
5560 8654
5560 10150
5560 10999
5560 11816
5560 17380
5560 19152
5560 21153
5560 23282
5561 6595
5561 9354
5561 9716
5561 11036
5561 15285
5561 21914
5561 22520
5562 13234
5562 16836
5562 18822
5562 18823
5562 18825
5562 22133
5563 5985
5563 7945
5563 8372
5563 11972
5563 14034
5563 14059
5563 15809
5563 19196
5563 20779
5563 21079
5563 21943
5563 22232
5563 23530
5564 10215
5564 16541
5564 23047
5566 10215
5566 14270
5566 16541
5566 23047
5567 7856
5567 12351
5567 20823
5568 6593
5568 16200
5568 17313
5568 17315
5568 17316
5568 17319
5568 19870
5569 8213
5569 8306
5569 21262
5570 5571
5570 5572
5570 8840
5570 8841
5570 8843
5570 8844
5570 10343
5570 12524
5570 18478
5571 5572
5571 8841
5571 8844
5571 10343
5571 12524
5572 8840
5572 8844
5572 10343
5572 12524
5572 18478
5573 6591
5573 13809
5573 16197
5573 16201
5573 19876
5574 6254
5574 7905
5574 15275
5574 17182
5575 19304
5575 19305
5575 19307
5575 20316
5575 20317
5576 7766
5576 11394
5576 19241
5577 6915
5577 17305
5578 13479
5578 17359
5578 21401
5579 7674
5579 10035
5580 21061
5580 22675
5581 14692
5581 16671
5582 10903
5583 7288
5583 7766
5583 11944
5584 7811
5584 15519
5585 18548
5585 22852
5586 5588
5586 6611
5586 8857
5586 9089
5586 12676
5586 16475
5586 19801
5586 22723
5587 9055
5588 6611
5588 8857
5588 9089
5588 15065
5588 16475
5588 18209
5588 18836
5588 19801
5588 22948
5589 8880
5589 9588
5589 24351
5589 24394
5589 24466
5590 14933
5590 22913
5591 10307
5591 13289
5591 15131
5591 16982
5591 17254
5592 6540
5592 8845
5592 14648
5592 14649
5592 21083
5593 7861
5593 8144
5593 16566
5594 18193
5594 20341
5595 8054
5595 14051
5595 14865
5595 19139
5595 21147
5596 5945
5596 15806
5596 18557
5596 20028
5596 20030
5597 5972
5597 6067
5597 8290
5597 8336
5597 17662
5598 7457
5598 12308
5598 12521
5598 16490
5598 17595
5598 17970
5598 19598
5598 23284
5599 14558
5599 17322
5599 17773
5600 8605
5600 16388
5600 18194
5600 18721
5601 13628
5601 13892
5602 11870
5602 11911
5602 14671
5602 22064
5603 5902
5603 15604
5604 11619
5604 13210
5605 11757
5605 11838
5606 7498
5606 15100
5607 9043
5607 23940
5607 24422
5608 10262
5608 15567
5608 20451
5608 22998
5609 10853
5609 11569
5609 20660
5610 6440
5610 10250
5610 14496
5611 13171
5611 14986
5611 17544
5612 6044
5612 16765
5613 15997
5613 21131
5614 10413
5614 19872
5615 23252
5615 24363
5616 5801
5616 9768
5616 12573
5616 14504
5616 17596
5616 20754
5617 8113
5617 18165
5619 5693
5619 7163
5619 7748
5619 12082
5619 12083
5619 23896
5619 24387
5620 7327
5620 11966
5620 22074
5621 6655
5621 9104
5621 10571
5621 12561
5621 15157
5621 15297
5621 19845
5622 7296
5623 9289
5623 13864
5623 22801
5624 9114
5624 14709
5624 23281
5625 6922
5625 18189
5625 20404
5626 15246
5626 22007
5627 9455
5627 13841
5627 14679
5627 18132
5627 21355
5627 22966
5627 23233
5628 5710
5628 12004
5628 15338
5629 11704
5629 15746
5629 17017
5629 22330
5630 8391
5630 18646
5630 19687
5631 7400
5632 14295
5632 21706
5632 22296
5633 7977
5633 21614
5634 10082
5634 19562
5635 22696
5636 14844
5636 15823
5636 17440
5636 17521
5636 18162
5638 10838
5638 19748
5638 23600
5639 16331
5639 16943
5640 8551
5640 16882
5640 17566
5640 19506
5641 8823
5641 10470
5641 12897
5641 16446
5641 21240
5642 8306
5642 15281
5642 18580
5642 20393
5643 12071
5643 15283
5643 17288
5643 17289
5643 23159
5644 7432
5644 11209
5644 17115
5644 18813
5644 19066
5644 19508
5645 7042
5645 12729
5645 22135
5646 8966
5646 9623
5646 10852
5646 13385
5646 13434
5646 13667
5646 15639
5646 16007
5646 16928
5646 18110
5646 18792
5646 19348
5646 20353
5646 21959
5646 23218
5647 15264
5647 15795
5647 19636
5648 14048
5649 12101
5649 18223
5649 20343
5650 11302
5650 22333
5650 23712
5651 5882
5651 8968
5651 12459
5651 17201
5651 21476
5652 7618
5652 18299
5652 18771
5652 22123
5653 14296
5653 15995
5653 21958
5653 22195
5654 12099
5654 16785
5654 20696
5655 14372
5655 17033
5655 18696
5656 9387
5656 10303
5656 13332
5656 18127
5656 22347
5657 8750
5657 12700
5657 15683
5657 19147
5657 21623
5658 7687
5658 14282
5658 17141
5659 9436
5660 10597
5660 14299
5660 14919
5661 9024
5661 9894
5661 13923
5661 22570
5662 7818
5662 7819
5662 7821
5662 7822
5662 12067
5663 11331
5663 15437
5663 20261
5663 23146
5664 12071
5664 22771
5665 7328
5665 11821
5665 15446
5665 16484
5665 19903
5666 9703
5666 10368
5666 14012
5666 14261
5666 18885
5666 20803
5667 5951
5667 11555
5667 17605
5668 11027
5668 13133
5668 13630
5668 20422
5668 22533
5669 11942
5669 11973
5669 13088
5669 19793
5669 20727
5670 7175
5671 15053
5671 17981
5671 19834
5672 7798
5672 19727
5672 20345
5672 21799
5672 22791
5673 12333
5673 20093
5674 11577
5674 11838
5674 14951
5675 14602
5675 21172
5676 5832
5676 6783
5676 6985
5676 9599
5676 10431
5676 13775
5676 15035
5676 15225
5676 21960
5677 6133
5677 18782
5677 19923
5678 7041
5678 18876
5679 5826
5679 5849
5679 7110
5679 8470
5679 9848
5680 13391
5681 7807
5681 9549
5681 10661
5681 10723
5681 13298
5681 16538
5681 19582
5682 7218
5682 24279
5683 22053
5683 23028
5684 10481
5684 15128
5684 19486
5685 5973
5685 8200
5685 17384
5686 12010
5686 24202
5687 12523
5687 12943
5688 10058
5688 15627
5688 18504
5688 21698
5689 7071
5689 19582
5690 6008
5690 9584
5690 13525
5690 15635
5690 16675
5690 22935
5691 7442
5691 8327
5691 9082
5691 9144
5691 10375
5691 11596
5691 12315
5691 19414
5691 23612
5691 23988
5691 23998
5691 24037
5692 6306
5692 7033
5692 8242
5692 9620
5692 14084
5692 14279
5692 15319
5692 15560
5692 22877
5692 24363
5693 12082
5693 23896
5693 24028
5693 24148
5694 11307
5694 12595
5694 22306
5695 5697
5695 11453
5695 23835
5695 24008
5695 24375
5696 18355
5696 20355
5697 11453
5697 18167
5697 23075
5697 23835
5697 24375
5697 24478
5698 6853
5698 8213
5698 17462
5699 8930
5699 24083
5699 24173
5700 7828
5700 9048
5700 14708
5700 19341
5701 7087
5701 9336
5701 11063
5701 17931
5701 21063
5702 16302
5703 12079
5703 15145
5703 16293
5703 19381
5703 20063
5703 21437
5704 6057
5704 6609
5704 7792
5704 8140
5704 15719
5704 20073
5704 22273
5705 8857
5705 14482
5706 6056
5706 8892
5706 12892
5706 14287
5706 20479
5707 7397
5707 12438
5707 12439
5707 22763
5708 24403
5708 24485
5709 9833
5709 11491
5709 14326
5709 15304
5710 11220
5710 13961
5710 20174
5711 7743
5711 23820
5711 24284
5712 6493
5712 12108
5713 9063
5713 15812
5714 5792
5714 6925
5714 7173
5714 7668
5714 8170
5714 12047
5714 19397
5714 20320
5714 20332
5715 20137
5715 20882
5715 22993
5716 12140
5716 13696
5716 14020
5716 17781
5716 20921
5716 22516
5717 5741
5717 15041
5718 9238
5718 22575
5719 24288
5719 24406
5720 6719
5720 12348
5721 6144
5721 6825
5721 14136
5721 14251
5721 18158
5721 18580
5721 18656
5721 19808
5722 14251
5722 18158
5723 12378
5723 13132
5723 15010
5723 17525
5723 18008
5724 8922
5724 9828
5725 15351
5726 14265
5727 8543
5727 17155
5728 24072
5728 24313
5729 7319
5729 8785
5729 16818
5729 22216
5730 7415
5730 9352
5730 11605
5730 12447
5730 16825
5730 20308
5731 11692
5731 19844
5732 9969
5732 15129
5732 17055
5733 7190
5733 14363
5733 15991
5734 7743
5734 22013
5734 23633
5734 24284
5734 24365
5735 7001
5735 15538
5735 16777
5736 10529
5736 21854
5736 23508
5737 8978
5737 11195
5737 17220
5738 5746
5738 13842
5739 5871
5739 9170
5739 21508
5739 21721
5740 7479
5740 8471
5740 23964
5741 11425
5741 13573
5741 13576
5741 14600
5741 15041
5741 16254
5741 17362
5741 17901
5741 20088
5742 10042
5742 10174
5742 12219
5743 7764
5743 14047
5744 14585
5744 21593
5745 10410
5746 8557
5746 9240
5746 11182
5746 11226
5746 11909
5746 11943
5746 12022
5746 12230
5746 13267
5746 13842
5746 14991
5746 19297
5746 19326
5746 20336
5746 21531
5746 22090
5746 22963
5747 7915
5747 16722
5747 17515
5748 8681
5748 18189
5748 18674
5748 20404
5749 12597
5749 13663
5749 14177
5749 23596
5750 19576
5751 8507
5751 9374
5751 11846
5752 6388
5752 18286
5752 18998
5753 21162
5754 21581
5754 21591
5755 5916
5755 7535
5755 19811
5756 10128
5756 15440
5756 23067
5757 10322
5757 19940
5758 8754
5758 11661
5758 12771
5758 18694
5758 22157
5759 13909
5759 22288
5760 15724
5760 22879
5761 8137
5762 17235
5762 18780
5762 22701
5762 23345
5763 8160
5763 9877
5763 24109
5763 24239
5764 6163
5764 22659
5764 22750
5765 10325
5765 16982
5766 11619
5767 10129
5767 14185
5767 19601
5768 7188
5768 9914
5768 21652
5769 9394
5769 14751
5769 19224
5770 8706
5770 14998
5770 17864
5770 20996
5770 23019
5771 7237
5771 13023
5771 17992
5772 6435
5772 15902
5772 17136
5772 17916
5772 18137
5772 18859
5773 7794
5773 15434
5773 18077
5773 22992
5774 12309
5774 13387
5774 13519
5774 20642
5774 20840
5774 20950
5775 15171
5775 18975
5775 19091
5776 5794
5776 17989
5776 18364
5776 22489
5777 12813
5777 13941
5777 16501
5778 7401
5778 11790
5778 18688
5779 5780
5779 5782
5779 8254
5779 12908
5779 12910
5779 12995
5779 15249
5779 16297
5779 18355
5779 20554
5780 12221
5780 22672
5781 8207
5781 13148
5781 16406
5781 18983
5781 19407
5782 6897
5782 11739
5782 16297
5782 23036
5782 23474
5783 13208
5783 15755
5783 17142
5784 7959
5785 8064
5785 12242
5785 12691
5785 13974
5785 19824
5785 20853
5786 7193
5786 8959
5786 13062
5786 21610
5787 6503
5787 10002
5787 13376
5787 17774
5787 17775
5787 18788
5787 18789
5787 18892
5787 19804
5788 10935
5788 13660
5788 20862
5789 7972
5789 9326
5790 6206
5790 8358
5790 22678
5791 8957
5791 10680
5791 15869
5791 23316
5792 5795
5792 7668
5792 15201
5792 15709
5793 12279
5793 12470
5793 17402
5794 20008
5794 20650
5794 21681
5795 6137
5795 6474
5795 7230
5795 8170
5795 9910
5795 10737
5795 10818
5795 11056
5795 12049
5795 12193
5795 12209
5795 12354
5795 12414
5795 13070
5795 15201
5795 15501
5795 15709
5795 16142
5795 16356
5795 16913
5795 16925
5795 17938
5795 19219
5795 19577
5795 19627
5795 20332
5795 20728
5795 21192
5795 21588
5795 22089
5795 23023
5795 23060
5796 6834
5796 7972
5796 9096
5796 9326
5796 17857
5796 20075
5797 5915
5797 8516
5797 10871
5797 18525
5797 21356
5798 9728
5798 11003
5798 11040
5798 11263
5798 12303
5798 12367
5798 12808
5798 13548
5798 13611
5798 13720
5798 15992
5798 16521
5798 16643
5798 16906
5798 17143
5798 17144
5798 17537
5798 17745
5798 18579
5798 18832
5798 19550
5798 20064
5798 21692
5798 22714
5798 23272
5799 23732
5799 23921
5799 24204
5800 6565
5800 8001
5800 13360
5800 19673
5800 23240
5801 11166
5801 20754
5802 17351
5802 18347
5803 9101
5803 13913
5803 20851
5803 21817
5804 6332
5804 17675
5804 23219
5805 13122
5805 22138
5806 7931
5806 17713
5806 20282
5807 7853
5807 15491
5807 15514
5807 20458
5808 8369
5808 15245
5808 18191
5809 6329
5809 7435
5809 7443
5809 7548
5809 8138
5809 8297
5809 8463
5809 8590
5809 9366
5809 9573
5809 10049
5809 10484
5809 10899
5809 12298
5809 12612
5809 12701
5809 12736
5809 13937
5809 14085
5809 16744
5809 17731
5809 18160
5809 18360
5809 19011
5809 20126
5809 20205
5809 21322
5809 22525
5810 7357
5810 7764
5810 8144
5810 8888
5810 10064
5810 10900
5810 14047
5810 16775
5810 21266
5811 10172
5811 12763
5811 20082
5813 7166
5813 10460
5813 12456
5813 12841
5813 22985
5813 23362
5813 23471
5813 24293
5813 24396
5814 16433
5814 23052
5814 23306
5814 23326
5815 19515
5815 23045
5816 12438
5816 12439
5816 18341
5816 18343
5816 20131
5817 8857
5817 13870
5817 18166
5817 19923
5818 8628
5818 12043
5818 18592
5818 20725
5818 24059
5818 24155
5818 24266
5818 24270
5818 24378
5819 17075
5819 18111
5819 21207
5819 23229
5820 6480
5820 6880
5820 6999
5820 7192
5820 7811
5820 9067
5820 9260
5820 11925
5820 12343
5820 12471
5820 12493
5820 12783
5820 13248
5820 13634
5820 14924
5820 15101
5820 15215
5820 15877
5820 15878
5820 16698
5820 16946
5820 17411
5820 17627
5820 19101
5820 19616
5820 20144
5820 20170
5820 20774
5820 22203
5820 22361
5820 22401
5820 22954
5821 11002
5821 11930
5821 23196
5821 23266
5822 7107
5822 8393
5822 17622
5823 11634
5823 13365
5825 22892
5825 23417
5825 24024
5825 24264
5826 9848
5826 13011
5828 17978
5828 19828
5828 22962
5829 18344
5829 18631
5829 20313
5830 21471
5831 9138
5831 13959
5832 10431
5832 14716
5832 15035
5833 9417
5833 16017
5833 20569
5833 23523
5835 7170
5835 13592
5835 22237
5836 6446
5836 11100
5836 11946
5836 13242
5836 22979
5837 23802
5837 24309
5838 6232
5838 11324
5839 13513
5839 20594
5839 20852
5840 5897
5840 8558
5840 8885
5840 8984
5840 9259
5840 10658
5840 11881
5840 13492
5840 13531
5841 6832
5841 17760
5841 23772
5841 23797
5842 8352
5842 10563
5842 12374
5842 13532
5842 16082
5843 5917
5843 17248
5843 20110
5844 12303
5844 15735
5844 16275
5845 15530
5845 15951
5845 20275
5845 21235
5846 17042
5846 18543
5846 22193
5848 6254
5848 6577
5848 13920
5848 15358
5849 5984
5849 8470
5849 14509
5850 7333
5850 14642
5850 16309
5850 22535
5851 9040
5851 12571
5851 17830
5851 18199
5852 8857
5852 12776
5852 14333
5853 5918
5853 13532
5854 7640
5854 23802
5855 5870
5855 17112
5855 18534
5856 11213
5856 15750
5856 16394
5857 11139
5857 12533
5857 16076
5858 12726
5858 20518
5858 23452
5859 23719
5859 23952
5859 23999
5859 24467
5860 11092
5860 23094
5861 8846
5861 11153
5861 13400
5861 18950
5861 19784
5862 22856
5863 16020
5863 19746
5863 20911
5863 21930
5863 22341
5864 7186
5864 15617
5864 16290
5864 18362
5865 8385
5865 8438
5865 12745
5866 12692
5866 18702
5867 13136
5867 16223
5867 22676
5867 23258
5868 12509
5868 14880
5869 11959
5869 13200
5869 16867
5870 15470
5870 15624
5870 18004
5870 18534
5870 22154
5871 16669
5871 21721
5871 22499
5872 13870
5872 23200
5872 23492
5873 14573
5873 21181
5873 22885
5875 11704
5875 14253
5875 16285
5876 11986
5876 14852
5876 19131
5877 14817
5878 14877
5879 6112
5879 14585
5879 15687
5880 7616
5880 8674
5880 10176
5880 12994
5880 13664
5880 16355
5880 21149
5881 17346
5881 20121
5881 21290
5881 21490
5882 7132
5882 12459
5883 10935
5883 22739
5883 23369
5884 6832
5884 23772
5885 5887
5885 6917
5885 20480
5886 6917
5886 14472
5886 17968
5886 20480
5887 6917
5887 14472
5887 15193
5887 20480
5888 8427
5888 17653
5888 20545
5888 22998
5889 5930
5889 7040
5889 7073
5889 7356
5889 7559
5889 8056
5889 8473
5889 8576
5889 8690
5889 8842
5889 9008
5889 10321
5889 12320
5889 13427
5889 14541
5889 15655
5889 17640
5889 19261
5889 20744
5889 21106
5889 21232
5889 23294
5890 6149
5890 6934
5890 9213
5890 19723
5890 19891
5890 22134
5891 11123
5891 12588
5891 19989
5891 20256
5892 8666
5892 8667
5894 14590
5894 15470
5894 19674
5895 6546
5895 11228
5895 14494
5895 15093
5895 21857
5896 11010
5896 11760
5896 11941
5896 12135
5897 6731
5897 13492
5897 22988
5898 8857
5898 17163
5898 23200
5899 19840
5899 21529
5899 22082
5900 6633
5900 15422
5900 24005
5901 10182
5901 12386
5901 17749
5901 23319
5902 10318
5902 13189
5902 14829
5902 19930
5902 20896
5902 21860
5903 6947
5903 9229
5903 9633
5903 10317
5903 11443
5903 13075
5903 13221
5903 13753
5903 15875
5903 17524
5903 20582
5903 21908
5904 5916
5904 7315
5904 15483
5905 20969
5905 20977
5905 23588
5906 10571
5906 12348
5906 20667
5906 22904
5907 8483
5907 14438
5907 14719
5907 18853
5907 21524
5909 6950
5909 13760
5909 21269
5910 23908
5910 24310
5911 24160
5911 24310
5912 7000
5912 13181
5912 14657
5912 22849
5913 8209
5913 9230
5913 18896
5913 19506
5913 20071
5913 20816
5914 7365
5914 9276
5914 11514
5914 13314
5914 14167
5914 19603
5914 21402
5915 6550
5915 8516
5915 10522
5915 10871
5915 12702
5915 17650
5915 20869
5915 21356
5915 23475
5916 6515
5916 7315
5916 9750
5916 9913
5916 10614
5916 10946
5916 12133
5916 12339
5916 12786
5916 15483
5916 16633
5916 17625
5916 17855
5916 18006
5916 18821
5916 19089
5916 19533
5916 19599
5916 19811
5916 19977
5916 21731
5917 10762
5917 17248
5917 23157
5918 6616
5918 8003
5918 8859
5918 9128
5918 9289
5918 10299
5918 12374
5918 12698
5918 15754
5918 16815
5918 18121
5918 18460
5918 19713
5918 20557
5918 22393
5918 22603
5918 23285
5919 8671
5919 12109
5919 15358
5920 10820
5920 19603
5921 23661
5921 23981
5921 24257
5922 9244
5922 9245
5922 16985
5923 15428
5923 20632
5924 19061
5924 22261
5924 23648
5924 24159
5925 15502
5925 16245
5926 9325
5926 14018
5926 14259
5926 15350
5927 18335
5927 20298
5927 20665
5928 9364
5928 13564
5928 17812
5929 13297
5929 13922
5930 6451
5930 17071
5930 18298
5930 18854
5931 6297
5931 22164
5932 6840
5933 17417
5934 7984
5934 24041
5934 24152
5934 24428
5935 9962
5935 11244
5935 14916
5935 17589
5936 8797
5936 18142
5936 20879
5936 22079
5937 13788
5937 16429
5937 22359
5938 6597
5938 10414
5938 11117
5939 17281
5939 18791
5939 20546
5940 9394
5940 11142
5940 13622
5940 14254
5940 18440
5940 18665
5940 18689
5941 8625
5941 10452
5941 12192
5941 12846
5941 17738
5941 19557
5941 20784
5941 23441
5942 13364
5942 17353
5942 18943
5944 9929
5944 12951
5944 12955
5944 14381
5944 17250
5945 16053
5945 20024
5946 7995
5947 9196
5947 13279
5947 18695
5947 20402
5947 22624
5948 6081
5948 7075
5948 11335
5948 11427
5948 17059
5948 20782
5949 8913
5949 13334
5949 15107
5949 20652
5950 9982
5950 23244
5951 8091
5951 9331
5951 9830
5951 12856
5951 17605
5951 19136
5951 20035
5952 6292
5952 15399
5952 21257
5953 10167
5953 11459
5953 18586
5953 22680
5954 12614
5954 24124
5955 7769
5955 20082
5956 6541
5956 7796
5956 10222
5956 12113
5956 12596
5957 12042
5957 22443
5957 24142
5957 24163
5957 24213
5957 24456
5958 13199
5958 18524
5958 19661
5959 6285
5959 9188
5959 16948
5959 17248
5959 18076
5960 6353
5960 8721
5960 16099
5960 20417
5960 20982
5960 21178
5960 21305
5961 7993
5962 18610
5962 18768
5963 9209
5963 9363
5963 15107
5963 20123
5963 20652
5964 8955
5964 9492
5964 13347
5964 15751
5964 16397
5964 18464
5964 22124
5964 22770
5964 23198
5965 12859
5965 13082
5965 14128
5966 11435
5966 13785
5966 18363
5966 19856
5966 20771
5966 21039
5967 14981
5967 16495
5967 19963
5968 8916
5968 17768
5968 20979
5968 23255
5969 9369
5969 19991
5970 21107
5971 17730
5972 8290
5972 10199
5972 13122
5972 22138
5973 8403
5973 11773
5973 13209
5973 16343
5973 17384
5973 18359
5973 21474
5973 22081
5973 22938
5973 23327
5973 23524
5974 7623
5974 12549
5974 13909
5974 22465
5975 10756
5975 11736
5975 12390
5975 21214
5976 6793
5976 15354
5976 16973
5977 9519
5977 23756
5977 24169
5978 9723
5978 24076
5978 24169
5979 9979
5979 10354
5979 11243
5979 14170
5979 18315
5981 12876
5981 17080
5981 18328
5981 19086
5981 21456
5982 9754
5982 9755
5982 20427
5983 6199
5983 7635
5983 24145
5984 21511
5985 14120
5985 14251
5986 11057
5986 12289
5986 24225
5987 10401
5987 13344
5987 17188
5987 19455
5988 10804
5988 11238
5988 12358
5988 12360
5988 22126
5990 11169
5990 17732
5991 8493
5992 8149
5992 12675
5992 15774
5992 18842
5992 19167
5992 24352
5992 24404
5993 10905
5993 11230
5993 19173
5994 6076
5994 8507
5994 9374
5994 10511
5994 18797
5994 19873
5994 23799
5995 6516
5995 7787
5995 21263
5996 15653
5996 19078
5997 8266
5997 9206
5997 16768
5998 18685
5998 18918
5999 13718
5999 15265
6000 7842
6000 13843
6000 14954
6000 15757
6000 18380
6000 20177
6000 20884
6001 12716
6001 14110
6001 15845
6001 20228
6002 6140
6002 10335
6002 11841
6002 23130
6003 6092
6003 12693
6003 15337
6004 12740
6004 16948
6005 10893
6006 15828
6006 22045
6007 6286
6007 24157
6008 12616
6008 19554
6008 22935
6009 6785
6009 13552
6009 14782
6009 17791
6010 7013
6010 8177
6010 9100
6012 6014
6012 11531
6012 21551
6013 9082
6013 23988
6014 15590
6014 16196
6014 21060
6015 11492
6015 12725
6015 16839
6016 15376
6016 19729
6017 7154
6017 11492
6017 12363
6017 13682
6017 14699
6018 8212
6018 10231
6018 22764
6019 10340
6019 15348
6019 15801
6020 14219
6020 14322
6020 15873
6020 18000
6020 18746
6020 21620
6021 7684
6021 11508
6021 24168
6022 12102
6022 14957
6022 21640
6023 11803
6023 14537
6023 15497
6023 18255
6023 18660
6023 20093
6023 20207
6023 22712
6024 6693
6024 11698
6024 23709
6024 23779
6025 13289
6025 17594
6025 18622
6026 7471
6026 8588
6027 11950
6027 13430
6027 22803
6028 21983
6028 22349
6029 13268
6029 20308
6029 21704
6030 11578
6030 11581
6030 11582
6030 14905
6030 15895
6030 16683
6030 16685
6030 16693
6030 16695
6030 18865
6030 23134
6031 15928
6031 18241
6032 12454
6032 13369
6032 20492
6033 7450
6033 11475
6033 12272
6033 17047
6033 21193
6034 6465
6034 7419
6034 11295
6034 12094
6034 14032
6034 16191
6034 18790
6034 20590
6035 21106
6036 7157
6036 11433
6036 17079
6036 17243
6036 22821
6037 10678
6037 10823
6037 22894
6039 9152
6039 11428
6039 23827
6039 24248
6040 6478
6040 9254
6040 14305
6040 14661
6040 17030
6040 19563
6040 21926
6041 8413
6041 11513
6041 12651
6041 18870
6042 18058
6042 19973
6042 20566
6043 7589
6043 15889
6043 16695
6043 16696
6043 23134
6044 7648
6044 15918
6045 9044
6045 10271
6045 12435
6045 15830
6045 19644
6046 11593
6046 12633
6046 24281
6047 17305
6047 18782
6047 20107
6048 10399
6048 15961
6049 10610
6049 16699
6049 21981
6050 17637
6050 17883
6050 22231
6051 6566
6051 7967
6051 8023
6051 8259
6051 13776
6051 18515
6051 20956
6051 23179
6052 6558
6052 8136
6052 8293
6052 10650
6052 11679
6052 14995
6052 22487
6053 7196
6053 13863
6053 18613
6053 21169
6053 22833
6054 23925
6055 6236
6055 23901
6055 24055
6055 24433
6056 7497
6056 8892
6056 12892
6056 14287
6056 20479
6057 6609
6057 7792
6057 11689
6057 13995
6057 15719
6057 24414
6058 7042
6058 15182
6058 16069
6059 6907
6059 11241
6059 23488
6060 6435
6060 9361
6060 17136
6060 17916
6060 18137
6060 18859
6060 20536
6061 6062
6061 7953
6061 8316
6061 10223
6061 18276
6061 19968
6061 21457
6061 23364
6062 7953
6062 8316
6062 10223
6062 18276
6062 19968
6062 23711
6063 10417
6063 16076
6064 9913
6064 18006
6064 19811
6065 12735
6066 14569
6066 14944
6066 18453
6066 19611
6066 19906
6066 20653
6066 21488
6067 6428
6067 6602
6067 7539
6067 8290
6067 9076
6067 9803
6067 10199
6067 10778
6067 11868
6067 11993
6067 12131
6067 12959
6067 14453
6067 14467
6067 14547
6067 15799
6067 16117
6067 16448
6067 16721
6067 17342
6067 17757
6067 18743
6067 19230
6067 19300
6067 20598
6067 21331
6067 22138
6067 22468
6067 22847
6068 9694
6068 10756
6068 12390
6069 7077
6069 9241
6069 14613
6070 6862
6070 20992
6070 22024
6071 8931
6071 12664
6072 9537
6072 21603
6072 22033
6072 22035
6073 6314
6073 6747
6073 8116
6073 10164
6073 10694
6073 11339
6073 13111
6073 14205
6073 15133
6073 17980
6073 18019
6073 18177
6073 21424
6073 21614
6073 23299
6074 10464
6074 19017
6074 19769
6074 23065
6075 8554
6075 19318
6075 22025
6076 6169
6076 8507
6076 24054
6076 24392
6077 10136
6077 11748
6077 16123
6077 23674
6077 24366
6078 11748
6078 16123
6078 24366
6079 6169
6079 7341
6079 8507
6079 10236
6079 13420
6079 13421
6079 24392
6080 6924
6080 9219
6080 11442
6080 22554
6080 23693
6081 7075
6081 12974
6082 6160
6082 17465
6083 9703
6083 15079
6083 17077
6084 6374
6084 7493
6084 14359
6084 14560
6085 6217
6085 6662
6085 15188
6085 17307
6086 11084
6086 22456
6087 17604
6087 23067
6088 18447
6089 6927
6089 17085
6089 17479
6089 18088
6089 21854
6090 20900
6090 24007
6091 7480
6091 10461
6091 10732
6091 13522
6091 16306
6091 20927
6092 7204
6092 13036
6092 13131
6092 15337
6092 18699
6092 21284
6092 23290
6093 6474
6093 7673
6093 7976
6093 16468
6093 21278
6093 23023
6094 8909
6094 10236
6094 13073
6094 23395
6095 9324
6095 12612
6095 19098
6095 19643
6095 20113
6095 20489
6095 21545
6095 21564
6095 23542
6096 7685
6096 17636
6096 23223
6097 8387
6098 6868
6098 13882
6098 14724
6098 17200
6099 8026
6099 8800
6099 21593
6099 21614
6100 12247
6102 24196
6102 24225
6103 6122
6103 6143
6103 6676
6103 7917
6103 23937
6104 10165
6104 18300
6104 18301
6105 7218
6106 6292
6106 21257
6107 10314
6107 17133
6107 17635
6108 7171
6108 9631
6109 8805
6109 11968
6109 15522
6109 18153
6109 19867
6110 6742
6110 8853
6110 18177
6111 7843
6111 9884
6111 23570
6111 24255
6111 24276
6112 15687
6112 21650
6113 10823
6113 21150
6114 6505
6114 7032
6114 10419
6114 15864
6114 23837
6114 23948
6114 24286
6115 8627
6115 11105
6115 11345
6115 15030
6115 15116
6115 15127
6115 17264
6115 18068
6116 9100
6116 12620
6116 15991
6116 17687
6116 22156
6117 17978
6117 21005
6118 6119
6118 6772
6118 9111
6119 7002
6119 11554
6119 16951
6120 11297
6120 24016
6120 24134
6121 7823
6121 13440
6121 18467
6122 6676
6122 9384
6122 18849
6122 24080
6123 9703
6124 9558
6124 12860
6124 22552
6125 16079
6126 15271
6126 17224
6126 22072
6127 15033
6127 23028
6128 6169
6128 7379
6128 10864
6129 6493
6129 18631
6130 9576
6131 8916
6131 23255
6132 9825
6132 11969
6132 24313
6133 8265
6133 11778
6133 12084
6133 12708
6133 20750
6134 8228
6134 10060
6134 14522
6134 15537
6134 15769
6134 19133
6134 23145
6134 23607
6134 23657
6135 10026
6135 13448
6135 19125
6136 12924
6136 15803
6136 18262
6136 21527
6137 11056
6137 15201
6137 16925
6138 7873
6138 23072
6139 12247
6139 23952
6139 24344
6140 8088
6140 11329
6140 17652
6141 6910
6141 22642
6142 13784
6142 14023
6142 22903
6143 9718
6143 10043
6143 18217
6143 19707
6144 6825
6144 14251
6144 14257
6144 14258
6144 15147
6144 19808
6145 11777
6145 20717
6145 20732
6146 16758
6146 23922
6146 24348
6147 10198
6147 13846
6147 14769
6147 14840
6147 15173
6147 16879
6147 19179
6147 20402
6148 8082
6148 14855
6149 6934
6149 10987
6149 11260
6149 19723
6151 12897
6152 22281
6153 13049
6153 16631
6154 9392
6154 9808
6154 10469
6154 14045
6154 14933
6154 16324
6154 20824
6155 7467
6155 7469
6155 8806
6155 10615
6155 18472
6156 15292
6156 22186
6157 8030
6157 14376
6158 10785
6158 13855
6158 24282
6159 6378
6159 23811
6159 24017
6159 24451
6160 7669
6160 8345
6160 17467
6161 8252
6161 8555
6161 13926
6161 15289
6161 22348
6162 15538
6162 15704
6162 20718
6163 6816
6163 7439
6163 10061
6163 20468
6163 22479
6163 22659
6163 22733
6163 22750
6164 9211
6164 24324
6165 9143
6165 16892
6165 19952
6166 7972
6166 11189
6166 11234
6166 20288
6166 21321
6166 22991
6167 10900
6167 14047
6167 16775
6167 17271
6168 6998
6168 11223
6168 17009
6169 8382
6169 10236
6169 10511
6169 10862
6169 11109
6169 13355
6169 18330
6169 22878
6169 22898
6169 23825
6169 23913
6169 24024
6169 24062
6169 24264
6169 24331
6169 24392
6170 13295
6170 15818
6171 6234
6171 6842
6171 10927
6171 11102
6171 11670
6171 18852
6171 20589
6173 13976
6173 18395
6174 10364
6174 13807
6174 16056
6174 18671
6174 19975
6175 10503
6175 19824
6176 9503
6176 10631
6176 11551
6176 12033
6177 6827
6177 17593
6177 20534
6177 21737
6178 13990
6178 14994
6178 15810
6178 19668
6178 22439
6179 10593
6179 16570
6179 16926
6179 19141
6180 13885
6180 15587
6180 22061
6180 23579
6181 10385
6181 11914
6181 13104
6181 14574
6181 17004
6181 18785
6182 8264
6182 16382
6182 16773
6182 19554
6182 20037
6183 16603
6183 19408
6183 23959
6183 24029
6183 24312
6184 6354
6184 19687
6185 11690
6185 13571
6186 7543
6186 23029
6187 23862
6187 23953
6188 6507
6188 20646
6188 20843
6189 8980
6189 9929
6189 12955
6189 14381
6189 17613
6190 17871
6190 19347
6192 10974
6192 16054
6192 16115
6192 19033
6192 19670
6193 6216
6193 9013
6193 9304
6193 10440
6193 11248
6193 18581
6193 19896
6193 20860
6193 21415
6194 8375
6194 14205
6194 16537
6195 7624
6195 13779
6195 18500
6195 20042
6196 7209
6196 12739
6196 16680
6196 22597
6197 23229
6197 23578
6198 8630
6198 9285
6198 10587
6198 14690
6198 17061
6198 23610
6199 7265
6199 7635
6199 10455
6199 19444
6199 24145
6199 24480
6199 24488
6200 9694
6200 18918
6200 21152
6201 6580
6202 8752
6202 17305
6203 8735
6203 10740
6203 10934
6203 23312
6203 24400
6204 23940
6204 24422
6205 8412
6205 9292
6205 10436
6205 12645
6205 23548
6206 7270
6206 8358
6206 17260
6207 11404
6207 16851
6207 18379
6207 19367
6208 20162
6208 20513
6208 22905
6209 6856
6209 10593
6209 11934
6209 12348
6209 21764
6210 9430
6210 12215
6210 13963
6210 21090
6211 9149
6211 16656
6211 17811
6211 18159
6211 23883
6211 23912
6212 7277
6212 16073
6213 7450
6213 12272
6213 17047
6214 14102
6214 15292
6214 18888
6214 22957
6215 7952
6215 16452
6216 11248
6216 21415
6217 15188
6217 17307
6217 17958
6218 7675
6218 14682
6219 22478
6220 11366
6220 12021
6221 6517
6221 13025
6221 18065
6221 21217
6221 21478
6221 23360
6222 14554
6222 17432
6222 21708
6222 23092
6223 13954
6223 14337
6223 20999
6224 6471
6224 7296
6224 11987
6225 10072
6225 13023
6225 14446
6226 9785
6226 14124
6226 15142
6226 17148
6227 7707
6227 19981
6227 20622
6228 6973
6228 8076
6228 11781
6228 17922
6228 21947
6229 17626
6230 16283
6231 7991
6231 8647
6231 11930
6231 11970
6231 13649
6231 14717
6231 18680
6231 23196
6231 23266
6231 24290
6232 11324
6232 23856
6233 15351
6234 11670
6234 17333
6235 7239
6235 8214
6235 9418
6235 23827
6235 24025
6235 24127
6236 6237
6236 23785
6236 24234
6236 24433
6237 10141
6237 22282
6237 23901
6237 24433
6238 6628
6238 7232
6238 9081
6238 9854
6238 12469
6238 21903
6238 23534
6239 13870
6239 14482
6240 12344
6240 17306
6241 9035
6241 19318
6241 20525
6242 8133
6242 18423
6242 20502
6243 6245
6243 14681
6243 14683
6243 14685
6243 21395
6244 10294
6244 10576
6244 11634
6244 13365
6245 14681
6245 14683
6245 14685
6246 12101
6246 14364
6247 8387
6247 21181
6247 22885
6249 13720
6250 11910
6250 18872
6250 20409
6250 22646
6251 7649
6251 12064
6251 13010
6251 20104
6252 11690
6253 10026
6253 14010
6253 18857
6253 19125
6254 8671
6254 12109
6254 15808
6254 16415
6255 6458
6255 11522
6255 14528
6255 20662
6256 22120
6257 12962
6257 13453
6257 14365
6257 21029
6257 22365
6257 23502
6258 17538
6258 22915
6258 22984
6258 24066
6259 6536
6259 7604
6259 8951
6259 9571
6259 9657
6259 15160
6259 18357
6259 19180
6259 23036
6259 23382
6260 6449
6260 10561
6260 14594
6261 8113
6261 18840
6262 20856
6262 21667
6263 8155
6263 19439
6263 21197
6264 12077
6264 12078
6264 16839
6264 16841
6265 8995
6265 14204
6265 14779
6265 16260
6266 9805
6266 13261
6266 13996
6267 8199
6267 8238
6267 23920
6267 24078
6268 7340
6268 11053
6268 15482
6268 15847
6268 22800
6268 23925
6269 6693
6269 7250
6269 9012
6269 9140
6269 11362
6269 12475
6269 23640
6269 23779
6269 23907
6270 9418
6270 16758
6271 11980
6271 24093
6271 24154
6272 10647
6272 23369
6273 10883
6273 15664
6274 9632
6274 10397
6274 16938
6274 18449
6275 16084
6275 18657
6275 21077
6276 10639
6276 10712
6277 10059
6277 13052
6278 6393
6278 8972
6278 10217
6278 18393
6279 8506
6279 15121
6280 6600
6280 24164
6280 24272
6280 24427
6281 8091
6281 9830
6282 9621
6282 16615
6282 18201
6282 20845
6283 19318
6284 7205
6284 9046
6284 13129
6285 7754
6285 17248
6285 18076
6286 8400
6286 14061
6286 15910
6286 24011
6287 7155
6287 8131
6287 8629
6287 12241
6287 14404
6287 23737
6287 23943
6287 23990
6287 24420
6288 11753
6288 11754
6288 11756
6288 23742
6288 24069
6289 6735
6289 11754
6289 24069
6290 6735
6290 24069
6291 6735
6291 11756
6291 24069
6292 6982
6292 8279
6292 12375
6292 14762
6292 16198
6292 21660
6293 14643
6293 23843
6294 7311
6294 9691
6294 13675
6294 15991
6295 6486
6295 18028
6295 20500
6295 23173
6296 6863
6296 7600
6296 12014
6296 12116
6296 14759
6296 16144
6296 16408
6296 17665
6296 19340
6296 20691
6296 23188
6296 23311
6297 6392
6297 8725
6297 11562
6297 13956
6297 19311
6297 19703
6297 21629
6297 22164
6298 9892
6298 12379
6298 18136
6298 19809
6299 13962
6299 17464
6300 9943
6300 11893
6300 14804
6300 19299
6300 19382
6300 23155
6301 7227
6301 10634
6301 13832
6301 15969
6301 17011
6301 21461
6302 9098
6302 13481
6302 17178
6303 8722
6303 16405
6303 18089
6304 9224
6304 10108
6304 10503
6304 19824
6305 16662
6305 20007
6306 9618
6306 24225
6306 24391
6307 6542
6307 8032
6307 8033
6307 8897
6307 8898
6307 11506
6307 16756
6307 23008
6308 8026
6308 21593
6309 6425
6309 6768
6309 7318
6309 8038
6309 8217
6309 9862
6309 10296
6309 10327
6309 13650
6309 16505
6309 17619
6309 18253
6309 20044
6309 20570
6309 21041
6309 21055
6309 21092
6309 21146
6310 14272
6310 16662
6311 8307
6312 8745
6312 12041
6312 15477
6312 22144
6312 23609
6313 6621
6313 11015
6313 15849
6313 19807
6314 18177
6315 6659
6315 9686
6315 23706
6315 23868
6316 8534
6316 10104
6316 16459
6317 12516
6317 14670
6317 21660
6318 23741
6318 23765
6318 24082
6318 24152
6318 24471
6319 10897
6319 13567
6319 20734
6320 15775
6321 12730
6321 13603
6321 14358
6321 14953
6321 19761
6322 7210
6322 8361
6322 17715
6322 19185
6322 23324
6323 10521
6323 10736
6323 19302
6323 21681
6324 7384
6324 8048
6324 10079
6324 10781
6324 13872
6324 15953
6324 18940
6325 15033
6325 20925
6325 23028
6326 6758
6326 13207
6326 15360
6327 7742
6327 15103
6327 17758
6328 7099
6328 7802
6328 10159
6328 11867
6328 16611
6328 17051
6328 21026
6328 21067
6328 22171
6329 10049
6329 20489
6329 21564
6329 23542
6330 8373
6330 12454
6330 20492
6330 20637
6331 9035
6331 11014
6332 10100
6332 15717
6332 17675
6333 6884
6333 11487
6333 12659
6333 18495
6333 21037
6333 23116
6333 23995
6333 24240
6334 8365
6334 19795
6335 11676
6335 11875
6336 8567
6336 9269
6336 11813
6336 17917
6336 18536
6337 8000
6337 12897
6338 11528
6339 19897
6339 20466
6340 15123
6341 8314
6341 24478
6342 14546
6343 11513
6343 19988
6344 13073
6345 18150
6346 15117
6346 16092
6346 17308
6346 17309
6347 21614
6348 7428
6348 7530
6348 15605
6348 18279
6350 8584
6350 11128
6350 15117
6351 10466
6351 10666
6351 18976
6352 6455
6352 18214
6352 21527
6352 22708
6353 9077
6353 9551
6353 16929
6353 19361
6353 21178
6354 8391
6354 10017
6354 10267
6354 10535
6354 19687
6354 20741
6354 21902
6355 17637
6355 17883
6356 13142
6356 21383
6357 9882
6357 10458
6358 12566
6358 24039
6359 11908
6359 12453
6359 22845
6359 23829
6359 23978
6359 24238
6360 7138
6360 7287
6360 7977
6360 8021
6360 8253
6360 8289
6360 8795
6360 9702
6360 10800
6360 12542
6360 12868
6360 12958
6360 14749
6360 16307
6360 17164
6360 18972
6360 19058
6360 19545
6360 19704
6360 20133
6360 20915
6360 22295
6360 23021
6361 11304
6361 11832
6361 14777
6361 15480
6362 9058
6362 13460
6364 9098
6365 7300
6365 9295
6365 24292
6366 8932
6366 23941
6367 7843
6367 11235
6367 11470
6367 11651
6367 14435
6367 15592
6367 19916
6367 23570
6367 23944
6367 23992
6367 24190
6367 24231
6368 7742
6368 15103
6369 13536
6369 16403
6370 7927
6370 9524
6370 11085
6370 15155
6370 18471
6370 19487
6370 19891
6370 22092
6371 7138
6371 10262
6371 19713
6371 20451
6371 23513
6372 8197
6373 7126
6373 12626
6373 15567
6373 18648
6374 13151
6374 14359
6374 14560
6375 14299
6375 19392
6376 7070
6376 13004
6376 16026
6376 22248
6376 22907
6377 9416
6377 16880
6377 20129
6377 21455
6377 21489
6378 11487
6378 11546
6378 14106
6378 14299
6378 18187
6378 18495
6378 19392
6378 24017
6378 24179
6379 7591
6379 19690
6380 9623
6381 6479
6381 9703
6381 14054
6382 7268
6383 8921
6383 9465
6383 17838
6383 20696
6383 22538
6384 7344
6384 9921
6385 7816
6385 17053
6386 15033
6386 20925
6386 22868
6387 12534
6387 17198
6388 6538
6388 7162
6388 9356
6388 9578
6388 11460
6388 12422
6388 12602
6388 13012
6388 14618
6388 15551
6388 15964
6388 18998
6388 19315
6388 20606
6388 21421
6388 22005
6388 22116
6388 23320
6389 10585
6389 23915
6389 24359
6390 13917
6390 14436
6390 15993
6391 12043
6391 23930
6391 24001
6392 8962
6392 18259
6393 8972
6393 13039
6393 13122
6393 18393
6394 13504
6394 17553
6394 18973
6394 23164
6395 10922
6395 15324
6395 16909
6395 18087
6395 19641
6395 23146
6396 6527
6396 11494
6397 6398
6397 6518
6397 7213
6397 11560
6397 11684
6397 13053
6397 16292
6397 17749
6397 18353
6397 18883
6397 19206
6397 19268
6397 19892
6397 22678
6398 6399
6398 11932
6398 13053
6398 13438
6398 18698
6399 11684
6399 11932
6399 12415
6400 10740
6400 11980
6400 24048
6400 24154
6401 8432
6401 8834
6401 9150
6401 10964
6401 11842
6401 12277
6401 12453
6401 13943
6401 14062
6401 18956
6401 20944
6401 23241
6401 24425
6402 8387
6402 21181
6403 8930
6403 11599
6403 20867
6404 6405
6404 19190
6404 20227
6404 24021
6405 23678
6406 7846
6406 11267
6406 13965
6406 16936
6406 22152
6407 6554
6407 13123
6407 14833
6407 15350
6407 16640
6407 18327
6407 18422
6407 18962
6407 20399
6407 21712
6408 10042
6408 11782
6408 12219
6408 22048
6409 10848
6409 15445
6409 19022
6410 10429
6410 16782
6410 20108
6410 20544
6410 21076
6411 8588
6411 10738
6411 11242
6411 15443
6412 7624
6412 18500
6412 21072
6413 7066
6413 9302
6413 16843
6413 19615
6413 21992
6414 10806
6414 16291
6414 16621
6416 13086
6416 17849
6417 13237
6417 16244
6417 18575
6417 18724
6417 22163
6418 6531
6418 8189
6418 10019
6418 10050
6418 11189
6418 13707
6418 16347
6418 19528
6418 19585
6418 19880
6418 20568
6418 21979
6418 23104
6419 23820
6419 24254
6419 24284
6420 19608
6421 12452
6421 18454
6421 19735
6421 20849
6422 7577
6422 17094
6423 6647
6423 9448
6423 10106
6423 13604
6423 19855
6424 7007
6424 13458
6424 18190
6424 18687
6425 15734
6426 21649
6427 13122
6427 22138
6427 22434
6428 8290
6428 9543
6429 7595
6429 12240
6429 15234
6429 19192
6430 17339
6430 18708
6431 15151
6431 19318
6432 12740
6432 19722
6433 16624
6433 16768
6433 17447
6434 10501
6434 23932
6434 24442
6435 10273
6435 18859
6435 22840
6436 15958
6436 19022
6437 7413
6437 9707
6437 10534
6437 10592
6437 11520
6437 16112
6437 17232
6438 7360
6438 7739
6438 10860
6438 11129
6438 11669
6438 11763
6438 17246
6438 18178
6438 19497
6438 21031
6438 21387
6438 21515
6438 23541
6439 8452
6439 10647
6439 20783
6440 14496
6440 16024
6440 21051
6440 21635
6440 21661
6440 22071
6440 22315
6441 17128
6441 18465
6441 20608
6442 12155
6442 18442
6442 22844
6443 11002
6443 11930
6443 23196
6443 23266
6444 7624
6444 9288
6444 13779
6445 8019
6445 12280
6446 11100
6446 11946
6446 13242
6446 16571
6447 10587
6447 15785
6447 18912
6448 6523
6448 12049
6449 7335
6449 10561
6450 6845
6450 7554
6450 7989
6450 8927
6450 10118
6450 13354
6450 16377
6450 21706
6451 9365
6451 10690
6451 11372
6451 12320
6451 18298
6451 19843
6452 12050
6452 14333
6452 15400
6452 20785
6453 6510
6453 12129
6453 14016
6453 15023
6454 13481
6454 14935
6455 12927
6455 17424
6455 18214
6455 21527
6455 22708
6456 9508
6456 19844
6457 7571
6457 8695
6457 9557
6457 13822
6457 16492
6458 11522
6458 12875
6458 14528
6458 16276
6458 19665
6458 20662
6458 22305
6458 23027
6459 12711
6459 19225
6460 19834
6460 22019
6460 22221
6461 6559
6461 13085
6461 17897
6461 18200
6461 18889
6461 20505
6461 20795
6462 8699
6462 11827
6462 20368
6463 9100
6463 11861
6463 12620
6463 22156
6464 10893
6465 15196
6466 15077
6466 16856
6466 22088
6466 22463
6466 22692
6467 8605
6467 9564
6467 17942
6468 8094
6468 17253
6468 20886
6469 12249
6469 12266
6469 18235
6469 19269
6469 21132
6469 23172
6470 11143
6470 23835
6470 24375
6471 7296
6471 11987
6472 6841
6472 7049
6472 7082
6472 7990
6472 8255
6472 10689
6472 11891
6472 12879
6472 12998
6472 13168
6472 13867
6472 13870
6472 14482
6472 16160
6472 16857
6472 18917
6472 19551
6472 19912
6472 20807
6472 20906
6472 21429
6472 21815
6473 13781
6473 14022
6473 14565
6473 15897
6473 16245
6473 20452
6473 20967
6474 7006
6474 9921
6474 10737
6474 12193
6474 16356
6474 23060
6475 9502
6475 13580
6475 15003
6476 7867
6476 11841
6476 16554
6476 20498
6477 8019
6477 8615
6478 14305
6479 8743
6479 11203
6479 13389
6479 14054
6479 18164
6479 22137
6480 7130
6480 20144
6481 13731
6481 14157
6482 9707
6482 11603
6482 11922
6482 13794
6482 19095
6483 10035
6483 11749
6483 20335
6484 9819
6484 15705
6484 21611
6484 22716
6485 10205
6487 11036
6487 15285
6488 11139
6488 16076
6488 20431
6489 18876
6489 20265
6489 20406
6490 8930
6491 8930
6491 24083
6492 8930
6492 10839
6492 13612
6492 17826
6492 18652
6492 23658
6492 24036
6492 24314
6493 11954
6493 14487
6493 14950
6493 15606
6493 16158
6493 16804
6493 17949
6493 20718
6493 21675
6493 23216
6494 21500
6495 7816
6495 8558
6495 13218
6496 11074
6496 11517
6496 11519
6496 20763
6497 19728
6497 20254
6497 21126
6498 8328
6498 20675
6499 9638
6499 11858
6499 16940
6499 19234
6499 21113
6500 8930
6500 24083
6501 12185
6501 22732
6502 22117
6503 13376
6503 17774
6503 17776
6503 18788
6503 18892
6503 19804
6504 12738
6504 14563
6504 18844
6504 22757
6504 23237
6505 6670
6505 23837
6505 24136
6506 15985
6506 16067
6506 17549
6506 21944
6506 21989
6508 7607
6508 9301
6508 11882
6508 12817
6508 13676
6508 14225
6508 17685
6508 17975
6508 18731
6509 9323
6509 11499
6510 9467
6510 12129
6510 12592
6510 13084
6510 14016
6510 14616
6510 18229
6510 18280
6510 20150
6510 20859
6510 22929
6511 9323
6511 10853
6511 18644
6511 20660
6512 7301
6512 13169
6512 13193
6513 15040
6513 15400
6513 19270
6514 13908
6515 6892
6515 7315
6515 9913
6515 11677
6515 15483
6515 16633
6515 17855
6515 19089
6515 19811
6515 19977
6515 21731
6515 23309
6516 6719
6516 7897
6517 18065
6517 19482
6518 7213
6518 14422
6519 8491
6519 9736
6519 12312
6519 19388
6520 12299
6520 17105
6521 13699
6521 14191
6521 22627
6522 9861
6523 10737
6523 12049
6523 19577
6524 12095
6524 20105
6525 8528
6525 9766
6525 21034
6525 22311
6525 23138
6526 12088
6526 16341
6526 16733
6526 21385
6527 13932
6528 12324
6528 20593
6529 20124
6530 7448
6530 7999
6530 8435
6530 9212
6530 9570
6530 9602
6530 9814
6530 12658
6530 12989
6530 13238
6530 13825
6530 14217
6530 14252
6530 16618
6530 17562
6530 18013
6530 18138
6530 20444
6530 20512
6530 21881
6530 22483
6531 14895
6531 20568
6531 22053
6532 6575
6532 6698
6532 11095
6532 17411
6532 22954
6532 23236
6533 9349
6533 11112
6534 7586
6534 7937
6534 11210
6534 17229
6534 19697
6535 11987
6536 7605
6536 7826
6536 18357
6537 9257
6537 18692
6537 20046
6538 10605
6538 11835
6538 15441
6538 15469
6538 16348
6538 19049
6538 20183
6538 23517
6540 21378
6541 7796
6541 10222
6541 10948
6541 12113
6542 8032
6542 9985
6542 11506
6543 22283
6544 7837
6544 11959
6544 13200
6544 16867
6545 10369
6545 10372
6545 19246
6546 14494
6546 21857
6547 23960
6549 6997
6549 12112
6549 12254
6549 14640
6549 20149
6549 20961
6549 22400
6550 12702
6550 17033
6551 7645
6551 8026
6551 8253
6551 8289
6551 9765
6551 11430
6551 11737
6551 12868
6551 13228
6551 15089
6551 15228
6551 15826
6551 15842
6551 16136
6551 16680
6551 17099
6551 17164
6551 17302
6551 19752
6551 21313
6551 21614
6551 21972
6552 21677
6552 22042
6553 21009
6553 22040
6553 22913
6554 8017
6554 14833
6554 15350
6555 9516
6555 20219
6556 12845
6556 13702
6556 15310
6556 23282
6557 8078
6557 11863
6557 11998
6557 12769
6557 14802
6557 19382
6557 23401
6558 8137
6558 14995
6559 20795
6560 17064
6561 13892
6561 16500
6561 16854
6562 11634
6562 13365
6562 18334
6563 7742
6563 11774
6563 19620
6563 23461
6564 16909
6564 23146
6565 13534
6565 23240
6566 6742
6566 8259
6566 11068
6566 12997
6566 15140
6566 20164
6566 20490
6566 20780
6566 20958
6566 21007
6566 21770
6566 23101
6567 11362
6568 12579
6568 15614
6569 7942
6569 9074
6569 14573
6569 22193
6570 7729
6570 10469
6570 21864
6571 13910
6571 19079
6572 10526
6572 19170
6573 8040
6573 8125
6573 16558
6573 22568
6574 9713
6574 17419
6574 19913
6575 20144
6576 12393
6576 15201
6576 17938
6577 8671
6577 15808
6577 16415
6577 22148
6578 12303
6578 15735
6578 16275
6578 17498
6578 21731
6579 9659
6579 10473
6579 13571
6579 14288
6580 7118
6580 10666
6580 20408
6581 9738
6581 9865
6581 10559
6581 12593
6581 13608
6581 14086
6581 15067
6581 15904
6581 17170
6582 16227
6582 18886
6584 16335
6585 19348
6586 9193
6586 13561
6587 10679
6587 24414
6588 6646
6588 9524
6588 10674
6588 18331
6590 10492
6590 14507
6590 17600
6591 9110
6591 12436
6591 12795
6591 13425
6591 13809
6591 16197
6591 16201
6591 19876
6591 22760
6592 6593
6592 15295
6592 16200
6592 19870
6592 22367
6593 10215
6593 15295
6593 16200
6593 18820
6593 19870
6594 8026
6594 10604
6594 21593
6595 11035
6595 11036
6595 22520
6596 9493
6596 23005
6597 9027
6597 11117
6597 14037
6597 18488
6597 20482
6598 7728
6598 8161
6598 11759
6598 12045
6598 17379
6598 21787
6599 7076
6599 12383
6599 19319
6600 6917
6600 18256
6601 8332
6601 12681
6601 16807
6601 18773
6601 23427
6602 13122
6602 22138
6602 22434
6603 10617
6603 11320
6603 22762
6604 8513
6604 11426
6604 12097
6604 19693
6604 22206
6605 8208
6605 11797
6605 20218
6605 20708
6606 8619
6607 15381
6607 16443
6607 17114
6609 7792
6609 10887
6609 13995
6609 20073
6610 6849
6610 8246
6610 17419
6610 19913
6611 8857
6611 9089
6611 18209
6611 18836
6611 19801
6611 21179
6611 21487
6611 21673
6611 22723
6611 22948
6612 12620
6612 17096
6613 7313
6613 22279
6614 19447
6615 12722
6615 15868
6615 19191
6615 20341
6616 9128
6616 12603
6616 14178
6616 16815
6616 18460
6616 22603
6617 12442
6617 13388
6618 11746
6618 20725
6618 24177
6619 7219
6619 23819
6619 24189
6620 7718
6620 21851
6621 11015
6621 19806
6621 19807
6621 21494
6621 23199
6622 6637
6622 7939
6622 7960
6622 15852
6622 15853
6622 15854
6622 15855
6622 15856
6622 18029
6622 18420
6623 9146
6623 13845
6623 22757
6624 12664
6624 24244
6624 24336
6625 17305
6626 10424
6626 15333
6626 15489
6626 23533
6627 10505
6627 11315
6627 16904
6627 17694
6627 17906
6627 18093
6627 20788
6627 22274
6628 7747
6628 9854
6628 10554
6628 11721
6628 12469
6628 14183
6628 16874
6628 18146
6628 23767
6629 18286
6630 10600
6630 18530
6631 7560
6631 7776
6631 10536
6631 17150
6631 19317
6632 6935
6632 7650
6632 7861
6632 13478
6632 14175
6632 16823
6632 20892
6632 23620
6633 8556
6633 10907
6633 23850
6634 6932
6634 8556
6634 12036
6634 13640
6634 16451
6635 8087
6635 12860
6635 20578
6635 21997
6635 23593
6636 8742
6636 10793
6636 23575
6636 23926
6636 24151
6637 15854
6637 15859
6638 9569
6638 21673
6639 9613
6639 15412
6639 20469
6639 21096
6639 21378
6640 15412
6640 20469
6640 21378
6641 24285
6642 14120
6642 18568
6643 9643
6643 24206
6643 24277
6643 24470
6644 7719
6644 11826
6645 13509
6645 19443
6645 21401
6646 15184
6646 17340
6647 9448
6647 10106
6647 13604
6647 19514
6647 19855
6648 8800
6648 9711
6648 13047
6649 11086
6649 12189
6649 12225
6649 12758
6649 19060
6649 20904
6649 21644
6650 9256
6650 12716
6650 15845
6651 15604
6651 18282
6652 8217
6653 7896
6653 10671
6653 11758
6654 11757
6654 11838
6654 12828
6654 21521
6655 10245
6655 10571
6655 12038
6656 7145
6656 10842
6656 19032
6657 17447
6657 20125
6658 10761
6658 18388
6658 19252
6658 22415
6659 7386
6659 9181
6659 9358
6659 9686
6659 23808
6659 23868
6660 13338
6660 14958
6660 15416
6660 20091
6661 6865
6661 9933
6661 12380
6661 12416
6662 15188
6662 17307
6662 17437
6663 7091
6663 7717
6663 7911
6663 8215
6663 10416
6663 11059
6663 12197
6663 12667
6663 13035
6663 14143
6663 15665
6663 18125
6663 18779
6663 21526
6663 23560
6664 7984
6664 12167
6664 23985
6664 24041
6664 24161
6665 10295
6665 13003
6665 18182
6665 18623
6665 22407
6666 17055
6666 21289
6667 10420
6667 13750
6667 21186
6667 22972
6668 9882
6668 10593
6668 15802
6669 14317
6669 23593
6669 23688
6670 24023
6670 24136
6670 24286
6671 7628
6671 7629
6671 14615
6671 17921
6671 22030
6671 22031
6672 11542
6672 12252
6672 23786
6672 23789
6673 7518
6673 7678
6673 14746
6673 19829
6674 22394
6675 8923
6675 15086
6675 21296
6676 10214
6677 13675
6677 14363
6678 11827
6678 23046
6679 17141
6679 18307
6680 11986
6680 20503
6681 11780
6681 20955
6682 8019
6682 13227
6682 19997
6683 23229
6683 23578
6684 23734
6684 24067
6684 24458
6685 7360
6685 10990
6685 11763
6685 18178
6686 8299
6687 8673
6687 10102
6687 11930
6687 18804
6688 9797
6688 10773
6688 11717
6689 13313
6690 16429
6690 21824
6691 7111
6691 8569
6691 23384
6692 7242
6692 14068
6692 14492
6692 16084
6692 18657
6693 9012
6693 14748
6693 23709
6693 23907
6694 7965
6694 10836
6694 22338
6695 7486
6695 8862
6695 18476
6696 7327
6696 11966
6696 19181
6696 22074
6697 8673
6697 10102
6697 11039
6697 11930
6697 14104
6697 18804
6698 8101
6698 13424
6698 15877
6698 17411
6698 19178
6698 19589
6698 22203
6699 10577
6699 19727
6699 20769
6700 11100
6700 16571
6700 18679
6700 19428
6701 9086
6701 13588
6701 13639
6701 14566
6701 20366
6702 12120
6702 15648
6703 8496
6703 10230
6703 17084
6703 21130
6704 8564
6704 12617
6704 20526
6705 8280
6705 8746
6705 11070
6705 13917
6705 18769
6705 22967
6706 18150
6706 22628
6707 14118
6707 19555
6708 8155
6708 13757
6708 23098
6709 7359
6709 13557
6709 20866
6710 10249
6710 10700
6710 13557
6710 20866
6711 13374
6711 16021
6711 18867
6712 10249
6712 20866
6713 8433
6713 9691
6713 10278
6713 17687
6714 9642
6714 10382
6714 10639
6714 12586
6714 18016
6714 19365
6714 20039
6714 20346
6714 20696
6714 21301
6714 21391
6715 14653
6716 10640
6717 23713
6718 7190
6718 7311
6718 14984
6719 6856
6719 7109
6719 7161
6719 7884
6719 8467
6719 9248
6719 10245
6719 10571
6719 10748
6719 10923
6719 12348
6719 12880
6719 13834
6719 13884
6719 14794
6719 15591
6719 16745
6719 18171
6719 18707
6719 18738
6719 18908
6719 19702
6719 21884
6719 22973
6719 22977
6719 23313
6719 23469
6719 23595
6720 8367
6720 12089
6721 16357
6722 6774
6722 7823
6722 10142
6722 13440
6722 14368
6722 15176
6722 20998
6722 21272
6722 22789
6722 23597
6723 6859
6723 8016
6723 8150
6724 9780
6724 14978
6724 23400
6724 24087
6725 10589
6725 16607
6725 19639
6726 10696
6726 17730
6726 19450
6727 13264
6728 10264
6728 11583
6728 11707
6729 10502
6729 16617
6729 21186
6730 17881
6730 23531
6731 9625
6731 11881
6731 13492
6732 14822
6732 22537
6733 13529
6733 14785
6733 15599
6734 14219
6734 19520
6734 21620
6735 7541
6735 9462
6735 11753
6735 11754
6735 11755
6735 12092
6735 13337
6735 14542
6735 14985
6735 20501
6735 23794
6735 24069
6736 6870
6736 17932
6736 24343
6737 8919
6737 14229
6737 18974
6737 23303
6737 23526
6738 12677
6738 14591
6738 14596
6738 22329
6739 12804
6739 15178
6739 19065
6739 23874
6740 18355
6740 19040
6740 20356
6741 9035
6741 12501
6741 15216
6741 18933
6742 11068
6742 13752
6742 14135
6742 16888
6742 19785
6742 20164
6743 12284
6743 20820
6743 23621
6744 7511
6744 11583
6744 22696
6744 23296
6745 11575
6745 21630
6746 8724
6746 19609
6746 20254
6747 8116
6747 13111
6748 11610
6748 13460
6749 13038
6749 13883
6749 16993
6749 21995
6750 17935
6751 9009
6751 17889
6751 24389
6751 24390
6752 11104
6753 15868
6753 19151
6753 19191
6753 20341
6754 16763
6754 19600
6755 7686
6755 7995
6755 9204
6755 10083
6755 10647
6755 10786
6755 12861
6755 14247
6755 14432
6755 14519
6755 19214
6755 20980
6756 12954
6757 8109
6757 8243
6757 9205
6757 12594
6757 16054
6757 18147
6758 8268
6758 8612
6758 9262
6758 9880
6758 10145
6758 12751
6758 15360
6758 15927
6758 18868
6759 14136
6759 16398
6759 20238
6760 7332
6760 11122
6760 12250
6760 13556
6760 20386
6761 23863
6761 24155
6761 24266
6762 18554
6762 21452
6763 9316
6763 10302
6763 14096
6763 16027
6763 17764
6763 18215
6763 19097
6764 7267
6764 12726
6764 16634
6764 23004
6765 9215
6765 9530
6765 24379
6766 16452
6766 16657
6766 17435
6766 22927
6767 9899
6767 15612
6767 16619
6769 10125
6769 13814
6769 14780
6769 16896
6769 22824
6770 11514
6770 12538
6770 13314
6770 15074
6770 16960
6771 8191
6771 24103
6772 11554
6773 16707
6773 18961
6773 20791
6773 23254
6774 10328
6774 18467
6775 11823
6775 14790
6775 15984
6776 13653
6776 17637
6776 17883
6776 20678
6777 8218
6777 13605
6777 17421
6778 24326
6779 9011
6779 18053
6780 9516
6780 10426
6780 20219
6781 11359
6781 15255
6781 23164
6782 13266
6782 15217
6782 21360
6782 22009
6783 14716
6784 7585
6784 12897
6785 13552
6785 14782
6785 22811
6786 7000
6786 13001
6786 13378
6786 23547
6787 7552
6787 12118
6787 18400
6787 20928
6788 8152
6789 7919
6790 11750
6790 16787
6791 8380
6791 14921
6791 16722
6792 7394
6792 14833
6792 15350
6792 20617
6793 16440
6793 16973
6793 18297
6794 13733
6794 16240
6794 23630
6794 23670
6794 24311
6795 11624
6795 11688
6796 23274
6796 24172
6797 9868
6797 11545
6797 11977
6797 12507
6797 19712
6797 22810
6798 12120
6798 13210
6799 11348
6799 15257
6799 15876
6799 21906
6799 23434
6800 11777
6800 20717
6800 22391
6801 6802
6801 6807
6801 7371
6801 16862
6801 23141
6802 7371
6802 14430
6802 16862
6802 23141
6803 14888
6803 16562
6803 19221
6803 19904
6804 8551
6804 14913
6804 15448
6804 20420
6804 23258
6806 8217
6806 11986
6806 15734
6806 22286
6807 10700
6807 13249
6807 16399
6807 16862
6808 23735
6808 24425
6809 15888
6809 15894
6809 16683
6809 16685
6809 23643
6810 14704
6810 15984
6810 17134
6811 10209
6811 11256
6812 7516
6812 7538
6812 13900
6812 14880
6812 16711
6812 17040
6812 20967
6812 21892
6813 8782
6813 10248
6813 12062
6813 17211
6814 16723
6815 9115
6816 7439
6816 22659
6817 10684
6817 12201
6817 14879
6817 17928
6818 10630
6818 19449
6819 12451
6819 20820
6820 14867
6820 14871
6820 19449
6821 7740
6821 15556
6822 17992
6822 19318
6822 20107
6823 7954
6823 10904
6823 11697
6823 14191
6823 20720
6823 21358
6823 22627
6824 10926
6824 13727
6824 16450
6825 18158
6826 7352
6826 8261
6826 9283
6826 10187
6826 13114
6826 14088
6826 16508
6826 19205
6826 21961
6826 23569
6827 10149
6827 12046
6827 13295
6827 14149
6827 16030
6827 16755
6827 17593
6827 20534
6827 21737
6829 18453
6829 19611
6829 20653
6830 7525
6830 10631
6831 8799
6831 21106
6832 23772
6833 9970
6833 15444
6833 16613
6834 7715
6834 7972
6834 9096
6834 11234
6834 17723
6834 17857
6834 20528
6834 21087
6835 7425
6836 20771
6836 21508
6837 11408
6837 12146
6837 14213
6837 20024
6839 11130
6839 15044
6840 7429
6840 8504
6840 8790
6840 16064
6841 12998
6841 14482
6841 19986
6841 21815
6842 18852
6843 11308
6843 23920
6843 24325
6844 7631
6844 12886
6844 18208
6845 7554
6845 13354
6846 7224
6847 7409
6847 7733
6847 9532
6847 10487
6847 11504
6847 16138
6847 16578
6847 16701
6847 17566
6847 18584
6847 20079
6847 20507
6847 22369
6847 22454
6847 23769
6848 14332
6848 14512
6848 14758
6848 15763
6848 17572
6848 20787
6848 20811
6848 21846
6849 19913
6850 23594
6851 7078
6851 9123
6851 17016
6851 19019
6851 20762
6851 21826
6852 22053
6853 16147
6853 21262
6854 17639
6854 18692
6855 7930
6855 11693
6855 12798
6855 13683
6855 13791
6855 16539
6855 17027
6855 18569
6855 22275
6855 23525
6856 10923
6856 23269
6857 7790
6857 19827
6858 22989
6859 8150
6859 18716
6859 20100
6859 22855
6859 24061
6859 24205
6860 10628
6860 14273
6861 9703
6861 14012
6861 14261
6862 10652
6862 22178
6863 11738
6863 23311
6864 12388
6864 20038
6865 8874
6865 9933
6866 22633
6868 9666
6868 9667
6868 14724
6868 15565
6868 16601
6868 20495
6869 10762
6869 16948
6869 17248
6869 19377
6869 21279
6870 12425
6870 12427
6870 12428
6870 23819
6870 24360
6871 11432
6871 11458
6872 9249
6872 12262
6873 15521
6873 18093
6873 20788
6873 22274
6874 8687
6874 9010
6874 10382
6874 12099
6874 14723
6874 18081
6874 18659
6874 19365
6874 19432
6875 8013
6875 9072
6875 15751
6875 19108
6876 6914
6876 11999
6876 13981
6876 22183
6877 11980
6877 24093
6878 9247
6878 18810
6878 22034
6879 8043
6879 8701
6879 9145
6879 15990
6879 17835
6879 19714
6880 15877
6881 7504
6881 15293
6881 21640
6882 8121
6882 8971
6882 24236
6882 24301
6883 8002
6883 8022
6883 8782
6883 11627
6883 12966
6884 16119
6884 23625
6884 24257
6884 24345
6884 24367
6885 8306
6885 14270
6885 18820
6885 20370
6885 21819
6886 8827
6886 8861
6886 12666
6886 16427
6886 17510
6886 22416
6887 7134
6887 8028
6887 14693
6887 17720
6887 20155
6887 22518
6887 23572
6888 23787
6889 16659
6889 22913
6890 9171
6890 23823
6890 24303
6890 24339
6890 24474
6891 10319
6891 17179
6891 20540
6892 18821
6892 19811
6893 8158
6893 16257
6893 17248
6893 17495
6894 13221
6894 14785
6895 16865
6895 22140
6896 7301
6896 13169
6896 13193
6897 9614
6897 17160
6897 23474
6897 23705
6898 9662
6898 14278
6898 18925
6899 10893
6899 15125
6899 22287
6900 10324
6900 11908
6900 23960
6901 17227
6901 21141
6901 21616
6902 21800
6902 22521
6903 11125
6903 19473
6904 18844
6905 10273
6905 18859
6905 20536
6905 22840
6906 14921
6906 16722
6907 11241
6907 13345
6907 21318
6908 16954
6908 17548
6909 7023
6909 7509
6909 15012
6909 18456
6910 9844
6910 14640
6911 9106
6911 14932
6911 15266
6911 21264
6912 23078
6913 8991
6913 9990
6913 9991
6913 10013
6913 17859
6913 18619
6914 8438
6914 11999
6914 22183
6915 13436
6915 14575
6915 17305
6915 18252
6915 19349
6915 22640
6916 11130
6916 15400
6916 15615
6917 6918
6917 6919
6917 8107
6917 9994
6917 11062
6917 12694
6917 14472
6917 14501
6917 15193
6917 17499
6917 17968
6917 19121
6917 20480
6917 20709
6917 22619
6918 11062
6918 14472
6918 22619
6919 14472
6919 19121
6920 7925
6920 8351
6920 9230
6920 11691
6920 13316
6920 16971
6920 18545
6920 19506
6920 20071
6921 8019
6921 15287
6921 20371
6922 9905
6922 9984
6922 11071
6922 12679
6922 18189
6922 19350
6922 22551
6923 8384
6923 16308
6923 18984
6923 19711
6924 7291
6924 17732
6924 20514
6924 20889
6924 23693
6925 7668
6925 12047
6925 15201
6926 18026
6926 21560
6926 21563
6927 10529
6927 12746
6927 21854
6928 16351
6928 19601
6929 7532
6929 13299
6929 13894
6929 22738
6930 7354
6930 7943
6930 8739
6930 9129
6930 10081
6930 10309
6930 11003
6930 11263
6930 12178
6930 12303
6930 12808
6930 13402
6930 13548
6930 13551
6930 13618
6930 14406
6930 14486
6930 14638
6930 15229
6930 15290
6930 15992
6930 16521
6930 17144
6930 17537
6930 17658
6930 18010
6930 18734
6930 18832
6930 19461
6930 19550
6930 20064
6930 20968
6930 21692
6930 22506
6930 23272
6930 23831
6931 7993
6932 8556
6932 12036
6932 13640
6933 10392
6933 13883
6934 18740
6934 19723
6935 18631
6936 13320
6936 14189
6936 16221
6937 8043
6937 8701
6937 9145
6937 19714
6937 20738
6938 15400
6938 16243
6938 19318
6939 8544
6939 14093
6939 14545
6939 14960
6939 16023
6939 20360
6940 9323
6940 10853
6940 15417
6941 8525
6941 9422
6941 20695
6942 12024
6942 18367
6943 7891
6943 9730
6943 9999
6943 12283
6943 16795
6943 17663
6943 17705
6943 18593
6943 19553
6943 19617
6944 9394
6944 22340
6946 11935
6947 7437
6947 8119
6947 9633
6947 10317
6947 10474
6947 11443
6947 11741
6947 13075
6947 13221
6947 13753
6947 14838
6947 17293
6947 17524
6947 17601
6947 19948
6947 21777
6947 21908
6948 10006
6948 14533
6948 19418
6949 19506
6949 22596
6950 7478
6950 14419
6950 21269
6951 7683
6951 16327
6951 16861
6952 12303
6952 12735
6952 18188
6953 7657
6953 9852
6953 10649
6954 11033
6954 23193
6955 8026
6955 8800
6955 14585
6956 9626
6956 11297
6956 24452
6957 13055
6957 15465
6957 21441
6958 8055
6958 20096
6958 23539
6959 6996
6959 12971
6959 20137
6959 20882
6960 15162
6960 23267
6961 11870
6961 12512
6961 20243
6962 10966
6962 17661
6962 18982
6962 21361
6963 11294
6963 23765
6963 24161
6964 21604
6965 14438
6965 21524
6966 8658
6966 9371
6967 21677
6967 21739
6968 12897
6968 17025
6969 17305
6970 7668
6970 14439
6971 19096
6972 14011
6973 8076
6973 9148
6973 9499
6973 22706
6974 12359
6974 13786
6974 15063
6974 19929
6974 22321
6975 11790
6975 21696
6976 9300
6976 23492
6977 23637
6977 24044
6978 22846
6978 23917
6978 23939
6979 9686
6979 11446
6979 23868
6980 7052
6980 7487
6980 11314
6980 18447
6980 23543
6980 24007
6981 12205
6981 12639
6981 14133
6981 14945
6982 18050
6982 19972
6982 21257
6983 10578
6983 17440
6983 21072
6984 10874
6984 11448
6986 7963
6986 18776
6986 21203
6987 12021
6987 13142
6987 20181
6988 8942
6988 12203
6988 16645
6988 20654
6988 22793
6989 9038
6989 11861
6989 15944
6990 6991
6990 8046
6990 8986
6990 10402
6990 13615
6991 8986
6991 10402
6991 14535
6992 7993
6992 15527
6993 7772
6994 13176
6994 17651
6995 7690
6995 7977
6996 10595
6996 12971
6996 14281
6996 14291
6996 16372
6996 20882
6996 22993
6997 10446
6997 12112
6998 9596
6998 11223
6998 12150
6999 7192
6999 16698
6999 17242
6999 17509
6999 20144
7000 8474
7000 8689
7000 9000
7000 9995
7000 10835
7000 12301
7000 12752
7000 13001
7000 13181
7000 13378
7000 14657
7000 14806
7000 15109
7000 15359
7000 15782
7000 16704
7000 18930
7000 19273
7000 20519
7000 23603
7000 23898
7001 7197
7001 8812
7002 11554
7003 9806
7003 22601
7005 10985
7005 11556
7005 19698
7005 20826
7006 7673
7006 16941
7006 23023
7006 23060
7007 7599
7008 10292
7008 13394
7008 17041
7008 21169
7008 22198
7009 10750
7009 17384
7010 10091
7010 17915
7010 22674
7011 10420
7011 11067
7011 22972
7012 16506
7013 8177
7013 9810
7013 10205
7013 17038
7014 15604
7014 16131
7014 16645
7014 17106
7014 18109
7014 20509
7014 20654
7014 22793
7015 7461
7015 9762
7015 16763
7015 21678
7015 23744
7016 10866
7016 10867
7017 9064
7017 10660
7017 12801
7017 12937
7019 8062
7019 16771
7019 23243
7020 10629
7020 16173
7020 16453
7020 19749
7021 11715
7021 22604
7022 12656
7022 14558
7022 22153
7023 7509
7023 7754
7023 8051
7023 17406
7023 18456
7023 19010
7024 17847
7024 22822
7025 9120
7025 13489
7025 17117
7025 22478
7026 13524
7026 16293
7026 18737
7027 12454
7027 21614
7028 11606
7028 13335
7028 18676
7029 8988
7029 9225
7029 16543
7029 21674
7030 12516
7030 15982
7031 10622
7031 16177
7032 23837
7032 24136
7033 9266
7033 17431
7034 12899
7034 18554
7034 21452
7035 13520
7035 22120
7036 8212
7036 10227
7036 10231
7036 13528
7037 12865
7037 15651
7038 7700
7038 11318
7038 11502
7038 11505
7038 21533
7039 10420
7039 13750
7039 22972
7040 16088
7040 18631
7040 19002
7040 20718
7041 7816
7041 20406
7042 9727
7042 10155
7042 10408
7042 11174
7042 11200
7042 13890
7042 15627
7042 18504
7042 20043
7042 21479
7042 21698
7042 22732
7042 23207
7042 23691
7043 7987
7043 9009
7043 9033
7043 11179
7043 11501
7043 14700
7043 16367
7043 17644
7043 20442
7043 22579
7043 23983
7043 24116
7043 24170
7044 14998
7044 15975
7045 10238
7045 10608
7045 15730
7045 15933
7045 21483
7045 21717
7045 22769
7046 7192
7046 13556
7046 16271
7047 7985
7047 12673
7047 13637
7047 13866
7047 16443
7047 17070
7047 17114
7047 17506
7047 19924
7047 20401
7047 23103
7048 23058
7050 7559
7050 21106
7051 8391
7051 8445
7051 9556
7051 10396
7051 10870
7051 11836
7051 12392
7051 15661
7051 19687
7051 20087
7051 21351
7051 21771
7052 23108
7052 23543
7052 23671
7052 24007
7052 24138
7052 24139
7053 12709
7054 13158
7054 18082
7054 18913
7055 7288
7055 8179
7055 8811
7056 12247
7056 24102
7056 24434
7057 10866
7057 23921
7057 24204
7058 10245
7059 11425
7059 14600
7059 18582
7060 9080
7060 9723
7060 24076
7061 9339
7061 9562
7061 11528
7061 14471
7062 23921
7062 23974
7062 24204
7063 8292
7063 8387
7063 15584
7063 17976
7064 20976
7065 7575
7065 16481
7065 17871
7066 9302
7066 17458
7067 14333
7067 15615
7067 16974
7067 18271
7068 10914
7068 21190
7069 11013
7069 19150
7069 24420
7070 10965
7070 12651
7070 16026
7071 7823
7071 17443
7071 19582
7071 23202
7072 9007
7072 11733
7072 13848
7072 15900
7072 17719
7072 19911
7072 20905
7072 21441
7072 22742
7073 10690
7073 18298
7074 13759
7074 14713
7074 23684
7075 13837
7075 15076
7076 11093
7076 16354
7076 19319
7077 9241
7078 18601
7078 19019
7078 21826
7080 15033
7080 15735
7081 11923
7081 13384
7081 14952
7081 21258
7082 8857
7082 13870
7082 21085
7083 8723
7083 9980
7083 13739
7083 14600
7083 15619
7083 19724
7083 19763
7084 12211
7084 12620
7084 22361
7085 15033
7085 23028
7086 9308
7086 13723
7086 17646
7087 7987
7087 9336
7087 11063
7088 8700
7088 11264
7088 19531
7088 19532
7089 10910
7089 15812
7089 19042
7089 19544
7089 20003
7091 9163
7091 12667
7091 15198
7091 18125
7091 19317
7091 20015
7091 21526
7091 23560
7092 12722
7092 18193
7092 20341
7093 11790
7093 21696
7094 8203
7094 10320
7095 12897
7096 8026
7096 21593
7096 21614
7097 9826
7097 10629
7097 10936
7097 12546
7097 16453
7097 17209
7098 20882
7098 22993
7099 11624
7099 23053
7100 8721
7100 8956
7100 9551
7100 16099
7100 16395
7100 16929
7100 20012
7100 20417
7100 20450
7100 20982
7100 21178
7100 21898
7101 9038
7101 11861
7101 17687
7102 15363
7102 22381
7103 24000
7103 24183
7103 24431
7103 24437
7104 20592
7104 21863
7104 22220
7105 7311
7105 9691
7105 12810
7105 14363
7105 16764
7106 12488
7106 16334
7106 19218
7107 7921
7107 8393
7107 22076
7108 13268
7108 23329
7109 7117
7109 16745
7109 22064
7110 14509
7111 8569
7111 14164
7111 14624
7111 23384
7112 21171
7112 22775
7113 7401
7113 21992
7114 11336
7114 18946
7114 19937
7114 21997
7115 23731
7116 9569
7117 10245
7117 11960
7117 13975
7117 14529
7117 14608
7117 16745
7118 20408
7118 22588
7119 7816
7119 9616
7119 18876
7119 20265
7120 17781
7121 12835
7121 20613
7122 9710
7122 17520
7123 15125
7123 22287
7124 8145
7124 22051
7125 10447
7125 12161
7125 21295
7126 22532
7127 9170
7127 16669
7127 21508
7127 22499
7128 14118
7128 22240
7128 22576
7129 7669
7129 8345
7129 10608
7129 15697
7129 16236
7129 17465
7130 7313
7130 12431
7130 12997
7130 13248
7130 13424
7130 15140
7130 19178
7130 19344
7130 20144
7131 10571
7131 15315
7131 19227
7132 8968
7133 18454
7133 19418
7133 19552
7133 19735
7134 12031
7134 22518
7135 12007
7135 23946
7136 14925
7136 19853
7137 14013
7137 15462
7137 17021
7137 17854
7137 20241
7137 22639
7138 11214
7138 14714
7139 14237
7139 20446
7140 10285
7140 12912
7140 15590
7140 19725
7140 23383
7141 8486
7141 10456
7141 12395
7142 10142
7142 19374
7143 8062
7143 11795
7143 16771
7143 23243
7144 8948
7144 8949
7144 20237
7144 20266
7145 9681
7145 20902
7146 17974
7146 19515
7147 12149
7147 12606
7147 13643
7147 14886
7147 17935
7147 21853
7148 12869
7149 23899
7149 24067
7151 14541
7152 8387
7152 9425
7153 9064
7153 12801
7153 12937
7153 16025
7153 22026
7154 13682
7154 19263
7155 8131
7155 12241
7155 23793
7155 24231
7156 20146
7156 23094
7157 11433
7157 14163
7157 17243
7157 22821
7158 11021
7158 15800
7158 18426
7158 20076
7159 11026
7159 12185
7159 15182
7159 22135
7159 22732
7160 7164
7161 9815
7161 14480
7161 18707
7161 23269
7161 23595
7162 18286
7162 18998
7163 23896
7163 24028
7163 24148
7164 7166
7164 7167
7164 24262
7165 7166
7165 10460
7165 12841
7166 7168
7166 10460
7166 23958
7167 7168
7167 24262
7168 19276
7168 24262
7169 11911
7169 15151
7169 19318
7170 21879
7171 14776
7171 22119
7171 22934
7172 10673
7172 18080
7173 12393
7173 15201
7173 22298
7174 7440
7174 15901
7174 16529
7174 20976
7175 10589
7175 14586
7175 16607
7175 21626
7176 7585
7176 8730
7176 8978
7176 11195
7176 16623
7176 17220
7177 7825
7177 9634
7177 11879
7177 12516
7177 15059
7177 15982
7177 17614
7177 19886
7179 11303
7179 15313
7179 23663
7180 7317
7180 7470
7180 8168
7180 8190
7180 8618
7180 9872
7180 9874
7180 10018
7180 10358
7180 11355
7180 12485
7180 13983
7180 15115
7180 16676
7180 17629
7180 19680
7180 20706
7180 21339
7180 21536
7180 22719
7181 7651
7181 10233
7181 23780
7181 23931
7182 7651
7182 11383
7182 14674
7182 16096
7183 10895
7183 20985
7183 22193
7183 23098
7184 7670
7184 10510
7184 11438
7185 9962
7185 15764
7186 15617
7186 16290
7186 22027
7187 9489
7188 9561
7188 9914
7188 13082
7188 14128
7188 21652
7189 10644
7189 13641
7189 17096
7189 18631
7190 7311
7190 12522
7190 18949
7190 19700
7190 20093
7191 8342
7191 22222
7192 11925
7192 17242
7193 8959
7193 10298
7193 20354
7194 8102
7194 16845
7194 22962
7194 23473
7195 19318
7196 21169
7196 22833
7197 8812
7197 15280
7197 15706
7197 16777
7197 19074
7197 19634
7197 20535
7197 21921
7197 22205
7197 23351
7198 18962
7198 20770
7198 21075
7198 21128
7199 8245
7199 17225
7199 19506
7200 7825
7200 15059
7200 15982
7200 19886
7200 20717
7201 7312
7201 17692
7201 22293
7201 22515
7203 19725
7203 22461
7204 11785
7204 15337
7205 13129
7206 13516
7207 8985
7207 10063
7207 11329
7207 12509
7207 15747
7208 7808
7208 23383
7209 10911
7209 11737
7209 12982
7209 13247
7209 16266
7210 17715
7210 23324
7211 9349
7211 22629
7212 8134
7212 11297
7212 21377
7213 10526
7213 11560
7213 18883
7213 19794
7214 7215
7214 12986
7214 17538
7214 18133
7214 21370
7215 12085
7215 12086
7215 12986
7215 17538
7215 17759
7215 20089
7215 21370
7216 14874
7216 18861
7217 10630
7217 14867
7217 14869
7218 13804
7218 14260
7218 14707
7218 23171
7218 24279
7218 24309
7218 24332
7219 12043
7219 18541
7219 24189
7219 24219
7220 15016
7221 13855
7221 14915
7221 24280
7221 24282
7222 12488
7222 13567
7223 13935
7223 17568
7224 10571
7224 11089
7224 11395
7224 12029
7224 17798
7224 18942
7224 19618
7224 22904
7225 9950
7225 24213
7226 15790
7226 17428
7226 18520
7226 19171
7227 10632
7227 18484
7227 18580
7228 9723
7229 9829
7229 13676
7229 16133
7229 19063
7230 21012
7231 12652
7231 20245
7231 21135
7231 21353
7231 23333
7232 11721
7233 8099
7233 19430
7233 19721
7234 23938
7234 24102
7235 7461
7235 9762
7235 13295
7235 19600
7236 18543
7236 20985
7237 7612
7237 8164
7237 9095
7237 10072
7237 10508
7237 13023
7237 14446
7237 16855
7237 18404
7237 18802
7237 20472
7238 17115
7238 20417
7238 21419
7239 9530
7239 23753
7239 24025
7239 24203
7240 23876
7240 24166
7241 10462
7241 10520
7241 14994
7241 19021
7242 14068
7242 14492
7242 14878
7242 18657
7243 18822
7243 18824
7244 11495
7244 11496
7245 23720
7245 24164
7246 9871
7246 15549
7247 16449
7247 17008
7247 20060
7248 15868
7248 19151
7249 9454
7249 17049
7249 21234
7249 22353
7250 11698
7250 13736
7250 23709
7250 23779
7251 8082
7251 12364
7251 18211
7251 19881
7251 20499
7251 22166
7251 22869
7252 18214
7253 12654
7253 14243
7253 16713
7253 22685
7254 7336
7254 14362
7255 7895
7255 11535
7255 12255
7255 13403
7256 9942
7256 10359
7256 19744
7257 12403
7257 12543
7257 21605
7257 21707
7258 18058
7258 19973
7258 20566
7259 9083
7259 15691
7259 18947
7259 19798
7259 21727
7260 11974
7260 11975
7260 12265
7260 19841
7260 23018
7261 8009
7261 8443
7261 11829
7261 21021
7262 17108
7263 7311
7263 19452
7263 20726
7264 23543
7265 7746
7265 11307
7265 12144
7265 12844
7265 13960
7265 19444
7265 20365
7265 23981
7265 24145
7265 24480
7265 24488
7266 8499
7266 8959
7266 13116
7266 22628
7267 12726
7267 15503
7267 23452
7268 8374
7268 9685
7268 10767
7268 13678
7268 18021
7268 22145
7269 7459
7269 18739
7269 21184
7270 8358
7271 10356
7272 7648
7272 16765
7273 8238
7273 24154
7274 12576
7274 17556
7275 14136
7275 16398
7276 8691
7276 17941
7277 8093
7277 15050
7277 16073
7277 16859
7277 21841
7278 14077
7278 14883
7279 10761
7279 16801
7279 17413
7279 17545
7279 18429
7280 9247
7280 11474
7280 12316
7280 14887
7281 8219
7281 13050
7281 13727
7281 14338
7281 21383
7282 12525
7282 19245
7282 24258
7283 12634
7284 7811
7284 8672
7284 10760
7284 15519
7284 16164
7284 16654
7284 19541
7284 21052
7284 23102
7286 8126
7286 11255
7287 8795
7287 10800
7287 19058
7288 8185
7288 11944
7288 14006
7289 9590
7289 15623
7290 8602
7290 13849
7290 15956
7290 18117
7290 19525
7290 22952
7291 9341
7291 10943
7291 15155
7291 16476
7291 17732
7291 18658
7291 20889
7291 21736
7291 21751
7291 22134
7292 12391
7292 13166
7292 14787
7292 14874
7292 18418
7292 18861
7293 9071
7293 10449
7293 14188
7293 14664
7293 21572
7293 23142
7293 23536
7294 20793
7295 11257
7295 13921
7295 15982
7295 20717
7295 20732
7295 21668
7295 22391
7296 8248
7296 10493
7296 13598
7296 14017
7296 14393
7296 16281
7296 20362
7296 22631
7296 23558
7297 8054
7297 15203
7297 19139
7298 8659
7298 9372
7298 9484
7298 9565
7298 11280
7298 11862
7298 15220
7298 16915
7298 18092
7298 18139
7298 18980
7298 23280
7298 24137
7299 14407
7299 15274
7299 16101
7300 9295
7300 11332
7301 10593
7302 7757
7302 9800
7302 12791
7302 17285
7302 18405
7303 18335
7303 20298
7303 20665
7304 11540
7304 17541
7304 17626
7305 14122
7305 20639
7306 10942
7306 15884
7306 22352
7307 9276
7307 11514
7307 12450
7307 13314
7307 20224
7308 8306
7308 10244
7308 14212
7308 23013
7309 15804
7309 19600
7310 11684
7310 11812
7310 17749
7310 23757
7311 7314
7311 7630
7311 8057
7311 8456
7311 9062
7311 9329
7311 9691
7311 9966
7311 9987
7311 10363
7311 11346
7311 11666
7311 12522
7311 13308
7311 13675
7311 14760
7311 14984
7311 15515
7311 17478
7311 17797
7311 18560
7311 18793
7311 19452
7311 19941
7311 20159
7311 20638
7311 20809
7311 21514
7311 22280
7312 14824
7312 22293
7312 23447
7313 15954
7313 17618
7313 19344
7313 21970
7315 7535
7315 15483
7315 18006
7316 8597
7316 11740
7316 23626
7317 9874
7318 10151
7318 15734
7319 8785
7319 18458
7320 15980
7320 16295
7320 19027
7320 23455
7321 7322
7321 11572
7321 11574
7321 20118
7322 7323
7322 11573
7322 11574
7322 15025
7322 20118
7322 21103
7322 21104
7323 11572
7323 11573
7323 11574
7324 8437
7324 9491
7324 9623
7324 11978
7324 12721
7324 17152
7324 18250
7324 18273
7324 19255
7324 21312
7324 21528
7324 22470
7324 22753
7324 23577
7325 10358
7325 13747
7325 18967
7325 19629
7326 8543
7326 12973
7326 13112
7326 14324
7326 15607
7326 21472
7326 21567
7327 10582
7327 11966
7328 23328
7329 18214
7329 22708
7330 24103
7330 24266
7330 24478
7331 16461
7332 11122
7332 14185
7332 20386
7333 14642
7333 17268
7333 22535
7334 11966
7334 19181
7335 11807
7335 14594
7336 16610
7336 19358
7338 7457
7339 13755
7340 11053
7340 18684
7340 23668
7340 23925
7341 23913
7341 24062
7342 9458
7342 9917
7342 16921
7342 17101
7343 9703
7343 17077
7344 9630
7344 12688
7345 9611
7346 7348
7346 18347
7346 22593
7346 23166
7347 18347
7347 23166
7348 7349
7348 18347
7348 22593
7348 23166
7349 18347
7349 22593
7350 7351
7351 18348
7351 21642
7352 9283
7352 10187
7352 21961
7353 11780
7353 20955
7354 22053
7355 15680
7355 20894
7356 9365
7356 17071
7356 18298
7357 7764
7357 8144
7358 14372
7358 17033
7359 13259
7359 16416
7359 20554
7360 7642
7360 11669
7360 13558
7360 14568
7360 21812
7361 7462
7361 9303
7361 9540
7361 9610
7361 12753
7361 13058
7361 14744
7361 15099
7361 16574
7361 16978
7361 17865
7361 17891
7361 18176
7361 20099
7361 20314
7361 20381
7361 21018
7361 21271
7361 21435
7361 23374
7363 13431
7363 18967
7363 19629
7364 8635
7364 12491
7364 12761
7364 13569
7364 15744
7364 20771
7365 12450
7365 13314
7365 21402
7365 22940
7366 9162
7366 10827
7366 13791
7366 18569
7366 22002
7367 8543
7367 12488
7367 12984
7367 14480
7368 12516
7368 15059
7368 15982
7368 19886
7368 20717
7369 8172
7369 10610
7369 17109
7370 21180
7370 21339
7371 9891
7371 15221
7371 16399
7371 16862
7371 16864
7372 7668
7372 13330
7372 14439
7372 16258
7372 20320
7372 21588
7373 11828
7373 13913
7373 17251
7373 17439
7373 20851
7374 10740
7374 12349
7374 24225
7375 7608
7375 8961
7375 11063
7375 11446
7375 12624
7375 15219
7375 16376
7375 22419
7375 23706
7375 23808
7375 24271
7376 9024
7376 12248
7376 13026
7376 13027
7376 20395
7377 23073
7378 23872
7378 23970
7379 7382
7379 8129
7379 9344
7379 10862
7379 11253
7379 24348
7380 18445
7380 20392
7380 23925
7381 14727
7381 15085
7381 15892
7381 18445
7381 23671
7381 23765
7381 24043
7381 24100
7382 12883
7382 23961
7383 7738
7383 14790
7383 18329
7384 8283
7384 12227
7384 19026
7384 22680
7385 11788
7385 14653
7385 14791
7385 22590
7387 9694
7387 18918
7387 21719
7387 22291
7388 23674
7389 8122
7389 8632
7389 8755
7389 9070
7389 12992
7389 13543
7389 13827
7389 14083
7389 14737
7389 14784
7389 16526
7389 16995
7389 17110
7389 18204
7389 18841
7389 18948
7389 20385
7389 21417
7389 21460
7389 22912
7390 10668
7390 11869
7390 12258
7390 20147
7390 22278
7390 23810
7390 23877
7390 24042
7391 18631
7392 10893
7392 22287
7392 23552
7393 7482
7393 9472
7393 22633
7394 9822
7394 15350
7395 8294
7395 9917
7395 15048
7396 9684
7396 13283
7396 14953
7396 20344
7397 10730
7397 12438
7397 12439
7397 13985
7397 14138
7397 18341
7397 22880
7397 23264
7398 24339
7399 15825
7399 20692
7400 11052
7400 17639
7400 18692
7400 21228
7400 21231
7400 21254
7401 8686
7401 11790
7401 18402
7401 21507
7401 21992
7402 9339
7402 11528
7402 12858
7402 19248
7403 15047
7403 16273
7403 16759
7403 19562
7404 10745
7404 13602
7404 20502
7405 23778
7406 8084
7407 10159
7407 11221
7407 18563
7407 21026
7408 12670
7408 12813
7408 18935
7409 10532
7409 12578
7409 18586
7409 22270
7410 8651
7410 13600
7411 12139
7411 20269
7412 21377
7412 24187
7414 8729
7414 16944
7414 18436
7414 20456
7415 9352
7415 16825
7415 21704
7416 7879
7416 24177
7416 24268
7417 23379
7418 11875
7418 12478
7418 20962
7418 22933
7419 11295
7419 12094
7419 16191
7419 16735
7420 8309
7420 15178
7420 23874
7420 24071
7421 16660
7421 19318
7421 20107
7422 10337
7423 14842
7424 12516
7424 15059
7424 19886
7424 20717
7427 14380
7427 15393
7427 20436
7428 7530
7428 18279
7429 8504
7429 18958
7430 12136
7430 18044
7431 10591
7431 15246
7431 18764
7431 22007
7432 11209
7432 18079
7432 20417
7433 8580
7433 10338
7433 12353
7433 13525
7433 15420
7434 8514
7434 12502
7435 7548
7435 9366
7436 15997
7436 16631
7437 10893
7438 10018
7438 20601
7438 20771
7439 22659
7439 22733
7439 22750
7440 16391
7440 20661
7440 21020
7441 11791
7441 23675
7441 23718
7441 24386
7442 9082
7442 11596
7442 24037
7443 9366
7443 20636
7444 14003
7444 20052
7445 10913
7445 13055
7445 17719
7445 21441
7446 9421
7446 12778
7446 16001
7446 17078
7446 21392
7446 24055
7447 7516
7447 7538
7447 16698
7447 16711
7447 21336
7448 13962
7448 21881
7449 7786
7449 11625
7449 20382
7450 8041
7450 8362
7450 9485
7450 10807
7450 11475
7450 12699
7450 12809
7450 15014
7450 17157
7450 17257
7450 18024
7450 19596
7450 21193
7450 22548
7450 22971
7450 23428
7451 20136
7452 7961
7452 19423
7453 11648
7453 19294
7454 10783
7454 15972
7454 23813
7454 24388
7455 8998
7455 10257
7455 15807
7455 19965
7455 21936
7455 23012
7456 12516
7456 14670
7456 21257
7457 7502
7457 8128
7457 14229
7458 9626
7458 12551
7458 24413
7459 14282
7459 17141
7459 18151
7460 18379
7460 19367
7461 15922
7461 21872
7462 12429
7462 16978
7463 11553
7463 19787
7464 11606
7464 13335
7464 16697
7464 17987
7464 18676
7464 19689
7465 9253
7465 15054
7465 16595
7465 18970
7466 10628
7466 14273
7466 18323
7467 7468
7467 7469
7467 18472
7468 8622
7468 18470
7468 18472
7469 8622
7469 8806
7469 10615
7469 18472
7470 9872
7470 22719
7471 10738
7471 15443
7471 22202
7472 8972
7472 13122
7473 15107
7474 12238
7474 13721
7475 22127
7476 9890
7476 11393
7476 12517
7476 17908
7476 22155
7477 10307
7477 13289
7477 15131
7477 16982
7478 13760
7478 19393
7478 21269
7479 7661
7479 8471
7479 11115
7480 8731
7480 13522
7480 16306
7480 20927
7481 13199
7481 22281
7482 22633
7482 24482
7483 10469
7483 11405
7483 15610
7483 20653
7484 8914
7484 16146
7484 16167
7484 16480
7484 19819
7485 13918
7485 15736
7486 18476
7487 23543
7488 20098
7489 16350
7490 12308
7490 12521
7490 12983
7490 18974
7490 23284
7491 24355
7491 24447
7491 24450
7492 12695
7492 16438
7493 13151
7493 14359
7493 16959
7494 23750
7495 23735
7495 24161
7496 9910
7496 15722
7496 18902
7496 19219
7496 22222
7496 22267
7497 12892
7497 14287
7497 20479
7498 8436
7498 9045
7498 15100
7498 15725
7498 19425
7498 21549
7499 7500
7499 9460
7499 13350
7499 13351
7500 7699
7500 13350
7501 16474
7501 17971
7501 19303
7503 9142
7503 10527
7503 15199
7503 24482
7504 11865
7504 13655
7504 16606
7504 17130
7504 22430
7504 23852
7505 8165
7506 8301
7507 9176
7507 18115
7507 21649
7508 9842
7508 21298
7508 23071
7509 8051
7510 8660
7510 11800
7510 18257
7510 19642
7511 22185
7511 22696
7511 23296
7512 12579
7512 17871
7513 19060
7513 21337
7514 21713
7515 8531
7515 11805
7515 20591
7515 22777
7516 7538
7516 7780
7516 14255
7516 16711
7516 19613
7516 21336
7517 8444
7517 13792
7517 15413
7517 22051
7518 7678
7518 14746
7518 19829
7518 20773
7519 21181
7520 13296
7521 10021
7521 10211
7521 16616
7521 20173
7521 24073
7521 24302
7522 17839
7522 19864
7522 23276
7523 10672
7523 23308
7524 9258
7524 14087
7525 7831
7525 13170
7526 11074
7526 11516
7526 11519
7526 20763
7527 11106
7527 12357
7527 18192
7527 18901
7527 19552
7527 22174
7528 14272
7528 16662
7529 9381
7529 10735
7529 13059
7529 18285
7529 19921
7530 18279
7531 12400
7531 14503
7531 19156
7531 19163
7531 19164
7531 19753
7531 19854
7531 22452
7531 22774
7531 23705
7532 12713
7532 13299
7533 8427
7533 13623
7533 15037
7533 20367
7533 21061
7534 18725
7535 9750
7535 9913
7535 10614
7535 11677
7535 12133
7535 15483
7535 17625
7535 17855
7535 19089
7535 19533
7535 19811
7535 19977
7536 8554
7537 7640
7537 23955
7537 24279
7538 19613
7539 9543
7539 12959
7539 13122
7539 22138
7541 11754
7541 23742
7541 23794
7542 11337
7542 11756
7542 12092
7542 14985
7543 23029
7543 23687
7544 12687
7545 7895
7545 23929
7545 24177
7546 11947
7546 13959
7546 15681
7547 18286
7547 22116
7548 8297
7548 8463
7548 9366
7548 10484
7548 15175
7548 18360
7548 20126
7549 21566
7549 23169
7550 12579
7550 14630
7551 13262
7551 17782
7551 19591
7552 9491
7552 12118
7552 17603
7552 18032
7552 18400
7552 22318
7553 12099
7553 23194
7554 14295
7554 21706
7554 22296
7555 7737
7555 8151
7555 23740
7556 19026
7556 22680
7557 8890
7557 13918
7558 22283
7559 8842
7559 9115
7559 13596
7559 14626
7559 16838
7559 17184
7559 18561
7559 21232
7559 23522
7559 23532
7560 8304
7560 9957
7560 20990
7560 23624
7561 9829
7561 15106
7561 17149
7562 9350
7562 14846
7562 15197
7562 16265
7562 20333
7563 9323
7563 20660
7564 15988
7564 17650
7565 9237
7565 16952
7566 10146
7566 12507
7566 22213
7567 11661
7567 12372
7567 18694
7568 7569
7568 12017
7568 23630
7568 24192
7569 8481
7569 23903
7570 20426
7570 20427
7570 23786
7571 7580
7571 12672
7571 19445
7572 7914
7572 16846
7573 7772
7573 8930
7573 24083
7574 23630
7574 23903
7574 24118
7574 24192
7575 15614
7576 10980
7576 11913
7576 12423
7576 13662
7576 17354
7576 21064
7577 10120
7577 17094
7577 22857
7578 7996
7578 21792
7579 9233
7579 10096
7579 11933
7579 11989
7579 16503
7579 19567
7580 8695
7580 19445
7580 20467
7581 19460
7581 20744
7582 9300
7583 8298
7583 14770
7583 16199
7583 18193
7583 19191
7583 20846
7584 13031
7584 13621
7584 15772
7584 18640
7585 8260
7585 9747
7585 9945
7585 11784
7585 12897
7585 12938
7585 13372
7585 17885
7585 19660
7585 20757
7587 15159
7587 17695
7587 19040
7588 18732
7589 8707
7589 14449
7590 17409
7590 21721
7591 8456
7591 11346
7591 19452
7592 8591
7593 7931
7593 10717
7593 18547
7594 8591
7594 14412
7595 15773
7597 23876
7598 14570
7598 16628
7598 17000
7599 9339
7599 9562
7600 11738
7600 23188
7600 23311
7601 7888
7601 8156
7601 12391
7602 19949
7602 21045
7603 7897
7603 10593
7603 12981
7603 18371
7604 9571
7604 15160
7604 19180
7605 10004
7605 10702
7606 21603
7606 22033
7606 22035
7608 9686
7608 11446
7609 10174
7609 12219
7609 22048
7610 10724
7610 13914
7610 16703
7610 16952
7610 19677
7610 21775
7611 8515
7611 17428
7612 14446
7613 9638
7613 10784
7613 16940
7613 19234
7613 21113
7614 7736
7614 16009
7614 17030
7614 17948
7615 9408
7615 15688
7615 20690
7615 21694
7615 21955
7616 10176
7616 12994
7616 13664
7616 16355
7616 21149
7617 12897
7617 16315
7617 19439
7617 21546
7618 17274
7618 17861
7619 9284
7619 9294
7619 9406
7619 10930
7619 11804
7619 13352
7619 15916
7619 17777
7619 20283
7619 21350
7620 17382
7620 20492
7621 21713
7622 13638
7622 19332
7622 23683
7623 8069
7623 12549
7623 15671
7624 9288
7624 21072
7625 21537
7626 13040
7626 18649
7626 21672
7627 9000
7627 12579
7627 13181
7627 16704
7627 22849
7628 7629
7628 18106
7629 14615
7629 17921
7629 22032
7630 14984
7630 19452
7631 20174
7631 22632
7631 23347
7632 8750
7632 12700
7632 13054
7632 22941
7632 23260
7633 11966
7633 22885
7634 15517
7634 20094
7634 20692
7635 19444
7635 24145
7636 21170
7636 22678
7638 20893
7638 23955
7638 24332
7638 24423
7639 7640
7639 11134
7639 23857
7640 8229
7640 12165
7640 18067
7640 23876
7640 24166
7641 9496
7641 9887
7641 10057
7641 12649
7641 16225
7641 20893
7641 21099
7641 22688
7641 23923
7641 24096
7641 24150
7642 10990
7642 13558
7642 14568
7642 21812
7643 13941
7644 9191
7644 11968
7644 18153
7644 19183
7645 9023
7645 21556
7645 22156
7646 8422
7646 8796
7646 9159
7646 9709
7646 12098
7646 13041
7646 22320
7647 9150
7647 9579
7647 9983
7647 13943
7647 23812
7647 24212
7647 24305
7647 24338
7648 16765
7649 12064
7649 18430
7649 19554
7650 16823
7650 22365
7651 11383
7651 13999
7651 14917
7651 16473
7651 17290
7651 23780
7652 21275
7653 7859
7653 8930
7653 24083
7653 24321
7654 12146
7654 18656
7654 20024
7655 18202
7655 22379
7656 7876
7656 11901
7656 15938
7656 20634
7656 23412
7657 9852
7657 13673
7658 7876
7658 18202
7658 18203
7658 20634
7660 8777
7661 8471
7661 24402
7662 8986
7662 13615
7662 13616
7662 19263
7663 10929
7663 11412
7663 12999
7663 16316
7664 8144
7664 10064
7665 12026
7665 12479
7665 12481
7665 12916
7665 14222
7665 16762
7666 13157
7666 21114
7667 8017
7667 12280
7667 18239
7667 19012
7667 19458
7668 9607
7668 12047
7668 12976
7668 14439
7668 20320
7668 21599
7669 8345
7669 15697
7669 16236
7669 17465
7669 17466
7669 17467
7669 17468
7670 11063
7671 15208
7671 20941
7672 12801
7672 16025
7672 16195
7672 22026
7673 7976
7673 9630
7673 12100
7673 12688
7673 16468
7673 16941
7673 22089
7673 23023
7673 23060
7674 7944
7674 14554
7674 19789
7674 21708
7674 23092
7675 14682
7675 18052
7675 23494
7676 23978
7677 8348
7677 8373
7677 17382
7677 20492
7677 21743
7678 14746
7678 20773
7679 23528
7681 9718
7681 10043
7681 12829
7681 13744
7681 19707
7681 22450
7681 22649
7682 7984
7682 12622
7683 8613
7683 9172
7683 10269
7683 12843
7683 14109
7683 16327
7684 11508
7684 23696
7685 13535
7685 17636
7685 17741
7685 18663
7685 23223
7686 9204
7686 10310
7686 14247
7686 22028
7686 23369
7687 9700
7687 13813
7687 14282
7687 16172
7687 17141
7688 13364
7688 17860
7688 19927
7689 12580
7689 19112
7690 7977
7690 9164
7690 11924
7690 14341
7690 18898
7690 19184
7690 21556
7690 21570
7690 21781
7691 13504
7691 18631
7691 21029
7691 22365
7692 8808
7692 8809
7692 14550
7692 14681
7693 14777
7693 15480
7694 8808
7694 8809
7694 14550
7694 14681
7694 14798
7694 17455
7695 15115
7695 20771
7696 11499
7696 14226
7697 13939
7697 21082
7697 21405
7698 17090
7699 13350
7699 20238
7700 11318
7701 8305
7701 19229
7701 20266
7701 22589
7702 8753
7702 12819
7702 14363
7703 7834
7703 9483
7703 11874
7703 12288
7704 12129
7704 12710
7704 13738
7705 13344
7705 16274
7705 17249
7705 20573
7706 8468
7706 22465
7707 10881
7707 11456
7707 12499
7707 12756
7707 16325
7707 18143
7707 19981
7708 7722
7708 23604
7709 8954
7709 10970
7709 14539
7709 17969
7710 12897
7710 22885
7711 9769
7711 18083
7711 23005
7712 19855
7713 11980
7713 23203
7713 24093
7713 24154
7714 17305
7715 17029
7715 19051
7716 9735
7716 11610
7716 14585
7717 8215
7717 15665
7717 23403
7718 23731
7719 11630
7719 14035
7719 15788
7719 16079
7719 20321
7720 7801
7720 14702
7720 21303
7720 23168
7721 12016
7721 12017
7721 12018
7721 22794
7721 23936
7721 24118
7721 24185
7721 24193
7721 24194
7723 9545
7723 14628
7723 23499
7724 10432
7724 14130
7724 14474
7725 14877
7725 20377
7725 23369
7726 8163
7726 11785
7726 15127
7726 17252
7727 7779
7727 11770
7727 12544
7727 15960
7727 17079
7727 17873
7727 19448
7727 21083
7727 23291
7728 12045
7728 20306
7728 21787
7729 14161
7729 15934
7729 21864
7730 8318
7730 22209
7730 22645
7730 23511
7731 17186
7732 9203
7732 12127
7733 15527
7733 18584
7734 14826
7734 23404
7735 8317
7735 11634
7735 13932
7735 22176
7736 9445
7736 16009
7736 17997
7736 19005
7737 16165
7738 14790
7739 13432
7739 16253
7739 17031
7739 21031
7739 23220
7739 23458
7740 15556
7741 21654
7741 21927
7741 22913
7742 11774
7742 17758
7742 17835
7742 18148
7742 21248
7742 22187
7742 23461
7743 9896
7743 11338
7743 11667
7743 22013
7743 22014
7743 22015
7743 23633
7743 23738
7743 23820
7743 24284
7743 24365
7743 24487
7744 15637
7744 18474
7745 8440
7745 15768
7745 15986
7745 20584
7745 20899
7746 24476
7746 24488
7747 14183
7747 16874
7748 8594
7748 23896
7748 24028
7748 24148
7749 8857
7749 13870
7749 23200
7751 16624
7751 16768
7752 23861
7753 12462
7753 16182
7753 17527
7753 17580
7753 18616
7753 20259
7754 8051
7754 15012
7754 17406
7754 18091
7755 8930
7755 24380
7756 22368
7757 12791
7757 14188
7757 14664
7757 18292
7757 18405
7758 9819
7758 11564
7758 19028
7758 20549
7758 22284
7758 22426
7759 16608
7759 20189
7760 11757
7760 11838
7761 8857
7761 9284
7761 9294
7761 9406
7761 13352
7761 15365
7761 15650
7761 17777
7761 19742
7762 15411
7762 20295
7762 20604
7763 9325
7763 14018
7763 15350
7764 8144
7764 11851
7764 13329
7764 16775
7764 19638
7764 21266
7765 8173
7765 19314
7765 23028
7766 11394
7766 11703
7766 11944
7766 19241
7766 22264
7767 8369
7767 13188
7767 14271
7767 19200
7767 21585
7768 12590
7768 13861
7768 23813
7768 24276
7769 10038
7769 19951
7769 20400
7769 21486
7769 23056
7770 14219
7770 21620
7771 8777
7772 8930
7772 24083
7773 21713
7774 8213
7774 13557
7774 17462
7775 11514
7775 22940
7776 9457
7777 14158
7777 21608
7777 21750
7777 22865
7777 23079
7778 14311
7779 8430
7779 11421
7779 11422
7779 12403
7779 12544
7779 15960
7779 17873
7779 19054
7780 13900
7780 17100
7780 19379
7780 19613
7780 21892
7781 12403
7781 21605
7781 21707
7783 14855
7783 20499
7783 22166
7784 10391
7784 10716
7784 22376
7785 13030
7785 13481
7786 12015
7787 9763
7787 10928
7787 12376
7787 14814
7787 17006
7787 17116
7787 17657
7787 18266
7788 11802
7788 21592
7789 8290
7789 10743
7789 15458
7790 14860
7790 15957
7790 16310
7790 19827
7791 7973
7791 9476
7791 17866
7792 10887
7792 11689
7792 15719
7792 22273
7793 14569
7793 20199
7793 20653
7794 15434
7794 18077
7794 22992
7796 10222
7796 12113
7796 12596
7797 16951
7797 18568
7797 22232
7798 9834
7798 14354
7798 20280
7798 21799
7798 22791
7799 8646
7799 10667
7799 11956
7799 18442
7799 18670
7799 20914
7799 22844
7800 15080
7801 11672
7801 14702
7801 23168
7802 11688
7802 21026
7803 21455
7804 7814
7804 13763
7804 13994
7804 17056
7804 17057
7804 17474
7804 17476
7804 18059
7804 18060
7804 23224
7804 23226
7805 7950
7805 15377
7805 20131
7806 11436
7806 22697
7807 10661
7807 13298
7807 16538
7807 19582
7808 10285
7808 15659
7808 20413
7809 8433
7809 17687
7809 19338
7810 10160
7810 10472
7810 11467
7810 13731
7810 16673
7810 17347
7810 18168
7810 18814
7811 10280
7811 10760
7811 10794
7811 10885
7811 12471
7811 15519
7811 15877
7811 16418
7811 17627
7811 23102
7812 16624
7812 16768
7812 17447
7813 13696
7813 17345
7814 8586
7814 13763
7814 13764
7814 17056
7814 18424
7814 18483
7814 18484
7814 18485
7814 23224
7814 23226
7815 9694
7815 13471
7815 16772
7815 17283
7815 18918
7815 19899
7815 20203
7815 21015
7815 21152
7815 21206
7815 21719
7815 22663
7815 23051
7815 23531
7816 18876
7816 20265
7816 20406
7817 7818
7817 9202
7817 12067
7818 7819
7818 7822
7818 7824
7818 12067
7819 7821
7820 8072
7821 7822
7821 7824
7822 7824
7822 12067
7823 10142
7823 10328
7823 11918
7823 13440
7823 18378
7824 12067
7825 15059
7825 15982
7826 10004
7827 10591
7827 11955
7827 17560
7827 22555
7828 9048
7828 19117
7829 11958
7829 13390
7829 17089
7829 21828
7830 17541
7830 19772
7831 10631
7832 16425
7832 16511
7833 8837
7833 15032
7833 20165
7834 11874
7834 12288
7834 22381
7835 10598
7836 14921
7836 17430
7837 9035
7837 11959
7837 13200
7837 16867
7837 21693
7837 22612
7838 12129
7838 14016
7838 14616
7838 15023
7838 19780
7839 17043
7839 20009
7840 12631
7840 22442
7841 16537
7842 15242
7842 18380
7842 20177
7843 23791
7843 24377
7844 8753
7844 9529
7844 15212
7844 19022
7845 9568
7845 11552
7845 15686
7845 15766
7845 19555
7845 20478
7845 22873
7845 23601
7846 13965
7846 17654
7847 8019
7847 18732
7848 23630
7849 8481
7849 12467
7849 23630
7849 24121
7849 24192
7849 24289
7849 24327
7849 24417
7849 24469
7850 8215
7850 8460
7850 13035
7850 15016
7851 8034
7851 15130
7852 10868
7852 13539
7852 17156
7852 17788
7852 19739
7852 22994
7853 14331
7854 9888
7854 18915
7854 23503
7855 8019
7855 8615
7855 13227
7856 11368
7856 12351
7856 20823
7858 20408
7858 22588
7859 7924
7859 8637
7859 10792
7859 13612
7859 15321
7859 17826
7859 18652
7859 18808
7859 22736
7859 23629
7859 23658
7859 23721
7859 24036
7859 24233
7859 24274
7859 24314
7860 11100
7860 14286
7860 16571
7860 19428
7861 8886
7861 21029
7862 22037
7863 18256
7863 20820
7864 8019
7865 11583
7865 23296
7865 23587
7866 8962
7866 9286
7866 12994
7866 14530
7866 22344
7867 16554
7867 20498
7868 8935
7868 9083
7868 9552
7868 12638
7868 13919
7868 15804
7868 18951
7868 19217
7868 19600
7868 19798
7868 20674
7868 20768
7868 21622
7868 21678
7868 21727
7868 22192
7868 22495
7868 22718
7868 23744
7869 8322
7869 9799
7870 12121
7870 14715
7871 9119
7871 23713
7871 23938
7872 23786
7872 24053
7873 7979
7873 8824
7873 9709
7873 12930
7873 17460
7873 17584
7873 21534
7873 23031
7873 23072
7873 23214
7874 18449
7874 18910
7875 9002
7875 11267
7875 12470
7875 16001
7875 17078
7876 9126
7876 10031
7876 11901
7876 11902
7876 12857
7876 14473
7876 15939
7876 17010
7876 18203
7876 20116
7876 20633
7876 20634
7876 22379
7876 22380
7876 23412
7876 23528
7877 14154
7877 14292
7877 19257
7877 21154
7877 21352
7878 14038
7879 12940
7879 24081
7879 24186
7879 24268
7879 24322
7880 11191
7880 12850
7880 13784
7880 19138
7881 14462
7881 15789
7881 16894
7882 11357
7882 18286
7882 18375
7882 18998
7882 23100
7884 10593
7885 8979
7885 11340
7885 21558
7886 11791
7886 24225
7886 24386
7887 8954
7887 10970
7887 14539
7888 8354
7888 10070
7888 10514
7888 11566
7888 11866
7888 11921
7888 12690
7888 13591
7888 14256
7888 14508
7888 14874
7888 15783
7888 16709
7888 16832
7888 16848
7888 17026
7888 17789
7888 18365
7888 18556
7888 21159
7888 21760
7888 21866
7888 21883
7888 21900
7888 22978
7889 9960
7889 18840
7890 16963
7891 18593
7891 23248
7892 18881
7892 19287
7892 20647
7894 12399
7894 18119
7894 19554
7895 11641
7895 24013
7895 24088
7895 24177
7896 10671
7896 16943
7897 10174
7897 12625
7897 15742
7897 16751
7897 19825
7897 20737
7897 22048
7898 8778
7898 10138
7898 10812
7898 11895
7898 18847
7898 19831
7899 7900
7899 7902
7899 7904
7899 18349
7899 22355
7900 7902
7900 7904
7900 8718
7901 8718
7901 18603
7901 20122
7902 7904
7902 18349
7902 22355
7903 13196
7903 13593
7903 18537
7904 18603
7904 22355
7904 22464
7905 8907
7905 9816
7905 12109
7905 17182
7905 20679
7905 22582
7907 20376
7907 22287
7908 8887
7908 13965
7908 16936
7908 20936
7908 22152
7909 15957
7909 16894
7910 23865
7910 23900
7910 24067
7911 10416
7911 11059
7911 11151
7911 15665
7911 18779
7912 17992
7912 19318
7912 20107
7913 15287
7913 21681
7914 8179
7914 8811
7915 11310
7915 16722
7915 17515
7916 15538
7916 15704
7916 18631
7917 9384
7917 18849
7917 24080
7918 11980
7918 23920
7918 24154
7919 24167
7920 8281
7920 12835
7921 8393
7921 20311
7922 11551
7922 11731
7922 14697
7922 14833
7923 10774
7923 11417
7923 15271
7923 17224
7923 22565
7924 8930
7924 15580
7924 23734
7925 8551
7925 17225
7925 20816
7926 11540
7926 17626
7926 19772
7927 22154
7928 10367
7928 15580
7928 24233
7928 24274
7929 12020
7929 14786
7929 18845
7929 20260
7930 11693
7930 16539
7931 10717
7931 17530
7931 17669
7931 20282
7932 21162
7933 12102
7933 12620
7933 19198
7934 9478
7934 9792
7934 15452
7934 21096
7935 9976
7935 16374
7936 8595
7936 13257
7937 19148
7937 23369
7937 24479
7938 9609
7938 11639
7938 12223
7938 12325
7938 12448
7938 12487
7938 12558
7938 13518
7938 14526
7938 17221
7938 20560
7939 15861
7939 15862
7939 16889
7940 10551
7940 23653
7941 13210
7941 14940
7941 15648
7942 8142
7942 8356
7942 10497
7942 10707
7942 11784
7942 12897
7942 13372
7942 14155
7942 14845
7942 16016
7942 17231
7942 19715
7942 20757
7942 21546
7943 18900
7944 14554
7944 17432
7945 8372
7945 10437
7945 14903
7945 19956
7945 21676
7946 8800
7946 14585
7947 19438
7948 8290
7948 13122
7949 9890
7949 11393
7949 12517
7949 22155
7950 12437
7950 18340
7950 20130
7951 18355
7951 19040
7952 15274
7952 17154
7952 22927
7953 19968
7954 14191
7954 22627
7955 8280
7955 11031
7955 15018
7956 7959
7956 11465
7956 11466
7957 11401
7957 11402
7957 18224
7958 9510
7958 12040
7958 20672
7958 20877
7959 11466
7959 11877
7960 8997
7960 15862
7960 16889
7960 17825
7961 11710
7961 16921
7962 8930
7962 18396
7962 24083
7963 14796
7963 18776
7963 23378
7964 10469
7964 19611
7964 20461
7965 9091
7965 13233
7965 14121
7965 15715
7965 15732
7965 16435
7965 17712
7965 18735
7965 20854
7965 21653
7965 22338
7965 23730
7966 15145
7966 19381
7967 8023
7967 21770
7968 12043
7969 11650
7969 15230
7969 16076
7971 15351
7972 11683
7972 13707
7972 14117
7972 14601
7972 17857
7972 19051
7972 20075
7972 20528
7972 20871
7973 17962
7973 23358
7974 12388
7974 23789
7974 24346
7975 8539
7975 11651
7975 15242
7975 16283
7976 23023
7977 9813
7977 10053
7977 10122
7977 10240
7977 10583
7977 11725
7977 12832
7977 12918
7977 13379
7977 13777
7977 13800
7977 14162
7977 14749
7977 15427
7977 17980
7977 19704
7977 20668
7977 20915
7977 21424
7977 21556
7977 21570
7977 23299
7978 10215
7978 10992
7978 12026
7978 12070
7978 12481
7978 12849
7978 14270
7978 16541
7978 18568
7978 20370
7978 21819
7978 23047
7978 23048
7979 12930
7979 18001
7980 8645
7980 16593
7980 16897
7980 17565
7980 18594
7980 19554
7981 7982
7981 8528
7981 9699
7982 13697
7982 18494
7983 12842
7983 15958
7983 18510
7984 8397
7984 8788
7984 12168
7984 12622
7984 13046
7984 19936
7984 23985
7984 24041
7984 24104
7984 24152
7984 24428
7985 10636
7985 17070
7985 22858
7985 23103
7986 12767
7986 17531
7986 18423
7987 10510
7987 11839
7987 17931
7987 21063
7987 24177
7988 8109
7988 9205
7988 12594
7988 16054
7988 18147
7989 22296
7990 8857
7990 8977
7990 9300
7990 13870
7990 14335
7990 19527
7990 21510
7990 23091
7990 23232
7991 11002
7991 12674
7991 23699
7992 15786
7992 17935
7992 20527
7993 9166
7993 9376
7993 11387
7993 22454
7994 11699
7994 17616
7995 10166
7995 16426
7995 17082
7995 17608
7995 19848
7996 11649
7996 21792
7997 20729
7998 16194
7998 18631
7998 19564
7999 9814
7999 17162
7999 21881
8000 8147
8000 8819
8000 10470
8000 16945
8000 18305
8000 19416
8000 21680
8001 19673
8001 23240
8002 8782
8002 8857
8002 10523
8004 15167
8004 19631
8005 8350
8005 23641
8005 23924
8007 8660
8007 11800
8007 18257
8007 19642
8009 8443
8009 13554
8010 14600
8010 15619
8010 16651
8011 9375
8012 9117
8012 16780
8012 19998
8013 10235
8014 9681
8014 12934
8014 13508
8014 18417
8014 19032
8014 19647
8014 20902
8014 22850
8015 10159
8015 11688
8015 20812
8016 12581
8016 15767
8016 15879
8016 20907
8016 22487
8016 23839
8016 24052
8016 24053
8017 20399
8017 21712
8018 8265
8018 12708
8018 18782
8018 19923
8019 8615
8019 9817
8019 10097
8019 11316
8019 11728
8019 11762
8019 12104
8019 12147
8019 12157
8019 13060
8019 15287
8019 16828
8019 18385
8019 19144
8019 19997
8019 20371
8019 20516
8019 20804
8019 21199
8019 21345
8019 21681
8019 21820
8019 21963
8019 22005
8019 22313
8019 22494
8019 22598
8020 8871
8020 14412
8020 14970
8021 19058
8022 8782
8023 9798
8023 10914
8023 17272
8023 17923
8023 21770
8023 23179
8024 17216
8024 21962
8025 14049
8025 17686
8026 8800
8026 8883
8026 9456
8026 9765
8026 10896
8026 11007
8026 11030
8026 11571
8026 11601
8026 11610
8026 11639
8026 11861
8026 12558
8026 13111
8026 13319
8026 14526
8026 14585
8026 14923
8026 15083
8026 15541
8026 15703
8026 16955
8026 19292
8026 19982
8026 20607
8026 21177
8026 21418
8026 21621
8026 21887
8026 22982
8026 23393
8026 23456
8026 23583
8027 11406
8027 15032
8027 20165
8027 22853
8028 10496
8028 12132
8028 14693
8028 22518
8029 12540
8029 17261
8029 19406
8030 10073
8030 10507
8030 12684
8030 18911
8030 19959
8030 20138
8030 22585
8031 10131
8031 11937
8032 8033
8032 8897
8032 8898
8032 9985
8032 10675
8032 11506
8032 12853
8032 16756
8032 16895
8032 21277
8032 23007
8032 23008
8032 23152
8033 12854
8033 16756
8033 19242
8033 23152
8034 9687
8034 9727
8034 10408
8034 11163
8034 11712
8034 13108
8034 14651
8034 15130
8034 17905
8034 22165
8035 9040
8035 9452
8035 17830
8035 18199
8036 8225
8036 15572
8036 16066
8036 18605
8036 19767
8036 22778
8037 12802
8037 18678
8037 21868
8038 10327
8038 13790
8039 11640
8039 14668
8039 15042
8039 22644
8040 10246
8040 15111
8040 20421
8041 22548
8042 9851
8042 10971
8042 11034
8042 11160
8042 14236
8042 14825
8042 15793
8042 16251
8042 17765
8042 18846
8042 23080
8043 14538
8043 14589
8043 18512
8043 21088
8044 9586
8044 10010
8044 11016
8044 16903
8044 24010
8044 24047
8044 24287
8044 24398
8045 20650
8046 8475
8046 8986
8046 10402
8047 10402
8047 14535
8047 22372
8048 15953
8048 18940
8048 19633
8049 16545
8049 17845
8049 19149
8050 12453
8050 23829
8051 15012
8051 17406
8052 11908
8053 8647
8053 11002
8053 23196
8053 23266
8054 9186
8054 10927
8054 11787
8054 11945
8054 14865
8054 18852
8054 19139
8054 20281
8054 20589
8054 21628
8055 8604
8055 8817
8055 12319
8055 14836
8055 15673
8055 17648
8055 18838
8055 19922
8055 20096
8055 23539
8056 8799
8056 16143
8057 11861
8057 17687
8058 8266
8058 16768
8058 17447
8058 18632
8058 20973
8059 13711
8059 15329
8059 21606
8059 22795
8060 10331
8060 18116
8060 19126
8061 8857
8061 9157
8061 13870
8061 20216
8062 15305
8062 16672
8063 14687
8063 17712
8063 18735
8063 22981
8064 10039
8064 10599
8064 11934
8064 12053
8064 13346
8064 15306
8064 15712
8064 16883
8064 19210
8064 19824
8064 22592
8064 22735
8064 22904
8065 10336
8065 12576
8065 13414
8065 14272
8065 14351
8066 8965
8066 10925
8066 11883
8066 18281
8066 18412
8067 23431
8068 12019
8069 12549
8069 19970
8069 22465
8070 8135
8071 14643
8071 20813
8071 22151
8072 10776
8072 15077
8073 10464
8073 19017
8073 23065
8073 23537
8074 10853
8074 15417
8075 11898
8075 11899
8075 16352
8076 11781
8076 22022
8077 11131
8077 15492
8077 23148
8078 8878
8078 11998
8078 12087
8078 13028
8078 14728
8078 18787
8078 20731
8078 23401
8078 23760
8079 9743
8079 9782
8079 15612
8079 17652
8080 23725
8081 13398
8081 18937
8081 21066
8082 9175
8082 10034
8082 10364
8082 10538
8082 12364
8082 13901
8082 14159
8082 15374
8082 15672
8082 18169
8082 18211
8082 19424
8082 20448
8082 20624
8082 20989
8082 21062
8082 21988
8082 22166
8082 22433
8082 22531
8082 22665
8082 22722
8082 22995
8082 23085
8083 9486
8083 24243
8084 11620
8084 12967
8084 14561
8084 15350
8084 16784
8084 17536
8084 18962
8084 23858
8085 9959
8085 13455
8085 15053
8085 16015
8085 16819
8085 19418
8085 19834
8085 23424
8085 23553
8086 10584
8086 16284
8086 17670
8086 19090
8087 9558
8087 19937
8088 12509
8088 17119
8088 21482
8089 17305
8089 19923
8089 20107
8090 22709
8091 11555
8091 17502
8091 17605
8092 11575
8092 23912
8092 23969
8093 16073
8094 10527
8094 15199
8095 11405
8095 20653
8095 21488
8095 21671
8096 8433
8096 10278
8096 17687
8097 11147
8097 14073
8097 14074
8097 15461
8097 18897
8097 22773
8097 23906
8099 11488
8099 19721
8100 17243
8101 17411
8102 9349
8102 10918
8102 22780
8103 8221
8103 16220
8104 11710
8104 19423
8104 21593
8105 10846
8105 14797
8106 18974
8106 23526
8107 14472
8107 14501
8107 24164
8108 8286
8108 17395
8108 21530
8108 23276
8109 9205
8109 12218
8110 14653
8111 8446
8111 18819
8111 22881
8112 15350
8113 9960
8113 19554
8114 10974
8114 13300
8114 16054
8114 18031
8114 18439
8114 18875
8114 20510
8114 23493
8115 11935
8115 20503
8115 21512
8116 8853
8116 10164
8116 12134
8116 13222
8116 14795
8116 15435
8116 16796
8116 17689
8116 18177
8116 23381
8117 16511
8117 20544
8118 10649
8118 15341
8118 20476
8119 13221
8120 9975
8120 15650
8120 19742
8120 21195
8121 23735
8121 23824
8121 24015
8122 16995
8122 18841
8123 15042
8123 22653
8124 12851
8124 22384
8125 12411
8126 11608
8126 14147
8126 19325
8127 11911
8127 12891
8127 19318
8127 22025
8129 21444
8129 23773
8129 23896
8129 24301
8129 24376
8130 15152
8130 18494
8131 8490
8131 24397
8132 12722
8132 15868
8132 18193
8134 21377
8134 24016
8134 24134
8135 14847
8136 8137
8136 8293
8136 10224
8136 19282
8137 8293
8137 8629
8137 10224
8137 10650
8137 11679
8137 14995
8137 19282
8137 24397
8137 24399
8137 24420
8137 24429
8138 20205
8138 23542
8139 19709
8139 22757
8140 15323
8140 17343
8141 12370
8141 23568
8142 14297
8143 17039
8144 10900
8144 11851
8144 19352
8145 14961
8146 11912
8146 19552
8147 10470
8147 11784
8147 12286
8147 12897
8147 13372
8147 20757
8148 8962
8148 14461
8149 12675
8149 17702
8149 19167
8149 24352
8149 24404
8150 13783
8150 18716
8150 22855
8151 16165
8151 23740
8152 12179
8152 19832
8153 8804
8153 24009
8153 24158
8154 17553
8154 18631
8154 19692
8154 22365
8155 12638
8155 18100
8155 19513
8155 22192
8156 8354
8156 10468
8156 12391
8156 13166
8156 13591
8156 14256
8156 18398
8156 18418
8156 18781
8156 18861
8156 21866
8156 21900
8157 12345
8157 15178
8157 17808
8157 23787
8157 24071
8158 17248
8158 17495
8159 10712
8160 13407
8160 14877
8160 23369
8161 12045
8161 17379
8161 20306
8161 21787
8162 9225
8162 13014
8162 14099
8163 11785
8163 13131
8163 15127
8163 21284
8164 13023
8164 14340
8164 14446
8164 22848
8165 11613
8165 13613
8165 14612
8165 15823
8165 19898
8165 22269
8166 10878
8166 14048
8166 17893
8166 18992
8166 19466
8166 20380
8167 13916
8167 14893
8168 9874
8168 10358
8169 19103
8169 20328
8170 11056
8170 12047
8171 13138
8171 14535
8171 14681
8171 14686
8171 15331
8171 15369
8171 22050
8171 22372
8173 12862
8173 13565
8173 14008
8173 14119
8173 15343
8173 19384
8173 19837
8173 21091
8174 13944
8175 10061
8175 12196
8175 16609
8175 20294
8175 21080
8176 9555
8176 10951
8176 17068
8176 19574
8176 20424
8177 8901
8177 9100
8178 12896
8179 8811
8180 8402
8180 10894
8180 10961
8180 12413
8180 18381
8180 21411
8180 21413
8181 14827
8181 18879
8181 21355
8181 21724
8181 22337
8181 23448
8182 13776
8182 16736
8182 23081
8183 8449
8184 12491
8184 17996
8184 20771
8185 14006
8186 9102
8186 10213
8186 10349
8186 14585
8186 21168
8187 13422
8187 17067
8187 19569
8187 20836
8188 8199
8188 10418
8188 22522
8188 23968
8189 13707
8189 22991
8190 9874
8190 22894
8191 23042
8191 24095
8191 24106
8192 9386
8192 18508
8192 22170
8193 11367
8193 15426
8193 17487
8193 19050
8193 21340
8194 8278
8194 10014
8194 14877
8195 11565
8195 21117
8195 23970
8196 10935
8196 13660
8197 19313
8198 11214
8198 11457
8198 12620
8198 14562
8198 15293
8199 10418
8199 13461
8199 13462
8199 19023
8199 20605
8199 21904
8199 22523
8199 23409
8199 23698
8199 23735
8200 13042
8200 17384
8200 17912
8200 20190
8200 20293
8200 21061
8200 22675
8201 12782
8201 18577
8201 23695
8201 24353
8201 24438
8202 10955
8202 12900
8202 17259
8202 18924
8202 23182
8203 15455
8203 16090
8203 16631
8203 18513
8203 21318
8203 23488
8204 15392
8205 9820
8205 16432
8205 18535
8205 19765
8206 12289
8206 12290
8206 24360
8207 13148
8207 18983
8208 17926
8208 20217
8209 17566
8209 20816
8210 11320
8210 15169
8210 22762
8211 10227
8211 22764
8211 23204
8211 23649
8212 10227
8212 10231
8212 13528
8212 22764
8213 8306
8213 9391
8213 13516
8213 15973
8213 16147
8213 23467
8214 23827
8214 24127
8215 9628
8215 11151
8215 15016
8215 15665
8215 17001
8215 23403
8216 23346
8216 24447
8216 24449
8217 10296
8217 11306
8217 12504
8217 13255
8217 18253
8217 21055
8218 13605
8218 20049
8218 22212
8219 11124
8219 12021
8220 11415
8220 13671
8220 22611
8221 21880
8222 14243
8222 21535
8222 22685
8223 18434
8223 19495
8223 20591
8223 22777
8223 23686
8224 8732
8224 8748
8224 22905
8225 21102
8226 10126
8226 14883
8227 8290
8228 12382
8228 21808
8228 23814
8229 23758
8229 23815
8230 10258
8230 16739
8230 22569
8230 22961
8231 21117
8232 18578
8232 23884
8233 8970
8233 13430
8233 14455
8233 18829
8233 22328
8234 9124
8234 10260
8234 11500
8234 12332
8234 15540
8234 18664
8234 23286
8235 10709
8235 18686
8236 11740
8236 23626
8237 10459
8237 13032
8237 15179
8237 22946
8238 10740
8238 11434
8238 12665
8238 15006
8238 23716
8238 23920
8239 9161
8239 12562
8240 8241
8240 17218
8240 24206
8240 24277
8241 8242
8241 24277
8241 24470
8242 17218
8242 23889
8242 24470
8243 12594
8244 14583
8244 15573
8245 8351
8245 9230
8245 10387
8245 13089
8245 17225
8245 17566
8245 18896
8245 20816
8245 24315
8246 19913
8247 8826
8247 11699
8247 16394
8247 17616
8247 18710
8249 8452
8249 9355
8249 18645
8250 16824
8250 23326
8251 24211
8251 24298
8251 24475
8252 13926
8252 22348
8253 11610
8253 21614
8254 8815
8255 8857
8255 14877
8256 13921
8256 20732
8256 22391
8257 10914
8257 14154
8257 17302
8257 21616
8258 8857
8258 9770
8258 12776
8261 13114
8261 14088
8262 13928
8262 18704
8262 20460
8262 21703
8263 8541
8263 18289
8264 16382
8264 18594
8264 19554
8265 12708
8265 22497
8266 8552
8266 9206
8266 10345
8266 10624
8266 12137
8266 13328
8266 14515
8266 15692
8266 16431
8266 16768
8266 18632
8266 20211
8267 16657
8267 17435
8268 8947
8269 10124
8269 12264
8269 14408
8269 20969
8270 12148
8270 13232
8271 10046
8271 23987
8271 24057
8272 10422
8272 11724
8272 12789
8272 15137
8273 15084
8273 21658
8273 21664
8274 10593
8274 10814
8274 21740
8275 18286
8275 18375
8275 18998
8275 23100
8276 10339
8276 16106
8277 10562
8277 10620
8277 12321
8277 20051
8278 9569
8278 14877
8278 17419
8280 8746
8280 9911
8280 11031
8280 13917
8280 14436
8280 22967
8282 8850
8282 16546
8282 16611
8282 18434
8282 20918
8283 12227
8283 16070
8283 21816
8284 15250
8284 15270
8284 19047
8284 22003
8285 19988
8285 23121
8286 11047
8286 18346
8286 23276
8287 14855
8289 21556
8289 21614
8290 8336
8290 9534
8290 9543
8290 10743
8290 11075
8290 13122
8290 14467
8290 14547
8290 15457
8290 15458
8290 15472
8290 16340
8290 16998
8290 17342
8290 17662
8290 17757
8290 19453
8290 22138
8291 11786
8291 15246
8291 20764
8291 22007
8293 10650
8293 24361
8294 15048
8295 8530
8295 14634
8295 21200
8295 21201
8296 14462
8296 18047
8297 9573
8297 10049
8297 12612
8297 12736
8297 13937
8297 14085
8297 14758
8297 15175
8297 15763
8297 16817
8297 18360
8297 19011
8297 20811
8297 23542
8298 18193
8299 9415
8299 9482
8299 10565
8299 13063
8299 13090
8299 16788
8299 20552
8299 20666
8299 21215
8299 21893
8299 23260
8300 8655
8300 9192
8300 13130
8301 8409
8301 11362
8301 24370
8301 24384
8302 8774
8302 10753
8302 12232
8302 19085
8303 9389
8303 14187
8303 19073
8303 21581
8304 9957
8305 20237
8305 20266
8305 22589
8306 9804
8306 11176
8306 15973
8306 18538
8306 21262
8306 23467
8307 12072
8307 12073
8307 15528
8307 18572
8307 23546
8308 24031
8308 24094
8308 24439
8309 10546
8309 11012
8309 12804
8309 15178
8309 19065
8309 19493
8309 22122
8309 23787
8309 23874
8310 8312
8310 9723
8310 24215
8311 9337
8311 9519
8311 9723
8311 15069
8311 17914
8311 20832
8312 9504
8312 9723
8312 11539
8312 15088
8312 24089
8312 24131
8312 24215
8313 8549
8313 9201
8313 9978
8313 10544
8313 10548
8313 14926
8313 24342
8314 18167
8314 24186
8315 18846
8316 19968
8316 21457
8317 15538
8317 15704
8317 18261
8317 20718
8318 12006
8318 23511
8319 9404
8319 13410
8319 15165
8319 15302
8319 17029
8319 18186
8319 20576
8319 21251
8320 8563
8320 12664
8320 24382
8321 10056
8321 17269
8322 14125
8322 20396
8323 10571
8323 12348
8324 14498
8324 23454
8325 11053
8325 11054
8325 23925
8326 13051
8326 14233
8327 9082
8328 14057
8329 23619
8329 23913
8329 24213
8330 8789
8330 18344
8330 20213
8331 12382
8331 23784
8331 24068
8331 24285
8332 12681
8332 18773
8333 12994
8333 13609
8333 13664
8333 21149
8334 10621
8334 15987
8334 23230
8335 12767
8335 17280
8336 10199
8336 13122
8337 8445
8337 9556
8337 10870
8337 15661
8337 16710
8337 17497
8337 19836
8337 20087
8337 21771
8337 21784
8338 14505
8338 22740
8338 22843
8339 18409
8340 11239
8340 15438
8340 17848
8340 21710
8340 23468
8341 18293
8342 22267
8343 9493
8343 16269
8343 18039
8343 18083
8343 19539
8343 19974
8343 20954
8344 8682
8344 10066
8344 11810
8344 15508
8344 21559
8345 17466
8345 17468
8346 12074
8346 13962
8347 10235
8347 19108
8348 8373
8348 11045
8348 13369
8348 13464
8348 14993
8348 15896
8348 21743
8348 21833
8349 11523
8349 22286
8349 22964
8350 23924
8350 23930
8351 19506
8352 13532
8353 15350
8354 18781
8355 16223
8355 22493
8355 22676
8358 12644
8358 16226
8358 19182
8359 13547
8359 18842
8359 19153
8360 10389
8360 16070
8360 21816
8361 23297
8361 23324
8362 12272
8362 17047
8363 9743
8363 18881
8363 19287
8364 23369
8365 8801
8365 10229
8365 17728
8365 19795
8366 17637
8367 12089
8367 18848
8368 12939
8369 14271
8369 15245
8369 19200
8369 19536
8369 21577
8369 22417
8370 22760
8370 22765
8370 22880
8371 10168
8371 15390
8371 16074
8371 21252
8372 14059
8372 19956
8373 20637
8374 12001
8374 12161
8374 14216
8375 9163
8375 19042
8375 21324
8376 10180
8376 12527
8376 16262
8377 8752
8377 17305
8377 18782
8379 19649
8379 22788
8380 10677
8380 11310
8380 13415
8380 14921
8380 20440
8381 11735
8381 14417
8381 18450
8381 23481
8382 23846
8383 21202
8383 22650
8384 18233
8384 18984
8384 19043
8385 8388
8385 12745
8386 9352
8386 11605
8386 16825
8386 20308
8386 21704
8387 9926
8387 10218
8387 10412
8387 11088
8387 11255
8387 12623
8387 14458
8387 14879
8387 15608
8387 15818
8387 16337
8387 16479
8387 17174
8387 18023
8387 18231
8387 19110
8387 20559
8387 20671
8387 20682
8387 20935
8387 21247
8387 21546
8387 21823
8387 22211
8387 22885
8387 23084
8387 23208
8387 23355
8387 24077
8387 24140
8388 9878
8388 11659
8388 12745
8389 10853
8389 20660
8390 14495
8390 16536
8390 20176
8390 22184
8390 22540
8391 10267
8391 10535
8391 14466
8391 18646
8391 19687
8391 21784
8391 21902
8391 22608
8392 18547
8393 17622
8393 19266
8393 20284
8393 21375
8393 22076
8394 10603
8394 10669
8394 11063
8394 11766
8394 16393
8394 23409
8395 8397
8395 8399
8395 8401
8395 14862
8395 24104
8396 12167
8396 23985
8396 24152
8397 12173
8398 8401
8398 19764
8398 21844
8399 8400
8400 8401
8400 8521
8400 12167
8400 13046
8400 21844
8402 8603
8402 18381
8402 21911
8403 10750
8403 13209
8404 9100
8404 9871
8404 12620
8404 13377
8404 14493
8404 17687
8404 19075
8404 22004
8406 19537
8407 18864
8407 19237
8408 11326
8408 14937
8409 24384
8410 9875
8410 13291
8410 14637
8411 8443
8412 9292
8412 12645
8412 20278
8412 23548
8413 11000
8413 11259
8413 11464
8413 11547
8413 13002
8413 14371
8413 14933
8413 15345
8413 15463
8413 18643
8413 18870
8413 19605
8413 19988
8413 20563
8413 21009
8413 21790
8413 22913
8413 23840
8414 23953
8415 12867
8415 14734
8415 17643
8415 20204
8416 9284
8417 8848
8417 10329
8417 17349
8418 10719
8418 15550
8418 18967
8418 20295
8418 20604
8418 21931
8418 22259
8419 12924
8420 13059
8420 14877
8421 14746
8421 15650
8421 18433
8421 18633
8422 18001
8422 23072
8422 23214
8424 12571
8424 16865
8425 9340
8425 10438
8425 10831
8425 11617
8425 12102
8425 14210
8425 19198
8426 8546
8426 23147
8427 13147
8427 13623
8427 15971
8427 16789
8427 18390
8427 20367
8428 8429
8428 8430
8428 12163
8429 12163
8430 11422
8430 12163
8431 9992
8431 11341
8431 16298
8433 15991
8433 16795
8434 11602
8435 9814
8435 16618
8436 15100
8437 21528
8437 22753
8438 11215
8438 13722
8438 13981
8438 15433
8438 16831
8438 16989
8439 8655
8439 9192
8439 13130
8439 17793
8440 20899
8440 23131
8441 11238
8441 12400
8442 8839
8442 8840
8442 12524
8442 18478
8443 10488
8443 11604
8443 11829
8443 13554
8443 19233
8443 21021
8443 23496
8444 12331
8444 13585
8444 13792
8444 15413
8444 19155
8445 9220
8446 10287
8446 19535
8446 22881
8447 8771
8447 10834
8447 12755
8447 16997
8447 18902
8447 21182
8448 18846
8448 19973
8449 12629
8450 19022
8450 21834
8451 13996
8452 9355
8452 11976
8452 15043
8452 16118
8452 16987
8452 18645
8452 19902
8452 22277
8452 22401
8453 10672
8453 12511
8453 16097
8453 21267
8453 22173
8453 23308
8454 8638
8454 10434
8454 20337
8455 9707
8455 20388
8456 11346
8456 19452
8457 13166
8457 21070
8457 22818
8458 8508
8458 15490
8458 17887
8459 23844
8459 24451
8460 13035
8460 15016
8461 14342
8461 16519
8461 17419
8463 9366
8464 9416
8464 12108
8464 17640
8464 21455
8465 9933
8465 12380
8465 18083
8466 8528
8466 8559
8466 16584
8466 21234
8467 9815
8467 12348
8468 9474
8468 15802
8469 9975
8469 16441
8469 18954
8469 20473
8470 9848
8470 14509
8471 23964
8472 10420
8472 22972
8473 9115
8473 21106
8474 14657
8474 22849
8475 10402
8475 14535
8475 15369
8476 17405
8476 20999
8477 14311
8477 16506
8477 17882
8478 10935
8478 19454
8478 20862
8479 10735
8480 11057
8480 12252
8480 23952
8480 24368
8481 23630
8482 21133
8482 23673
8483 14438
8483 16207
8483 18853
8484 20347
8485 10558
8485 11514
8485 13314
8485 21402
8486 16181
8486 21986
8486 22965
8487 11357
8487 12356
8487 18286
8487 18998
8488 8501
8488 16523
8488 16727
8488 20497
8488 23010
8489 12356
8489 18998
8490 14404
8490 16393
8490 23792
8490 23953
8490 24271
8491 9736
8491 12232
8491 15232
8491 16502
8491 16587
8491 18713
8492 12220
8492 15276
8492 15663
8492 16746
8492 19386
8492 21033
8493 10212
8493 23731
8494 8916
8494 16350
8495 10397
8495 12028
8495 16364
8495 21598
8496 10230
8496 18681
8497 10467
8497 11540
8497 17626
8497 19772
8497 22746
8499 13116
8499 22628
8500 12442
8500 13358
8500 13388
8501 16523
8501 16727
8501 21882
8501 23010
8502 17414
8503 12952
8503 13579
8503 14303
8503 14983
8504 18958
8505 16575
8505 18648
8506 19926
8506 22975
8507 9374
8507 13421
8507 19360
8507 22987
8507 24054
8508 13879
8509 14877
8509 23369
8510 11966
8510 15926
8510 16986
8510 17768
8510 20979
8510 21134
8511 10265
8511 11789
8511 14925
8511 16137
8512 13590
8512 14272
8512 20136
8513 15629
8513 22206
8514 12502
8514 18415
8515 9131
8515 9637
8515 12172
8515 18057
8515 18373
8515 19056
8515 19057
8515 19556
8515 22118
8516 17650
8516 18525
8518 20786
8518 21644
8519 8732
8519 11262
8520 12105
8520 20849
8521 10884
8521 12171
8521 14061
8521 14843
8521 15910
8521 24011
8522 10747
8522 14531
8523 12994
8523 19849
8523 22984
8524 16533
8524 17806
8524 20558
8524 22614
8525 8526
8525 9422
8525 20695
8526 9422
8526 20695
8527 15926
8528 9001
8528 9118
8528 9454
8528 9699
8528 9766
8528 10144
8528 10480
8528 11597
8528 12216
8528 12555
8528 13987
8528 16584
8528 17655
8528 17754
8528 18061
8528 18099
8528 18562
8528 18905
8528 18934
8528 19399
8528 19579
8528 20350
8528 21234
8528 21463
8528 21495
8528 21612
8528 22311
8528 22353
8529 16471
8529 17192
8529 24008
8530 8908
8530 14631
8530 14632
8530 14633
8530 14635
8530 14636
8530 18196
8530 21201
8530 22374
8530 22703
8531 11805
8531 12575
8531 16546
8531 19014
8531 20918
8531 22777
8532 9732
8532 13514
8533 10577
8533 13159
8533 16424
8534 10572
8534 13245
8534 17493
8534 17814
8534 20359
8534 22477
8535 22365
8536 12553
8536 14165
8536 17792
8536 19415
8536 23504
8537 10245
8537 12038
8538 17334
8538 19239
8539 16283
8539 23317
8540 13913
8540 20851
8540 21817
8541 9438
8541 11420
8541 17092
8541 18289
8541 19659
8542 10245
8542 10571
8542 12029
8542 12348
8543 13093
8543 13395
8543 14324
8543 17155
8544 14545
8544 14960
8544 16023
8545 9691
8545 13230
8545 14363
8545 15024
8545 16590
8546 12818
8546 19517
8547 10281
8547 14101
8547 14625
8547 15098
8547 22115
8547 23162
8548 15734
8548 16421
8549 9201
8549 10547
8549 10548
8549 14926
8549 17200
8549 23571
8549 24440
8550 18595
8550 18902
8550 19859
8550 20276
8551 12107
8551 13136
8551 13595
8551 13931
8551 14913
8551 15448
8551 16012
8551 16171
8551 18545
8551 20420
8551 23258
8552 18632
8553 17090
8553 20114
8553 20719
8554 9156
8554 11148
8554 11687
8554 12257
8554 12628
8554 12706
8554 15524
8554 17166
8554 18517
8554 19318
8554 19474
8554 21709
8554 23463
8555 13926
8556 9818
8557 11182
8557 11909
8557 13267
8557 13842
8557 20644
8558 8984
8558 13492
8558 21734
8559 10144
8559 19579
8559 21912
8559 23396
8560 11484
8560 14316
8560 15587
8560 17307
8560 19366
8561 20167
8562 14532
8562 18331
8563 8931
8563 9442
8563 10270
8563 12664
8563 24040
8563 24382
8564 12617
8564 17804
8564 18834
8565 8749
8565 10398
8565 15000
8565 22484
8565 23057
8566 10619
8566 13755
8566 22075
8566 23487
8567 11814
8567 18536
8568 11809
8568 11814
8569 8680
8569 14624
8569 20334
8569 23384
8570 20875
8571 11408
8571 12146
8571 16206
8571 20024
8572 8792
8572 21093
8572 22595
8572 23390
8573 20112
8574 12050
8574 13505
8574 17676
8575 14738
8575 16713
8576 9115
8576 14511
8577 9323
8577 10853
8578 10606
8578 11790
8578 21507
8578 21696
8578 21944
8579 17305
8580 10266
8580 10338
8580 11344
8580 15420
8581 13119
8581 18759
8581 21364
8582 21238
8584 11128
8585 11128
8586 18059
8586 18424
8586 18484
8587 19952
8587 23501
8588 16127
8588 21638
8589 12082
8589 23896
8589 24028
8589 24148
8590 9366
8590 10484
8590 12701
8590 22525
8591 16579
8592 9581
8592 11864
8592 12777
8592 16666
8592 19324
8592 20017
8593 8967
8593 17003
8593 23982
8594 12083
8594 23896
8594 24148
8595 13257
8596 21021
8597 11740
8597 12889
8597 23626
8598 10622
8599 15854
8599 15856
8599 15862
8599 16889
8599 19663
8600 11980
8600 23203
8600 24154
8601 11628
8601 12826
8601 16754
8602 13849
8602 15956
8603 9843
8603 21222
8603 21911
8604 12319
8604 17648
8604 18838
8604 19227
8604 19922
8605 16388
8605 18194
8606 13523
8606 17054
8607 19478
8608 10405
8608 20476
8609 9190
8609 23336
8609 23987
8610 16021
8611 10097
8611 11316
8611 11708
8611 14223
8611 16828
8611 18732
8612 13207
8612 13487
8612 15360
8613 8906
8613 16327
8613 23422
8614 8656
8614 22179
8615 9850
8615 9964
8615 10521
8615 10736
8615 12147
8615 12280
8615 12305
8615 13227
8615 13417
8615 15935
8615 18239
8615 19012
8615 19458
8615 19512
8615 20804
8615 22598
8615 23009
8616 9495
8616 16123
8616 23158
8617 18695
8617 20815
8618 9872
8618 9874
8618 22719
8619 10051
8619 13880
8619 22814
8620 12433
8620 23162
8621 13503
8622 18472
8623 19923
8624 10678
8625 17738
8625 19557
8625 20784
8626 12291
8626 24176
8626 24225
8627 15127
8627 17252
8627 17264
8628 24155
8628 24270
8629 23792
8629 24399
8630 10587
8630 14690
8630 23610
8631 13324
8631 15930
8631 17028
8631 20831
8631 22887
8632 16995
8632 17110
8633 9138
8633 10272
8633 13959
8633 14555
8634 15300
8634 23943
8635 11008
8635 12761
8635 13569
8635 19632
8635 20771
8636 10245
8636 12038
8637 15580
8637 16731
8637 24233
8637 24274
8638 9796
8638 10434
8638 16569
8638 17175
8638 18783
8638 19175
8638 20337
8639 9694
8639 18918
8639 23153
8640 14272
8641 15604
8641 20421
8642 24012
8642 24225
8643 17039
8643 20347
8644 13139
8645 18594
8645 19554
8646 11956
8646 18670
8646 22844
8647 11002
8647 11293
8647 12674
8647 13649
8647 14717
8647 19420
8647 20515
8647 23213
8647 23419
8647 23699
8648 10041
8648 12710
8648 13738
8648 19475
8648 22059
8648 22969
8648 23628
8648 23639
8649 10229
8649 12655
8650 9620
8650 17431
8650 17888
8650 23652
8651 21576
8652 20342
8652 22497
8653 9691
8653 20101
8654 10999
8654 11816
8654 20960
8654 21153
8655 9192
8655 17793
8656 9621
8656 11009
8656 11999
8656 13498
8656 16708
8656 18506
8656 20690
8656 21955
8656 22228
8657 21958
8657 22195
8658 9371
8658 20793
8659 9484
8659 9565
8659 16915
8659 18980
8659 23280
8660 18257
8660 19642
8660 21575
8660 22488
8661 10245
8661 10571
8662 12899
8662 18554
8662 21452
8663 10355
8663 13469
8663 13741
8663 13820
8663 22669
8664 11751
8664 14238
8664 18217
8664 21548
8665 8666
8665 8667
8665 19383
8665 21648
8666 21647
8667 21646
8668 15213
8668 21636
8668 22895
8669 11911
8669 15524
8669 17166
8669 19318
8670 16338
8671 15358
8671 16415
8671 22148
8672 10760
8672 20640
8673 11039
8673 13687
8674 16355
8674 16767
8674 18954
8675 17305
8676 9026
8676 12510
8676 23510
8677 9011
8677 16615
8678 12863
8678 20522
8678 23567
8679 19403
8679 19961
8680 13320
8680 16083
8681 13141
8681 15047
8681 17215
8681 18189
8681 18674
8681 20404
8682 9989
8682 23408
8683 9285
8683 19931
8684 11078
8684 17159
8684 22609
8685 22231
8686 9845
8686 18402
8686 18991
8686 21992
8687 8921
8687 12099
8687 14274
8687 14290
8687 14463
8688 13590
8688 18982
8688 21006
8688 21361
8689 13181
8689 14657
8689 22849
8690 9115
8691 10209
8691 10693
8691 11256
8691 13499
8691 16949
8691 17935
8691 20527
8692 9627
8692 10726
8692 12008
8692 12153
8692 14811
8692 18397
8692 19422
8692 20841
8692 22622
8693 11476
8693 15958
8693 22388
8694 12792
8694 13181
8695 12672
8696 21556
8696 21614
8696 23489
8697 12897
8697 15818
8698 17305
8699 11827
8699 23046
8700 11264
8700 19798
8701 14589
8702 12639
8702 14426
8703 15754
8704 10595
8704 20882
8705 9554
8705 9801
8705 11365
8705 13339
8706 19757
8706 20996
8706 23019
8707 11582
8707 14898
8707 16684
8707 16689
8708 23720
8708 23922
8708 24164
8708 24427
8709 9581
8709 15156
8709 18377
8710 10056
8710 17269
8710 18542
8710 19661
8710 21140
8711 15812
8711 17171
8712 14135
8712 14538
8712 19576
8712 21556
8713 15975
8713 22983
8714 10759
8714 14696
8714 19442
8714 19738
8714 23059
8715 14653
8715 18188
8716 14701
8716 15351
8716 18523
8716 20610
8716 22281
8717 8724
8717 16665
8717 18476
8717 20254
8718 9200
8718 18603
8718 22570
8719 8939
8719 13713
8719 14510
8719 21639
8720 10861
8720 13908
8721 9551
8721 19066
8723 11425
8723 15619
8723 18582
8724 16665
8724 19609
8724 20254
8725 21629
8726 15812
8727 13750
8727 21186
8727 22972
8728 19428
8728 20683
8728 23201
8729 16944
8729 17513
8729 18436
8729 20456
8730 8978
8730 11195
8731 10461
8731 13522
8731 20927
8732 8748
8732 11262
8733 10032
8733 23801
8733 24470
8734 12732
8734 19733
8734 20196
8735 23791
8736 10753
8736 12232
8736 16314
8736 17597
8736 18722
8737 11747
8738 14111
8738 14190
8739 22053
8740 21721
8741 13453
8741 18631
8741 22437
8742 10793
8742 23926
8743 10471
8743 13265
8743 13389
8743 14054
8743 17570
8743 19584
8743 22137
8744 13024
8744 14049
8745 22144
8746 9849
8747 10584
8747 14754
8748 12232
8748 20513
8748 22905
8749 10398
8749 15000
8749 22484
8749 23057
8749 23221
8750 15683
8750 17415
8750 19147
8750 21623
8751 9306
8751 11871
8751 13156
8751 18368
8751 20153
8752 10688
8752 14885
8752 17305
8752 18782
8753 10626
8753 14097
8753 16407
8753 16478
8753 16811
8753 17746
8753 19022
8753 20268
8753 20945
8753 21223
8753 21685
8753 21834
8754 9361
8754 11661
8754 12771
8754 18694
8754 23187
8755 13827
8755 14737
8756 9168
8756 18623
8756 19069
8757 12051
8757 14184
8757 21050
8758 13473
8758 14265
8758 15630
8759 16576
8760 17913
8760 20957
8760 21996
8761 11831
8761 12941
8761 17015
8761 18606
8762 8775
8762 11888
8762 11889
8762 19863
8763 10893
8763 17992
8764 13870
8764 20714
8764 23369
8765 19368
8765 21249
8765 21250
8765 21540
8765 21541
8765 22600
8766 16528
8766 18514
8766 19484
8767 18534
8768 14219
8768 15873
8768 18000
8768 19520
8769 18205
8769 18208
8769 20174
8769 22661
8770 18383
8770 19737
8770 20755
8770 21702
8771 21283
8772 19863
8773 13957
8774 11616
8774 12312
8774 16502
8774 17597
8774 18709
8774 18713
8774 18722
8774 19085
8774 19285
8774 21933
8775 11887
8775 11888
8775 11889
8775 16217
8775 19863
8777 9263
8777 9965
8777 11121
8777 21095
8778 10138
8778 10812
8778 18847
8778 20855
8779 11347
8779 13645
8780 14921
8780 17649
8781 12790
8782 10523
8782 18728
8782 19706
8782 20361
8783 23784
8783 23963
8783 24135
8784 15445
8785 16818
8785 18458
8785 18658
8785 22216
8786 12731
8787 9256
8787 10074
8787 11711
8787 22666
8788 19936
8788 24041
8788 24152
8790 9909
8790 15881
8791 18739
8791 19574
8792 21093
8792 23390
8793 10782
8793 10829
8793 11305
8794 10860
8795 10800
8795 19058
8795 20713
8795 23021
8796 9159
8796 10593
8796 12098
8796 13041
8797 12764
8797 14289
8797 18142
8797 18665
8797 20879
8797 22096
8797 22101
8798 11649
8798 19427
8799 9115
8799 16143
8799 21106
8800 8958
8800 9456
8800 9514
8800 9711
8800 10896
8800 11007
8800 12111
8800 12234
8800 13319
8800 14153
8800 14585
8800 14859
8800 15622
8800 15703
8800 17590
8800 21614
8800 21878
8800 23030
8800 23393
8800 23583
8801 10297
8801 19795
8802 10866
8803 8894
8803 12474
8803 16868
8804 13219
8804 23177
8804 23724
8804 24009
8804 24030
8804 24035
8804 24158
8805 11968
8806 16524
8807 12571
8807 16865
8807 17830
8808 8809
8808 14550
8808 14607
8808 14798
8808 17455
8809 14550
8809 14607
8810 11977
8810 12507
8811 16846
8812 10094
8812 15280
8812 16777
8812 18686
8812 19634
8813 8814
8813 14344
8813 21583
8814 19040
8814 20866
8815 8816
8815 9424
8815 10071
8815 16102
8815 18355
8815 19040
8815 20355
8815 20356
8816 12995
8816 18355
8816 19040
8816 20355
8816 21583
8817 11703
8818 11431
8818 19985
8818 20195
8819 10470
8819 12897
8819 21240
8820 14169
8820 18588
8820 21386
8820 23183
8821 14962
8822 18782
8823 12897
8824 18001
8824 23031
8825 14408
8825 23588
8826 9545
8826 11699
8826 13564
8826 14628
8826 15750
8826 17812
8826 21040
8826 21466
8826 23499
8827 8861
8827 13279
8827 16427
8827 22416
8828 22365
8829 20004
8830 13668
8830 16850
8830 17428
8830 17599
8830 19172
8831 23717
8831 23952
8832 10805
8832 12731
8832 13696
8832 17385
8833 15045
8833 22342
8835 8849
8835 12293
8835 13436
8835 14575
8835 17645
8835 18015
8835 18546
8835 21539
8835 22065
8835 22856
8836 14428
8836 17766
8837 11406
8837 15032
8837 18387
8837 22424
8837 22853
8838 8839
8838 8840
8838 8844
8838 13832
8838 20040
8838 21461
8839 10632
8839 20040
8839 21461
8840 8841
8840 14996
8841 8844
8841 10343
8842 13427
8842 14541
8843 10343
8843 12524
8843 14996
8845 14648
8845 14649
8846 18950
8846 19784
8846 21679
8848 17349
8849 17305
8849 22856
8850 16546
8850 22777
8851 8857
8851 13870
8852 12893
8852 15064
8852 19411
8852 21372
8852 21827
8853 11030
8853 12134
8853 13222
8853 14135
8853 14795
8853 15435
8853 17955
8853 19785
8853 20164
8853 21007
8853 21177
8853 21505
8854 10005
8854 14365
8854 22365
8855 20771
8855 21508
8855 22499
8856 15487
8857 9139
8857 9300
8857 9367
8857 9569
8857 10300
8857 10980
8857 11536
8857 11726
8857 11744
8857 11870
8857 12222
8857 12676
8857 12811
8857 13168
8857 13497
8857 13860
8857 13925
8857 14333
8857 14809
8857 14918
8857 15065
8857 15132
8857 15699
8857 16160
8857 16233
8857 16330
8857 16475
8857 16726
8857 16857
8857 16964
8857 17013
8857 17210
8857 17329
8857 17673
8857 17742
8857 17769
8857 18209
8857 18836
8857 18871
8857 19288
8857 19336
8857 19527
8857 19602
8857 19726
8857 19783
8857 19801
8857 19986
8857 20206
8857 20243
8857 20438
8857 20785
8857 21179
8857 21497
8857 21516
8857 21673
8857 22339
8857 22373
8857 22594
8857 22901
8857 22948
8857 23091
8857 23200
8857 23359
8857 23736
8858 18065
8858 23360
8859 14178
8859 15754
8859 18460
8860 11637
8860 13392
8861 17510
8862 12634
8862 13106
8862 18476
8862 23025
8863 11451
8864 9927
8864 17736
8864 17737
8864 22098
8864 23564
8865 17736
8865 17737
8865 21496
8866 15100
8866 16333
8866 22349
8867 19731
8867 19770
8868 12009
8868 12947
8868 20171
8868 24222
8869 18742
8869 18772
8869 19438
8870 13870
8870 20714
8871 18604
8872 13392
8872 18662
8872 18704
8873 11198
8873 17461
8873 17462
8873 17660
8874 9933
8874 12380
8875 15344
8875 20742
8876 20008
8876 20650
8877 11985
8877 12587
8878 11663
8878 11998
8878 12087
8878 13028
8878 14728
8878 14802
8878 18787
8878 19382
8878 20731
8879 10817
8879 12343
8879 14015
8879 18386
8880 9563
8880 9588
8880 24351
8880 24394
8880 24466
8881 11891
8881 13951
8881 14000
8881 17388
8881 18917
8882 9488
8882 13568
8882 21163
8883 21614
8883 21635
8883 22315
8884 23663
8885 8984
8886 12909
8886 18631
8887 11267
8887 13965
8888 14047
8888 16775
8888 17271
8889 9601
8889 22537
8890 14123
8891 10942
8891 22352
8892 14287
8893 13430
8893 14455
8893 21916
8894 9775
8894 9928
8894 12474
8894 15498
8894 16532
8895 21829
8895 23739
8895 24094
8895 24439
8896 10759
8896 14696
8896 19738
8897 8898
8897 11506
8898 11506
8899 18782
8900 10420
8901 10205
8902 14513
8902 14800
8903 20361
8903 22681
8904 12079
8904 19745
8904 21437
8904 23239
8905 10500
8905 14735
8906 16541
8906 19401
8906 23048
8907 11080
8907 15275
8907 17182
8908 10877
8908 14635
8908 21201
8908 22374
8908 22375
8908 22703
8909 12317
8909 14388
8909 19530
8909 19920
8909 22229
8909 23451
8910 9348
8910 9587
8910 11118
8910 11214
8910 11457
8910 11497
8910 12774
8911 16304
8911 16740
8911 20302
8911 23112
8912 22888
8912 23813
8913 15107
8914 14134
8914 16167
8914 16480
8914 20616
8915 13166
8915 14874
8915 18781
8916 9539
8916 12765
8916 12873
8916 14148
8916 16350
8916 16555
8916 19132
8916 22256
8916 22825
8917 21359
8917 23558
8918 13117
8918 17417
8919 12308
8919 12521
8919 17595
8919 18974
8920 12549
8920 21624
8921 17620
8921 20696
8922 9828
8922 13153
8922 13959
8922 17910
8923 11526
8923 17107
8923 18106
8923 21255
8924 12099
8924 14274
8924 18097
8925 10590
8925 10892
8925 15885
8926 9491
8926 21506
8926 22362
8928 9107
8928 9893
8928 15064
8928 21827
8929 14060
8929 14620
8929 23684
8930 9974
8930 10792
8930 12175
8930 12646
8930 13612
8930 15321
8930 16731
8930 17826
8930 18652
8930 18963
8930 22299
8930 22736
8930 22783
8930 23629
8930 23664
8930 23721
8930 23818
8930 24034
8930 24036
8930 24083
8930 24228
8930 24314
8930 24321
8930 24362
8930 24380
8930 24385
8931 9442
8931 10839
8931 11771
8931 23881
8931 24040
8932 23941
8933 11910
8933 17305
8934 9888
8934 10379
8935 17347
8935 20684
8935 20768
8937 10410
8937 15398
8937 15690
8937 18604
8937 19670
8937 21239
8937 22078
8937 22690
8937 23279
8938 15795
8939 11546
8940 9106
8940 14932
8940 15266
8941 15402
8941 16279
8941 18246
8942 12203
8942 13189
8943 19262
8943 19264
8943 20122
8943 21645
8944 14450
8944 15400
8944 16243
8944 17992
8944 19318
8945 9815
8945 10571
8945 12029
8945 22904
8946 12056
8946 13696
8946 18904
8947 10145
8947 10333
8947 12751
8947 13207
8947 15360
8947 15927
8947 15994
8947 19168
8947 23518
8948 12526
8948 14304
8948 19229
8948 20266
8949 14304
8949 20237
8949 20266
8949 22589
8950 12519
8950 14141
8951 19040
8952 11761
8952 12477
8952 20721
8952 21430
8953 19274
8953 21375
8954 10970
8954 14539
8954 17969
8954 20670
8955 9492
8955 13347
8955 15751
8956 9551
8956 20417
8957 10680
8957 15870
8957 23847
8958 14585
8958 21593
8959 10298
8959 13062
8959 14204
8959 20354
8959 21610
8960 13077
8960 13582
8961 11446
8962 14530
8962 17581
8962 18599
8962 22344
8963 23835
8963 24008
8963 24375
8964 24099
8964 24152
8964 24161
8964 24368
8965 11883
8965 17544
8965 18412
8966 11382
8966 13434
8966 18033
8967 10435
8967 12268
8967 19604
8968 13018
8969 9895
8969 12106
8969 14914
8969 19327
8970 14455
8970 20412
8970 22803
8971 23735
8971 23824
8972 13039
8972 18393
8974 14113
8974 19815
8975 9051
8975 14024
8975 19834
8976 9122
8976 10599
8976 12053
8976 12242
8976 12691
8976 13974
8976 20853
8977 11685
8977 18166
8977 21310
8978 10291
8978 11195
8978 11356
8978 16623
8978 21348
8979 10067
8979 11340
8980 9930
8980 9931
8980 12952
8980 19194
8980 23082
8981 9611
8981 12943
8981 14168
8981 17183
8982 9652
8982 10880
8982 11069
8983 10139
8983 10959
8983 20861
8983 21556
8984 9259
8984 9625
8985 10063
8985 11329
8986 13615
8987 13106
8988 9225
8988 13014
8988 18051
8988 21674
8989 15794
8989 16285
8989 18178
8990 12597
8990 20545
8991 9990
8991 9991
8991 17859
8991 18619
8992 13316
8992 14913
8992 23258
8993 9210
8993 9876
8993 15390
8993 18577
8994 13839
8994 13841
8994 14679
8994 15454
8995 13376
8995 21335
8995 23477
8996 15861
8996 15862
8996 16889
8996 17825
8997 15861
8997 16889
8998 10257
8998 12541
8998 21453
8999 13312
8999 14875
8999 20615
8999 21948
9001 16584
9001 21234
9001 23138
9002 9031
9002 16591
9002 21273
9003 11159
9003 11769
9003 17818
9003 21722
9004 14122
9005 10539
9005 12864
9006 14068
9006 14492
9006 16084
9006 18657
9007 17719
9008 21106
9008 23294
9009 9033
9009 9961
9009 10640
9009 19743
9009 23064
9009 23113
9009 23994
9010 10382
9010 12099
9010 12586
9010 14723
9010 17294
9010 17620
9010 18081
9010 23194
9012 11698
9012 23709
9013 17287
9014 17521
9014 20494
9015 13065
9015 13751
9015 14520
9015 17453
9015 23278
9016 11786
9017 10105
9017 20527
9018 11583
9019 22010
9019 23510
9020 15669
9020 17740
9020 18173
9020 19645
9020 21890
9021 23661
9021 23816
9022 12722
9022 18193
9022 19191
9022 20341
9022 22246
9023 16829
9023 17099
9023 19626
9023 21313
9023 22156
9023 22421
9024 9200
9024 9894
9024 14031
9024 20395
9024 21976
9024 22570
9025 9200
9025 9894
9025 21976
9025 21977
9026 22010
9026 23510
9027 12929
9027 18488
9027 20482
9029 12290
9029 12291
9029 24176
9030 18631
9030 20718
9031 11267
9032 9308
9032 11120
9032 21735
9033 11746
9033 11839
9034 9546
9034 14426
9034 19792
9035 11014
9035 11959
9035 13200
9035 13362
9035 15259
9035 16867
9035 19526
9035 19800
9035 22556
9036 14363
9036 19776
9037 9865
9037 10559
9037 13215
9037 13608
9037 14086
9037 18803
9038 9701
9038 10219
9038 12126
9038 13336
9038 13404
9038 16311
9038 17470
9038 19797
9038 21004
9038 22370
9038 22796
9039 12076
9039 23873
9040 9452
9040 11312
9040 12571
9040 16301
9040 16865
9040 17612
9040 17830
9040 21569
9040 21915
9040 23651
9041 11020
9041 14145
9041 18003
9041 18426
9041 20393
9042 18548
9043 18615
9043 18977
9043 23940
9043 24422
9044 11107
9044 15805
9045 15100
9045 17546
9045 19425
9045 22349
9047 12052
9047 20077
9047 22107
9048 14708
9048 19117
9048 19341
9048 20711
9049 12290
9049 12291
9049 24176
9050 23918
9051 13455
9051 13684
9051 19052
9052 14833
9052 15350
9052 18962
9053 11187
9053 12494
9053 14108
9053 16650
9053 16678
9053 18042
9053 18113
9053 22258
9053 22968
9054 15446
9055 22237
9056 9457
9057 10525
9057 12613
9058 11105
9058 11345
9058 15116
9058 15127
9058 17264
9059 9441
9059 14486
9060 11037
9060 11104
9060 12418
9060 17396
9061 21929
9062 21593
9063 15944
9064 12801
9064 14043
9064 14813
9064 19813
9064 21127
9064 22026
9064 23206
9065 11618
9065 13055
9065 14969
9065 21441
9065 23551
9066 17872
9066 21269
9067 10817
9067 12343
9068 12273
9068 18791
9068 20546
9068 21388
9069 16054
9069 18031
9070 13827
9070 14784
9071 23142
9071 23536
9072 16392
9073 17680
9074 10707
9074 15135
9074 22193
9075 12711
9075 22749
9076 9543
9076 9803
9076 10778
9076 16448
9076 17757
9076 18747
9076 19230
9076 19300
9076 22138
9077 19066
9077 21178
9078 13626
9078 16639
9078 17337
9079 18494
9080 9337
9080 9690
9080 9723
9080 11635
9080 14055
9080 15088
9080 15701
9080 23107
9080 23756
9080 23806
9080 23902
9080 24169
9080 24418
9081 9854
9081 12469
9082 10375
9082 11596
9082 19414
9082 23988
9082 24037
9083 13295
9083 15691
9083 18947
9084 10051
9084 12410
9084 15921
9084 22814
9085 9270
9085 9271
9085 18313
9085 23975
9085 24020
9086 13639
9086 14566
9086 15187
9086 20366
9086 22721
9087 10401
9087 13344
9087 14821
9087 18264
9087 20262
9088 13253
9088 17277
9088 23088
9089 21487
9089 22723
9089 22948
9090 9713
9090 14342
9090 22006
9090 22599
9091 9655
9091 13233
9091 15063
9091 23212
9092 12879
9092 19318
9093 17074
9093 22220
9094 21469
9094 23160
9095 17992
9096 16561
9096 20075
9097 17053
9097 20265
9100 9691
9100 9810
9100 10205
9100 11214
9100 11424
9100 11861
9100 11905
9100 12620
9100 12810
9100 14722
9100 14760
9100 15933
9100 15991
9100 16080
9100 16590
9100 16764
9100 16842
9100 17853
9100 18507
9100 18997
9100 19198
9100 19802
9100 22156
9100 22280
9100 22950
9100 24455
9101 13913
9101 20851
9101 21817
9102 10213
9102 11290
9102 12552
9102 21168
9103 9868
9103 10376
9103 19043
9104 10245
9104 10571
9104 18738
9104 19227
9105 20343
9106 14932
9106 19356
9107 16256
9107 18489
9108 11347
9108 15413
9109 9110
9109 12438
9109 12796
9109 19716
9109 21730
9109 22760
9109 22765
9110 13955
9110 22760
9112 14023
9112 22263
9113 20781
9113 23787
9113 23874
9114 9321
9114 12432
9114 15520
9115 9635
9115 11041
9115 13341
9115 14541
9115 15181
9115 15655
9115 16838
9115 17184
9115 17640
9115 21106
9115 21232
9115 21287
9115 22091
9115 23522
9116 9282
9116 11240
9116 12864
9116 13478
9116 13504
9116 14218
9116 15301
9116 16088
9116 17441
9116 18194
9116 18212
9116 18631
9116 19847
9116 21219
9116 22365
9117 15925
9117 16780
9117 18311
9117 19203
9117 22908
9118 16584
9118 18061
9118 21234
9119 22985
9119 23713
9119 23758
9119 24292
9120 11097
9120 12233
9120 12926
9120 13491
9120 13850
9120 16375
9120 17117
9120 17205
9121 9461
9121 9821
9122 10503
9122 12242
9122 20853
9123 14945
9123 17016
9123 19019
9123 20762
9124 10260
9124 15540
9124 18664
9124 23286
9125 11583
9126 15183
9126 15940
9126 23756
9127 14060
9127 23684
9128 15754
9130 15228
9130 16680
9130 20296
9130 21333
9130 21770
9131 17428
9132 12391
9132 13166
9133 10655
9134 15119
9134 21339
9135 10486
9135 11356
9135 15097
9135 17113
9136 12455
9136 17320
9136 18072
9136 21112
9137 11610
9137 21614
9138 10272
9138 11623
9138 13959
9138 17717
9139 13870
9139 18166
9139 19923
9140 11362
9140 11698
9140 23709
9140 23779
9141 11493
9141 12237
9141 13320
9143 11633
9143 16892
9143 17869
9145 14589
9145 17835
9146 22701
9147 10056
9147 19661
9148 22706
9149 23912
9150 11842
9150 14062
9150 23241
9150 24338
9151 15858
9151 15862
9152 10517
9152 10651
9152 10905
9152 10908
9153 9694
9153 12948
9153 19899
9153 21719
9154 13964
9154 21397
9155 10208
9155 10279
9155 23009
9156 11911
9157 9367
9157 13925
9157 14755
9157 14800
9157 17338
9157 20045
9157 20216
9157 21281
9157 21497
9157 21624
9157 22782
9158 21893
9159 10593
9160 11441
9160 22368
9160 22829
9161 15036
9161 18014
9162 12945
9162 18569
9162 20434
9162 21241
9162 22002
9163 19317
9164 21556
9164 21781
9165 22005
9165 22116
9166 11387
9166 22454
9167 9388
9168 12200
9168 12356
9168 13003
9168 22407
9169 17765
9169 18846
9170 21508
9170 21721
9170 22499
9171 11979
9171 15138
9171 15656
9171 16679
9171 19107
9171 23795
9171 23796
9171 24303
9172 10269
9172 16327
9172 20050
9172 21292
9173 21167
9173 22886
9174 9703
9174 13989
9174 14241
9174 17077
9174 20772
9175 10538
9175 14159
9175 21988
9176 18293
9177 9249
9177 13162
9177 22816
9178 21566
9179 10591
9179 20764
9179 22007
9180 12174
9180 14454
9180 15138
9180 15656
9180 16679
9180 20830
9180 22884
9180 23823
9180 23969
9182 11980
9182 24154
9183 19031
9183 22846
9183 23939
9184 23955
9184 24423
9185 13212
9185 13954
9185 20999
9186 16824
9187 10529
9188 16948
9188 17248
9188 18076
9189 10046
9189 15776
9189 24057
9189 24443
9190 10311
9190 14394
9190 23336
9190 23987
9191 14975
9191 18153
9191 19867
9192 11686
9192 13130
9192 17793
9193 12357
9193 13561
9193 18192
9193 18901
9193 22174
9194 13320
9195 13199
9196 13241
9197 13054
9197 17864
9197 19757
9197 20996
9198 20445
9198 24131
9199 9335
9199 11333
9199 20445
9199 24215
9200 9894
9200 14031
9200 18922
9200 22570
9201 9724
9201 9978
9201 10548
9201 17200
9201 23571
9201 24342
9201 24440
9202 22455
9203 11231
9203 12127
9204 14247
9205 12218
9205 16054
9206 12137
9206 18632
9206 20125
9206 20211
9207 19640
9208 18001
9209 9388
9209 15841
9209 20123
9211 9473
9211 10137
9211 10171
9211 10348
9211 11397
9211 12946
9211 13229
9211 16319
9211 18451
9211 21253
9211 23652
9211 23734
9211 24229
9211 24297
9211 24317
9211 24321
9211 24457
9212 9814
9212 16618
9212 21881
9213 18740
9214 12804
9214 15178
9214 23874
9215 24379
9216 18786
9217 10918
9217 17978
9217 19562
9218 9742
9218 17978
9219 10241
9219 11442
9219 20514
9219 22554
9220 10870
9220 16710
9220 17497
9220 21784
9221 9904
9221 11477
9221 20392
9221 21778
9221 22201
9221 23017
9221 23857
9221 24345
9222 12287
9222 20214
9222 23774
9222 23886
9222 24227
9222 24242
9223 14573
9224 10503
9224 12156
9224 12984
9224 13812
9224 15712
9224 16883
9224 19824
9224 21043
9224 21129
9225 13014
9225 14099
9225 18051
9225 21674
9226 21593
9227 16054
9227 18031
9227 18516
9228 11454
9228 13413
9228 17699
9228 18862
9228 23270
9229 21711
9231 13419
9231 15145
9231 17773
9231 19381
9232 19323
9233 10096
9233 11479
9233 11933
9234 9500
9234 11061
9235 22238
9235 23928
9236 9343
9236 9349
9236 11532
9236 13897
9236 16997
9236 17579
9236 18703
9236 21550
9237 16703
9238 19997
9239 10106
9241 9351
9241 10575
9241 11369
9241 20992
9241 21044
9242 11069
9242 14489
9242 14564
9242 22602
9243 17212
9243 20086
9243 21767
9243 21768
9244 16985
9244 17690
9244 18988
9244 19114
9244 21715
9245 16985
9245 17856
9245 19114
9246 13896
9246 14541
9246 20726
9247 11474
9247 12316
9247 14887
9247 18810
9248 15440
9248 23067
9249 11462
9249 13162
9249 15481
9249 18843
9250 13798
9250 19295
9250 19639
9250 20542
9251 14872
9251 20930
9251 23634
9252 16576
9252 22222
9253 15054
9253 16595
9253 17381
9253 18999
9253 19181
9254 14661
9255 9746
9256 10074
9256 21027
9256 22666
9258 14087
9258 15486
9259 9625
9260 15877
9260 20144
9260 22361
9261 15988
9261 18379
9261 22943
9262 13207
9262 13487
9263 9582
9263 12191
9263 17930
9263 19610
9264 22769
9264 23528
9265 12390
9265 16401
9265 18918
9265 21214
9266 9344
9266 9620
9266 12292
9266 15319
9266 17431
9266 17888
9266 23652
9267 9723
9267 24089
9268 10571
9268 10593
9268 23431
9269 11814
9269 17518
9270 12566
9270 23617
9272 10740
9272 24225
9273 9274
9273 24187
9274 22693
9274 24187
9275 24099
9276 11514
9276 22940
9277 17883
9277 22231
9278 12452
9278 21520
9278 21720
9279 17226
9279 20992
9279 21044
9279 22024
9280 18215
9281 9969
9281 17471
9281 23411
9282 13935
9283 19205
9284 16818
9285 12027
9285 12152
9285 13871
9285 15385
9285 18206
9285 19082
9285 19781
9285 19931
9285 20098
9285 20292
9285 23076
9286 12406
9286 12994
9286 17186
9287 9870
9287 10526
9287 13448
9288 12750
9288 17373
9288 17532
9288 18500
9289 22801
9290 20075
9291 11175
9291 11176
9291 18827
9291 22823
9292 12645
9292 20278
9293 9640
9293 12076
9293 23873
9294 11804
9294 22334
9295 11332
9295 23150
9295 24292
9296 11214
9296 12620
9296 13361
9296 14391
9296 15293
9297 13663
9297 14177
9297 19198
9297 20220
9298 21029
9299 10392
9299 13883
9299 21995
9300 9569
9300 10439
9300 10813
9300 10822
9300 13059
9300 13244
9300 14877
9300 14910
9300 15205
9300 17138
9300 17963
9300 19783
9300 20377
9300 20464
9300 20681
9300 22809
9301 10378
9301 12817
9301 17685
9302 14415
9302 16843
9302 17458
9303 17865
9304 20209
9304 21415
9305 18193
9305 19151
9305 19191
9306 9783
9307 23987
9307 24112
9307 24171
9308 9403
9308 10153
9308 10239
9308 11192
9308 11193
9308 15082
9308 17397
9308 17646
9308 18046
9308 19100
9308 20547
9308 20792
9308 21216
9308 21735
9308 23083
9309 18166
9309 19923
9310 9388
9310 15841
9310 20798
9311 10985
9311 13694
9311 15224
9311 17215
9311 21198
9312 18094
9312 18548
9313 14702
9313 21303
9314 17615
9315 13344
9315 20573
9316 13652
9316 16027
9316 17764
9316 19097
9317 12451
9317 24272
9318 9626
9318 24452
9319 13365
9319 15612
9320 9498
9320 10335
9320 12641
9320 14102
9320 15292
9320 18888
9320 19571
9320 22734
9320 22957
9321 23281
9322 11831
9322 18606
9323 9428
9323 9949
9323 10746
9323 10853
9323 11765
9323 12408
9323 12885
9323 13810
9323 14226
9323 15226
9323 15366
9323 16778
9323 19048
9323 20660
9323 20746
9323 22446
9324 19643
9324 20489
9324 23542
9325 14018
9327 17817
9327 18844
9327 18866
9328 24073
9328 24176
9328 24200
9328 24225
9329 11861
9329 13308
9329 15991
9329 16014
9329 17687
9329 17853
9329 19700
9329 19905
9329 20638
9329 21847
9330 13392
9330 17364
9330 18662
9330 18704
9331 11555
9332 14475
9332 21009
9332 22040
9333 9796
9334 23066
9335 9723
9335 9791
9335 12458
9335 14386
9335 20445
9335 24131
9336 10292
9336 13394
9336 17931
9336 19157
9336 21063
9336 22419
9336 23746
9336 24097
9337 9518
9337 13192
9337 14055
9337 15069
9337 18941
9337 20978
9337 23107
9337 23806
9338 10815
9338 10955
9338 13665
9338 17259
9338 18236
9338 18924
9339 10089
9339 11301
9339 13458
9339 15299
9339 19248
9339 19281
9339 21779
9339 23849
9340 9765
9340 16506
9340 21556
9341 9924
9341 14482
9342 11396
9342 21181
9343 16628
9343 18902
9344 14793
9344 15319
9344 17431
9344 24267
9345 10096
9345 11479
9345 11933
9345 11989
9345 16503
9346 10272
9346 13959
9347 17639
9347 18692
9347 21254
9348 20341
9348 22246
9349 10834
9349 11112
9349 13897
9349 16997
9349 17579
9349 18703
9349 19330
9349 20267
9349 20276
9349 21283
9349 22629
9350 14277
9350 15197
9350 19751
9350 20333
9351 16734
9351 22024
9351 22178
9352 11605
9352 12447
9353 10434
9353 20337
9354 15285
9355 15043
9356 22116
9357 9685
9357 20840
9357 22442
9358 9686
9358 24170
9359 13072
9359 19037
9360 10611
9360 10807
9360 12272
9360 12699
9360 14361
9360 16237
9360 17157
9360 18027
9360 21193
9360 22971
9361 18694
9362 21343
9362 23007
9363 11110
9363 13334
9363 15107
9363 15141
9363 20123
9363 20652
9363 22189
9364 13564
9364 17812
9365 12320
9365 17071
9365 18854
9366 12736
9366 15415
9366 18360
9366 21322
9366 22525
9367 13096
9367 13870
9367 20216
9368 11579
9368 15802
9369 11850
9370 11919
9372 18092
9372 24137
9373 10977
9373 13007
9373 22848
9373 23350
9374 10668
9374 12043
9374 12401
9374 13420
9374 13421
9374 19360
9374 19873
9374 23799
9374 24042
9374 24054
9375 22461
9376 22454
9377 15538
9377 20718
9378 13675
9379 11229
9379 13765
9379 21795
9379 22307
9380 14311
9380 16506
9380 22695
9381 10357
9381 10735
9381 11592
9381 13629
9382 14832
9382 15122
9382 17462
9382 21262
9382 21756
9383 10558
9383 11514
9383 13314
9383 21137
9384 10214
9384 16821
9384 18849
9385 10722
9385 21060
9386 10087
9386 10858
9386 13772
9386 18508
9386 22350
9386 22496
9387 10303
9388 15841
9388 20798
9389 21581
9389 21591
9390 11674
9390 11977
9390 18984
9391 11198
9391 17462
9391 17660
9392 19907
9392 20824
9392 21927
9392 23121
9393 17851
9393 23189
9394 14751
9394 18689
9394 19224
9394 21118
9394 22340
9394 23394
9395 12722
9395 13934
9395 14770
9395 18193
9396 18467
9398 15419
9399 13935
9399 17568
9400 14940
9400 15648
9400 18680
9401 14264
9401 20800
9402 12474
9402 24334
9403 13723
9404 17925
9404 18857
9404 21008
9405 23028
9406 11804
9406 17786
9407 11629
9407 18985
9407 19885
9407 22194
9407 22438
9408 9412
9408 21694
9409 18580
9410 9437
9410 12598
9410 13853
9411 16681
9411 17577
9412 21694
9412 21955
9413 12303
9413 15735
9413 16275
9413 17498
9413 21731
9414 15424
9414 17469
9416 20251
9416 21455
9416 22073
9417 23523
9418 10459
9418 15179
9418 20752
9418 21221
9418 23827
9418 24127
9419 11790
9419 21992
9421 21929
9421 22716
9422 20695
9423 23727
9423 24221
9424 18355
9424 20355
9424 20356
9425 19954
9425 20669
9426 9502
9426 11140
9426 13580
9427 12102
9427 18631
9427 20562
9427 21311
9428 14226
9429 15350
9429 18962
9430 10188
9430 15282
9430 18136
9430 21090
9431 12762
9431 13146
9431 13575
9431 16900
9432 19022
9432 22329
9433 19059
9433 21759
9433 24476
9434 14325
9434 14326
9434 14327
9435 9703
9435 17570
9436 10751
9436 12682
9436 19470
9437 16682
9437 22377
9438 18289
9439 13391
9440 12587
9440 13327
9440 17819
9441 14486
9441 15318
9441 15516
9442 12664
9442 24040
9442 24244
9443 12394
9443 20477
9443 21691
9443 22830
9444 13165
9444 14311
9444 16506
9444 18801
9445 16991
9445 17948
9445 17997
9446 10091
9446 11648
9446 15893
9447 22364
9447 22367
9448 10106
9448 11675
9448 13604
9448 19514
9449 12430
9449 16108
9449 18528
9449 21373
9449 21374
9450 16926
9450 19413
9450 21804
9451 13069
9451 16741
9451 17750
9451 22702
9453 11049
9453 18826
9454 17049
9454 23138
9455 14827
9455 15811
9455 18132
9455 22966
9456 14585
9456 21593
9458 12228
9458 15198
9458 15548
9458 16921
9458 17587
9458 18030
9458 18899
9459 9494
9459 10216
9459 18198
9459 19034
9459 22251
9460 13351
9460 20238
9461 11715
9461 19567
9462 24069
9463 14833
9463 18962
9464 9502
9464 17779
9465 10712
9465 17838
9466 17785
9466 19318
9466 22116
9467 12129
9468 20093
9468 20207
9469 13102
9469 21666
9469 23521
9470 9799
9470 14125
9470 20396
9471 13870
9471 17203
9471 19315
9471 21421
9472 13363
9473 23753
9475 23893
9476 11420
9476 17962
9476 18895
9476 23358
9477 10522
9477 13731
9477 16210
9477 23475
9478 9479
9478 9480
9478 22316
9478 22317
9479 9480
9479 19662
9479 22572
9479 22920
9480 22242
9480 22317
9481 12136
9481 18044
9482 9915
9483 11874
9483 12288
9483 18062
9484 9565
9484 14911
9484 16915
9485 12272
9485 15014
9485 18024
9487 13957
9488 17641
9488 21049
9490 16333
9490 22349
9491 9623
9491 10852
9491 11952
9491 11978
9491 12199
9491 12721
9491 13094
9491 13865
9491 15929
9491 16055
9491 17152
9491 17377
9491 17761
9491 18032
9491 18250
9491 18273
9491 19255
9491 20097
9491 20186
9491 20928
9491 21613
9491 21835
9491 22753
9491 22808
9491 23435
9492 13347
9493 9769
9493 16269
9493 18039
9493 19539
9493 20954
9493 23005
9494 10216
9494 18198
9494 19034
9495 12720
9495 18531
9495 22016
9495 23158
9496 10109
9496 12649
9496 14707
9496 23001
9496 23559
9496 23870
9496 23923
9496 24079
9496 24096
9496 24150
9497 22045
9498 14102
9498 15292
9498 18888
9498 19571
9498 22957
9499 11781
9499 17922
9499 22022
9500 11061
9500 21867
9502 10772
9502 19485
9502 20318
9502 21542
9503 10631
9504 9907
9504 11539
9504 20445
9504 21381
9505 22023
9506 15740
9507 21614
9508 19844
9508 22743
9509 21673
9510 12040
9510 20877
9510 21164
9511 11347
9511 13645
9512 23915
9512 24359
9513 9812
9513 14271
9513 17391
9513 19536
9513 22807
9514 21614
9515 23813
9515 24078
9516 18157
9516 20219
9517 23757
9518 9723
9518 19667
9518 23967
9519 24169
9519 24418
9520 9723
9520 11539
9520 21381
9521 9525
9521 9526
9521 11572
9522 11742
9522 15382
9522 20557
9523 19611
9523 20199
9524 10674
9524 10937
9524 17340
9525 9526
9525 9527
9525 9528
9525 11573
9525 11574
9525 11632
9526 9528
9526 11574
9526 11632
9527 11572
9527 11573
9528 11574
9531 14668
9532 15527
9532 18584
9533 9753
9533 11084
9533 13056
9533 13217
9533 17511
9533 20379
9533 20579
9533 21716
9534 9592
9534 11965
9534 19453
9535 11128
9535 16092
9536 10024
9536 11135
9536 20060
9536 22448
9536 23391
9536 23720
9536 24164
9536 24427
9537 10844
9537 13375
9537 17770
9537 21603
9537 22279
9537 22304
9537 22673
9538 13025
9538 18065
9538 21217
9538 21478
9540 9610
9540 17865
9540 21435
9541 13623
9541 15017
9541 20545
9542 13199
9542 19661
9543 9934
9543 11075
9543 12131
9543 12959
9543 13122
9543 13157
9543 14453
9543 14467
9543 15004
9543 15421
9543 15799
9543 16448
9543 16721
9543 17342
9543 19230
9543 19300
9543 20705
9544 10245
9544 10571
9544 19590
9545 13564
9546 15475
9546 19400
9546 19792
9546 22553
9547 16194
9547 18631
9547 22365
9548 11142
9548 14751
9548 17995
9548 18440
9548 18689
9548 19224
9549 10723
9549 16370
9549 16538
9550 10706
9550 11194
9551 16099
9551 16395
9551 19066
9551 20070
9551 20450
9551 21178
9551 21305
9551 21898
9552 19600
9553 15402
9553 20272
9553 20929
9554 12464
9554 18598
9554 22491
9555 20424
9555 22529
9557 13689
9557 14659
9557 19445
9557 20263
9557 20467
9557 21298
9557 23071
9558 10130
9558 13225
9558 16485
9558 16983
9558 18469
9558 19104
9558 22552
9559 16870
9559 22330
9560 9583
9560 10683
9560 12141
9560 15490
9560 17887
9560 19516
9561 9914
9561 11011
9561 14128
9562 9889
9562 10173
9562 19248
9562 22573
9562 23849
9563 9588
9564 16388
9564 17942
9564 18194
9565 14911
9565 18092
9565 23280
9565 24137
9566 12994
9566 14530
9566 18259
9566 22344
9567 11823
9567 11936
9567 14797
9567 18078
9568 14118
9568 22576
9569 13497
9569 17419
9569 18435
9569 21673
9569 22077
9571 15160
9571 19370
9572 10072
9572 13023
9572 14446
9574 17749
9574 19206
9575 21366
9576 11703
9576 12935
9577 10179
9577 14154
9577 14743
9577 16296
9577 18095
9577 18272
9577 19385
9578 18286
9578 22116
9578 23100
9579 11908
9579 23978
9580 15802
9580 23067
9581 9733
9581 19324
9582 9965
9582 12191
9582 12956
9582 13272
9582 13635
9582 19610
9583 17887
9584 12208
9584 15451
9584 15635
9584 18666
9585 10886
9585 11983
9585 13756
9585 14230
9585 16799
9585 17300
9585 17722
9585 18551
9585 20474
9585 20631
9585 21501
9585 22188
9586 11509
9586 18578
9587 10053
9588 24394
9588 24466
9589 9703
9589 14241
9589 17077
9589 18135
9589 18164
9590 12139
9590 19435
9591 10861
9592 21498
9593 19828
9594 22474
9595 23729
9595 23993
9595 24032
9595 24328
9595 24446
9596 17009
9596 20014
9596 21604
9597 16563
9598 12314
9598 14691
9598 15311
9598 15942
9598 19451
9598 21749
9599 10431
9599 14716
9599 15035
9600 10417
9600 16300
9601 14363
9602 12989
9602 20444
9602 21881
9603 10593
9603 21740
9604 21486
9605 9644
9605 14721
9605 19037
9606 16632
9606 20005
9607 10818
9607 12976
9607 13330
9607 15201
9607 16258
9607 20320
9607 21588
9607 21599
9608 16909
9608 18087
9608 23146
9609 14526
9609 16402
9610 16978
9610 19118
9610 21435
9611 10708
9612 20469
9613 12419
9613 15412
9613 20469
9613 21378
9614 17160
9614 19854
9614 23705
9615 13195
9615 15071
9617 11911
9617 23459
9618 24390
9619 22877
9619 24389
9620 17431
9620 17831
9620 17889
9620 23652
9621 16615
9621 20845
9623 11382
9623 12199
9623 13667
9623 14082
9623 15639
9623 16007
9623 18110
9623 19773
9623 20186
9623 22312
9624 10771
9624 15086
9624 20239
9624 23565
9625 10658
9625 11881
9625 15662
9626 9679
9626 10023
9626 12551
9626 23938
9627 11375
9627 12224
9628 13035
9628 14143
9629 19828
9630 23023
9631 14776
9631 22934
9632 17752
9634 15059
9634 19691
9634 19886
9635 16581
9635 20718
9636 18846
9636 19309
9636 19973
9636 21475
9637 17189
9637 17190
9637 17428
9637 19056
9637 19057
9637 19171
9637 20848
9637 22118
9638 10604
9638 10784
9638 11858
9638 12781
9638 13669
9638 21113
9639 16934
9639 21117
9640 23873
9641 21381
9641 24131
9641 24215
9643 24214
9643 24277
9644 11206
9644 11990
9644 12404
9644 14004
9644 15057
9644 16910
9644 17491
9644 18124
9645 18063
9645 19394
9646 20835
9646 21875
9647 10471
9647 15062
9647 16168
9647 16975
9647 18141
9648 11618
9648 13055
9648 14969
9648 23551
9649 14852
9649 19128
9650 13838
9651 14363
9651 19776
9651 19954
9652 14489
9652 14564
9654 19382
9654 23401
9655 13233
9655 17712
9656 9703
9656 11873
9656 12661
9656 13989
9656 17077
9656 18164
9657 10727
9657 12075
9657 14726
9657 19180
9657 19370
9658 17304
9659 14288
9659 19471
9660 15129
9660 17055
9660 21720
9661 12303
9661 15735
9661 17498
9662 10536
9662 12884
9662 14278
9662 16268
9662 18925
9663 14336
9663 14498
9663 16647
9663 18761
9664 10550
9664 12830
9664 17383
9665 14484
9665 21445
9666 9668
9666 16601
9666 20495
9667 9668
9667 15565
9667 20495
9668 20495
9669 13625
9669 22191
9669 22409
9670 9738
9670 9997
9670 11317
9670 14475
9670 15423
9670 15904
9670 17880
9670 18811
9671 15868
9671 18193
9671 19191
9671 20341
9672 10312
9672 18954
9672 19442
9672 20531
9673 16272
9673 20873
9674 14038
9674 17434
9674 20940
9675 17978
9676 16660
9676 19318
9676 20107
9677 13939
9678 12056
9678 18222
9679 23713
9679 24452
9680 19353
9680 22798
9681 13508
9681 17649
9681 19032
9682 10426
9682 15677
9683 18012
9683 22568
9683 23144
9684 13283
9684 15908
9684 16353
9684 17267
9685 10390
9685 10767
9685 11129
9685 13790
9685 15618
9686 23706
9686 24330
9687 20814
9687 22165
9687 23307
9688 14168
9688 18886
9689 16551
9689 18372
9691 9966
9691 10695
9691 10959
9691 11666
9691 12040
9691 12620
9691 12810
9691 14363
9691 14391
9691 15024
9691 15798
9691 15991
9691 16014
9691 17038
9691 17478
9691 17797
9691 17853
9691 18997
9691 19198
9691 19572
9691 19700
9691 19905
9691 20159
9691 21164
9691 22156
9691 22460
9692 14039
9692 17978
9692 19828
9692 23473
9693 12819
9693 15445
9694 12948
9694 13251
9694 13471
9694 13541
9694 13599
9694 14214
9694 14309
9694 14742
9694 15965
9694 16772
9694 16972
9694 17283
9694 18685
9694 18918
9694 19899
9694 19934
9694 20203
9694 20403
9694 20881
9694 21015
9694 21152
9694 21206
9694 21719
9694 22233
9694 22291
9694 22663
9694 23153
9695 17611
9695 20847
9695 23515
9696 12924
9696 13928
9696 20460
9697 10217
9697 13631
9698 16441
9698 18954
9699 23138
9700 14282
9700 17141
9701 15944
9702 21556
9702 21614
9703 10816
9703 11203
9703 11873
9703 12661
9703 13269
9703 13389
9703 13485
9703 13989
9703 14054
9703 14241
9703 14261
9703 15079
9703 15185
9703 15267
9703 17077
9703 17093
9703 17483
9703 17570
9703 17669
9703 18135
9703 18164
9703 20352
9703 20772
9703 20803
9704 12108
9705 12120
9705 13210
9706 13250
9706 21556
9706 21614
9707 9855
9707 11520
9707 13794
9707 15880
9707 20388
9708 13264
9709 18001
9709 23072
9709 23214
9710 16724
9710 17520
9710 18584
9710 19498
9710 22223
9711 13047
9711 17590
9711 23030
9712 19298
9713 22599
9714 11935
9714 14141
9714 17911
9714 20503
9715 10797
9715 18708
9716 14588
9717 10500
9717 14735
9717 15254
9718 19707
9718 22450
9718 22649
9719 10850
9720 14513
9720 18782
9720 19923
9721 15500
9721 15884
9721 17161
9721 20062
9721 22352
9722 13199
9722 18524
9722 19661
9723 9907
9723 11539
9723 13437
9723 14261
9723 15701
9723 15940
9723 18941
9723 19667
9723 20339
9723 20445
9723 20532
9723 20832
9723 20978
9723 21381
9723 22158
9723 22379
9723 22380
9723 23756
9723 23807
9723 23902
9723 23967
9723 24089
9723 24215
9723 24418
9724 10547
9726 10246
9726 14196
9726 17341
9727 20043
9728 14486
9728 18900
9728 22053
9729 9840
9729 18851
9729 19072
9729 22774
9730 16795
9730 18593
9730 19553
9730 23248
9731 11657
9732 10099
9732 11657
9733 15156
9734 18238
9735 20588
9736 19388
9738 22913
9739 14390
9739 15694
9739 20890
9739 24003
9739 24395
9740 11206
9740 12190
9740 14414
9740 14585
9740 15613
9740 18468
9740 20561
9741 10172
9741 12763
9741 20082
9742 20311
9742 21005
9742 22962
9743 18881
9743 20647
9744 13453
9744 21029
9744 22365
9745 11297
9745 23968
9745 24187
9746 10643
9746 11957
9746 22044
9746 23497
9747 10973
9747 12897
9747 14637
9747 16467
9747 17885
9748 12305
9748 15400
9748 18335
9749 10659
9750 15483
9751 11650
9751 12533
9751 15230
9751 16076
9752 13710
9752 20179
9752 20193
9753 17511
9754 9756
9754 9757
9754 12996
9754 14992
9754 20427
9755 9757
9755 9758
9755 12993
9755 20426
9755 20427
9755 21726
9756 14992
9756 21726
9756 23786
9757 12993
9757 21726
9758 12993
9758 20426
9759 10893
9759 20376
9759 22287
9760 18516
9761 18335
9761 20665
9762 12198
9762 15804
9762 19600
9762 21872
9763 15802
9763 17657
9764 17204
9764 18336
9764 20790
9765 10352
9765 15427
9765 18342
9765 20735
9765 20861
9765 21556
9765 21614
9765 23087
9766 21034
9767 10761
9767 17545
9767 18388
9767 19252
9767 22415
9768 18406
9769 23005
9770 11870
9770 15132
9770 15615
9770 23492
9771 15847
9771 17772
9772 11120
9773 11916
9773 12495
9773 18589
9774 12359
9774 13786
9774 19929
9775 16868
9776 14127
9776 14481
9776 20919
9778 15751
9778 19108
9779 19731
9779 19770
9780 14978
9780 16692
9780 18333
9780 22309
9780 23400
9780 23887
9780 24038
9781 11125
9781 15258
9781 19473
9782 15612
9783 20153
9785 14124
9785 17148
9786 15569
9786 16907
9787 16824
9787 17569
9787 23052
9787 23306
9787 23326
9788 13276
9788 19635
9789 19594
9790 15351
9791 21381
9791 24215
9792 13873
9793 15538
9793 18261
9793 21894
9794 9795
9794 17356
9794 17357
9795 17355
9795 21783
9796 10434
9796 12631
9796 12680
9796 19744
9797 10773
9797 12561
9797 14265
9798 17923
9798 18515
9798 21190
9799 20396
9800 12627
9800 17285
9800 18405
9800 21225
9801 11365
9801 12463
9801 18598
9803 22138
9804 11176
9804 11794
9804 12181
9804 15396
9804 18538
9804 18820
9804 18827
9805 13996
9807 19559
9807 20475
9807 21830
9807 21831
9807 23739
9807 24094
9807 24439
9808 19197
9808 19611
9808 20461
9809 14936
9809 18906
9809 19593
9809 23329
9811 10420
9811 22972
9812 15096
9813 10053
9813 10583
9813 14162
9814 12989
9814 14217
9814 14252
9814 17162
9814 17562
9814 18163
9814 20512
9814 21881
9815 10245
9815 10873
9815 11395
9815 12880
9815 13884
9815 14480
9815 14595
9815 18942
9815 22904
9816 11080
9816 11481
9816 15275
9816 17182
9817 21681
9817 21820
9818 10907
9818 23850
9819 22284
9820 21721
9821 11715
9821 19567
9821 22604
9822 14833
9822 15350
9823 11423
9823 11705
9823 16647
9824 13992
9824 16641
9825 10088
9825 12115
9825 24313
9826 10629
9826 12546
9826 16173
9826 17209
9827 13886
9827 16510
9828 17910
9828 19321
9829 13676
9829 19063
9830 13186
9832 12788
9832 14139
9832 15641
9832 15644
9833 14325
9833 14327
9833 15304
9834 10577
9834 14354
9834 21799
9834 22791
9835 15376
9835 16916
9835 16917
9835 19729
9835 22125
9836 20793
9837 12334
9837 14277
9837 14846
9838 12949
9838 12951
9839 16863
9839 20020
9839 20866
9840 12904
9840 15425
9840 16544
9840 18851
9840 19072
9841 17305
9842 14659
9842 19328
9842 20263
9843 22529
9845 18402
9845 21992
9846 18375
9846 18998
9846 23100
9848 16746
9848 19386
9849 9911
9849 11031
9849 11070
9849 13917
9850 20463
9851 18846
9852 10649
9852 17628
9852 19467
9853 15392
9854 21903
9854 23534
9855 20388
9856 14076
9856 18138
9856 20444
9857 13354
9857 23413
9858 15381
9858 17977
9859 14551
9860 10962
9860 19952
9860 22386
9860 23501
9863 10828
9863 18647
9863 19046
9863 22648
9864 12081
9864 15510
9865 10559
9865 12593
9865 13215
9865 13608
9865 17170
9865 18803
9866 10219
9866 13336
9866 13404
9866 15944
9866 19797
9866 21004
9866 22796
9867 19318
9868 11545
9868 11674
9868 11977
9868 12582
9868 12969
9868 13693
9868 18505
9868 19712
9868 22810
9868 23129
9869 14092
9869 19635
9870 10526
9870 10890
9870 13448
9870 19170
9870 21019
9871 12972
9871 15549
9871 17687
9871 19075
9872 9874
9872 10358
9872 11355
9872 21339
9872 22719
9873 16615
9873 20845
9874 10358
9874 11355
9874 13983
9874 16676
9874 17629
9874 19680
9874 20706
9874 20771
9874 21536
9874 22719
9874 23743
9875 10798
9875 10973
9875 14653
9875 14845
9875 16914
9875 18188
9875 19113
9876 17840
9876 21252
9877 23637
9878 11659
9879 16325
9879 18143
9880 13207
9880 13487
9881 12943
9881 21942
9882 12559
9882 14814
9882 22465
9883 10977
9883 13007
9883 19992
9883 22848
9883 23350
9885 17305
9886 14621
9886 17583
9886 22890
9887 24017
9887 24123
9887 24125
9888 10379
9888 15867
9888 22664
9888 23722
9888 23844
9890 11588
9890 16812
9890 16827
9890 21414
9891 14430
9891 15221
9891 16864
9891 23141
9892 12759
9892 18136
9893 18489
9894 14031
9895 12106
9895 19327
9896 24487
9897 23720
9897 23979
9897 24164
9898 11423
9898 16647
9899 15612
9899 16329
9899 17801
9899 23450
9900 10221
9900 11183
9900 11211
9900 12313
9900 14976
9900 15959
9901 12502
9901 18415
9901 20539
9902 13159
9902 15737
9902 16424
9902 20880
9903 10584
9903 16284
9903 17671
9903 17672
9903 19578
9903 23649
9904 12615
9904 24257
9905 12679
9905 18189
9905 19350
9905 22551
9906 13503
9906 22359
9907 11539
9907 16420
9907 21381
9908 21631
9909 10616
9909 11152
9909 11537
9909 13092
9909 18763
9909 21376
9909 21553
9910 15201
9910 18902
9911 11031
9911 13917
9911 13952
9911 23443
9912 15735
9912 17498
9913 10614
9913 12339
9913 12786
9913 13828
9913 17855
9913 19089
9913 19811
9913 23309
9914 11011
9914 22112
9915 21893
9916 15351
9916 19371
9917 15720
9917 17587
9917 17953
9918 13747
9918 18967
9919 21437
9920 16366
9920 21294
9920 22364
9920 22366
9920 22367
9920 23371
9920 23491
9921 12688
9921 21278
9921 23023
9922 19622
9923 13697
9923 18494
9924 14166
9924 16163
9924 16192
9924 16476
9924 21429
9925 16612
9926 21181
9927 17736
9927 21496
9928 16868
9928 18526
9929 9931
9929 12955
9929 18568
9930 9931
9930 12953
9930 14381
9930 17613
9930 19194
9931 12952
9931 12953
9931 19194
9932 11311
9932 15764
9932 20106
9934 12959
9935 11139
9935 16405
9935 22097
9935 22914
9937 17411
9938 10324
9938 24304
9939 10346
9939 10540
9939 11385
9939 19481
9940 11514
9940 12538
9941 14612
9941 19438
9941 19898
9941 21907
9942 21439
9943 13284
9943 19109
9943 22352
9944 11112
9944 12034
9944 22629
9945 12897
9946 10139
9946 13197
9946 20861
9946 21556
9947 12864
9947 21437
9948 13155
9948 14729
9948 21975
9949 10853
9949 18644
9949 20660
9950 13705
9950 13706
9950 21573
9950 22924
9950 23897
9950 23913
9950 23998
9950 24213
9950 24347
9950 24456
9951 10825
9951 10879
9951 11173
9951 13091
9951 21813
9952 12079
9952 15145
9952 19381
9952 22290
9953 17644
9953 24246
9955 9956
9955 9958
9955 11042
9955 11043
9955 15391
9956 11043
9956 11044
9957 20990
9957 21899
9957 22597
9957 23624
9958 11042
9958 11044
9959 15121
9959 16819
9959 19418
9959 19834
9961 10171
9961 11397
9961 23753
9961 24203
9961 24229
9962 11244
9962 15764
9962 17589
9963 16194
9963 17096
9963 21270
9964 20463
9965 12413
9965 13005
9965 13272
9966 13675
9967 16379
9967 18346
9967 23276
9968 23871
9968 24287
9969 17471
9969 20676
9969 20878
9969 21385
9971 16781
9971 18550
9971 21556
9972 18867
9973 13620
9974 24083
9975 15240
9975 15650
9975 16139
9975 17408
9975 19742
9975 21195
9975 21910
9975 22689
9976 11060
9976 16374
9977 14431
9977 16513
9977 19289
9978 17200
9979 10354
9979 11243
9979 14170
9979 18315
9980 14600
9980 15041
9980 18582
9981 20537
9982 10729
9982 16296
9982 19385
9982 23244
9983 12800
9984 12679
9984 22551
9985 11506
9985 19094
9985 19242
9986 12264
9986 14408
9986 16810
9987 11861
9987 14363
9988 20022
9988 20031
9988 20032
9989 10066
9989 15507
9989 16298
9989 21559
9989 22684
9989 23408
9990 10013
9990 18619
9991 17859
9992 10066
9992 21557
9992 22616
9992 23408
9993 15797
9993 21123
9993 22008
9993 24348
9994 13835
9994 20820
9995 13001
9995 14657
9995 18930
9995 21316
9996 12897
9997 14999
9997 22913
9998 10165
9998 18300
9998 22836
9999 16795
9999 19553
9999 23248
10000 10299
10001 10245
10001 10571
10001 12029
10001 12348
10002 17776
10002 18788
10002 19804
10003 22231
10003 23038
10004 10702
10004 14344
10004 14552
10004 18358
10004 19120
10004 19434
10004 20554
10004 20857
10004 22075
10005 14487
10005 15945
10005 16957
10005 18631
10005 22266
10005 22437
10006 10809
10006 15053
10007 15957
10007 16360
10007 20729
10007 20964
10008 10409
10008 12426
10008 15986
10009 13320
10010 23910
10010 24010
10010 24398
10011 16285
10011 18178
10012 17305
10012 19923
10012 20107
10013 13015
10014 14877
10014 21673
10015 14622
10015 21596
10015 22046
10015 22474
10015 22974
10016 11141
10016 20966
10017 19687
10018 10045
10018 10678
10018 11949
10018 13061
10018 13517
10018 15115
10018 15744
10018 17900
10018 19680
10018 20626
10018 20771
10018 22894
10019 14895
10019 22053
10020 23994
10021 10211
10021 13307
10021 14050
10021 17069
10021 18767
10021 20173
10021 23726
10021 24073
10021 24383
10021 24409
10022 10485
10022 19824
10022 22592
10022 22904
10023 24413
10024 16953
10024 23150
10025 10073
10025 10507
10025 12630
10025 12890
10025 13885
10025 15714
10025 17993
10025 18558
10025 19209
10025 19959
10025 20299
10025 23579
10026 13448
10026 14010
10026 17195
10026 19202
10027 22526
10028 13210
10028 14940
10028 15648
10029 23033
10030 17521
10030 20494
10031 20634
10032 17691
10032 23516
10032 24122
10032 24153
10032 24206
10032 24277
10032 24470
10033 15791
10033 19196
10033 19956
10034 13901
10034 14182
10034 15672
10034 18372
10034 20448
10034 22433
10034 22531
10034 22722
10034 22995
10035 20335
10036 13334
10036 15107
10037 18918
10038 16847
10038 21486
10039 21129
10039 22904
10040 12452
10040 17055
10041 21068
10041 23628
10042 12974
10042 18304
10043 22450
10043 22649
10044 19173
10044 19174
10045 11469
10045 12540
10045 13803
10045 19999
10045 20771
10046 14917
10046 15776
10046 17290
10046 20587
10046 20834
10046 22108
10046 23878
10046 23908
10046 24057
10046 24443
10047 10365
10047 10369
10047 10371
10047 24260
10048 22067
10048 23277
10049 12612
10049 15175
10049 16817
10049 20205
10049 23542
10050 14895
10051 10189
10051 13880
10051 13997
10051 15921
10051 21670
10052 10571
10052 12029
10052 13884
10053 10122
10053 10583
10053 11457
10053 11833
10053 12183
10053 13379
10053 14162
10053 18898
10053 19704
10053 20668
10053 20915
10053 21556
10054 20717
10055 15145
10055 17773
10055 23259
10056 10112
10056 11391
10056 11660
10056 13199
10056 13833
10056 14701
10056 15233
10056 15585
10056 17573
10056 18524
10056 19656
10056 19661
10056 21578
10056 21689
10056 22588
10056 23186
10056 23540
10057 12615
10057 23870
10058 18504
10058 21698
10059 13052
10059 17457
10059 21073
10060 15537
10060 19133
10060 23145
10060 23607
10060 23657
10062 10996
10063 11329
10063 12509
10063 19882
10065 22668
10066 16549
10066 21557
10066 21559
10066 23705
10067 11340
10067 12221
10067 21558
10068 21508
10069 12571
10069 16865
10069 17830
10070 13166
10071 20554
10072 10508
10072 14491
10072 21265
10073 13885
10073 15587
10074 22666
10075 12569
10075 16855
10076 16122
10076 16937
10076 17920
10076 18946
10077 15744
10077 19632
10077 20771
10078 15351
10079 15953
10079 18940
10079 19633
10079 22680
10080 11157
10080 14318
10081 22053
10082 19562
10082 23749
10083 10647
10083 10786
10083 11976
10083 14247
10083 16585
10084 22214
10085 16984
10085 23821
10085 24370
10086 23776
10086 23792
10086 24435
10087 10858
10087 18508
10087 22496
10089 11528
10089 19248
10090 15725
10091 11648
10091 12775
10091 15792
10091 15893
10091 16261
10091 19483
10091 19944
10091 20507
10091 21905
10091 22674
10091 23866
10092 11514
10092 13314
10092 15074
10092 20224
10093 15033
10093 16275
10093 17578
10093 19084
10094 10709
10094 17418
10094 18686
10094 19634
10095 23942
10096 11933
10097 18732
10098 11583
10098 15315
10099 13514
10100 15717
10100 16779
10100 17675
10100 18573
10101 10762
10101 16948
10101 17248
10102 11619
10102 13210
10102 14623
10102 15648
10102 16068
10102 19280
10102 19456
10103 10104
10103 16458
10104 15872
10104 17814
10106 10143
10106 11675
10106 13604
10106 14301
10106 19514
10106 19855
10106 21029
10107 10797
10107 10841
10107 10972
10108 13118
10108 13681
10108 13812
10108 13815
10108 15349
10110 23784
10110 24436
10111 19611
10112 12776
10113 16768
10113 17447
10113 18632
10114 21768
10115 16317
10116 16763
10117 19041
10117 22055
10118 15325
10119 13838
10119 14009
10119 14872
10119 22906
10119 23634
10120 16312
10120 17094
10120 22857
10122 18898
10122 21556
10123 11980
10123 23809
10123 24093
10123 24154
10124 14408
10124 16810
10125 16896
10126 14077
10126 14883
10127 18846
10127 19973
10128 15440
10128 17270
10128 19607
10129 11247
10129 12333
10129 19601
10130 12860
10130 16983
10130 18469
10131 11937
10131 13320
10131 13690
10131 13905
10131 14189
10131 17180
10131 22389
10132 21929
10133 12560
10133 15320
10133 16079
10134 21455
10135 19687
10136 23962
10137 24324
10139 13197
10139 20234
10139 20861
10140 11759
10140 12045
10140 21787
10141 23827
10141 24095
10142 13440
10142 20998
10142 21272
10143 14301
10143 19855
10145 13487
10145 15360
10146 19043
10147 14772
10148 14567
10148 14688
10148 17286
10148 22557
10149 13295
10149 16030
10149 16755
10149 17593
10150 10999
10152 11512
10152 15068
10154 13159
10154 15737
10155 18504
10155 20694
10155 22732
10156 14021
10156 16288
10156 18618
10157 12608
10157 18232
10157 18777
10157 21426
10157 22866
10158 12978
10158 12979
10158 12980
10159 11221
10159 11688
10159 18612
10159 20812
10159 21026
10159 21067
10160 10322
10160 17347
10160 18168
10161 15152
10162 24067
10162 24321
10164 18177
10164 22822
10166 16426
10166 17608
10166 19214
10166 19848
10166 20980
10166 21011
10166 23459
10167 12578
10167 18586
10167 20363
10168 19710
10169 24436
10170 16074
10170 17841
10171 10642
10171 23753
10172 20794
10173 11528
10174 14360
10175 14676
10176 12994
10176 13664
10176 16355
10177 12160
10177 13317
10178 12310
10178 17734
10178 17737
10178 20932
10179 15631
10179 23244
10180 10691
10180 12527
10180 23243
10181 18631
10181 22365
10182 12457
10182 13550
10182 23319
10183 11648
10183 15893
10183 19294
10184 16741
10184 21856
10184 22702
10186 10872
10186 18396
10186 21968
10186 23677
10186 24046
10186 24173
10187 19205
10189 13880
10190 17202
10191 22757
10192 11378
10192 22080
10192 22770
10193 13921
10193 20717
10193 20732
10193 22391
10194 15087
10194 20763
10194 21296
10195 11528
10195 18190
10196 16855
10196 20472
10198 13846
10198 14840
10198 20402
10199 13122
10199 22138
10200 21050
10201 15022
10201 16031
10201 18563
10201 19529
10201 20575
10202 11270
10202 16577
10203 10204
10203 11270
10203 11283
10203 20984
10204 11270
10204 16577
10204 18011
10204 20984
10205 15146
10206 12381
10206 14890
10206 15583
10206 16273
10206 19562
10208 10279
10208 10450
10208 12412
10208 23009
10209 12149
10209 14783
10209 14886
10209 21853
10210 14877
10211 17069
10211 17223
10211 18767
10211 20173
10211 23353
10211 24383
10211 24409
10211 24473
10212 23952
10212 24476
10213 11290
10213 11429
10213 12552
10214 18849
10215 14251
10216 18198
10216 19034
10217 14409
10217 15444
10218 12897
10218 15818
10218 21181
10219 19797
10219 22796
10220 11913
10220 12423
10220 13662
10220 17354
10220 21064
10221 11183
10221 12313
10221 14976
10221 19006
10221 19331
10222 12596
10223 19968
10224 10650
10225 18038
10225 20916
10226 13870
10226 18166
10226 19923
10227 10231
10227 10232
10228 11320
10228 16582
10229 16232
10229 24441
10230 10574
10230 15466
10230 15669
10230 16094
10230 17084
10230 18681
10230 20378
10230 21130
10231 13528
10231 22764
10232 11319
10232 22764
10233 12247
10233 16473
10233 24402
10234 20294
10234 21080
10235 19108
10236 24054
10237 17812
10237 18366
10237 19878
10238 10608
10238 15933
10238 17623
10238 21483
10238 22769
10239 13795
10240 10959
10240 20861
10240 21556
10241 20889
10241 22554
10241 23693
10242 14098
10243 23822
10243 24190
10243 24249
10244 22990
10244 23013
10245 10571
10245 10758
10245 11150
10245 11834
10245 11960
10245 12563
10245 13399
10245 13884
10245 14389
10245 14529
10245 14608
10245 15157
10245 15297
10245 15315
10245 15591
10245 15983
10245 16465
10245 16564
10245 17179
10245 17489
10245 17624
10245 17867
10245 17947
10245 18171
10245 18651
10245 18715
10245 18756
10245 19020
10245 19227
10245 19618
10245 19845
10245 20410
10245 20538
10245 20697
10245 21057
10245 21973
10245 22618
10245 23313
10246 15111
10246 17341
10246 19272
10246 20421
10247 10320
10248 14131
10248 17211
10248 20361
10248 22681
10249 12990
10249 14551
10250 14496
10250 15917
10250 16805
10250 17146
10250 17472
10250 18482
10250 21209
10250 22315
10251 15495
10251 16880
10251 19202
10251 20913
10251 21489
10252 23033
10253 15257
10253 19035
10253 23434
10254 16122
10255 15835
10255 22759
10256 13653
10256 17883
10256 22231
10257 15807
10257 16714
10257 22486
10258 16739
10258 19652
10259 10369
10259 24260
10260 11500
10260 15540
10260 18664
10260 23286
10261 13171
10261 14710
10261 14713
10262 19713
10262 20451
10262 23513
10263 15792
10263 16898
10263 21905
10264 11583
10264 11707
10264 12473
10264 22185
10264 22696
10265 11789
10265 13066
10265 15473
10265 23304
10266 10338
10266 12353
10266 15420
10267 19687
10268 11093
10268 14002
10268 18350
10269 13426
10269 13992
10269 16327
10269 16641
10269 20050
10269 21292
10270 24465
10271 21398
10272 11623
10272 13959
10272 17717
10273 15902
10273 17120
10273 17136
10273 17916
10273 20536
10273 22840
10274 18629
10274 20997
10275 12914
10275 16844
10276 18886
10277 15156
10277 15680
10277 20894
10278 15991
10279 10450
10279 12412
10279 23009
10280 15877
10280 17411
10281 12433
10281 12929
10281 14101
10281 15098
10281 23162
10282 11774
10283 13889
10283 18228
10284 22599
10285 15659
10285 20413
10286 23859
10286 24225
10287 18819
10287 19535
10288 20743
10289 11019
10289 16635
10289 20565
10289 23415
10289 23662
10290 11318
10291 21348
10292 21169
10293 11634
10293 13365
10293 23387
10295 18623
10295 18806
10295 22407
10295 22414
10296 11986
10297 21875
10298 13062
10298 20354
10298 21610
10299 15382
10300 10506
10301 21863
10302 18215
10302 20382
10303 14537
10303 20013
10304 13007
10304 19992
10304 22848
10305 10539
10305 22474
10306 18565
10306 18926
10307 10441
10307 13289
10307 17254
10307 18774
10308 23390
10309 18900
10310 23067
10310 23302
10312 10759
10312 22344
10313 10315
10313 10316
10313 11123
10313 14067
10314 17133
10314 17635
10315 10316
10315 14067
10315 19989
10316 12588
10316 19989
10317 10893
10318 15604
10319 12217
10319 17179
10320 13463
10320 15455
10320 16631
10321 19460
10321 20744
10322 10826
10322 11450
10322 13606
10322 14089
10322 19940
10323 15298
10323 18040
10323 18511
10323 19283
10324 11908
10324 23812
10324 24212
10324 24304
10325 15564
10325 16982
10325 18514
10325 18712
10325 22160
10326 23952
10327 13650
10327 16421
10327 20570
10327 21041
10328 11398
10328 13440
10328 13906
10328 15060
10328 15176
10328 22346
10328 22789
10329 18748
10330 12957
10330 20572
10331 11558
10331 12520
10331 18116
10331 21954
10332 18308
10332 19237
10332 19595
10333 19398
10334 12095
10334 17765
10334 19973
10335 14102
10336 17813
10337 15260
10337 16664
10338 12353
10339 16106
10339 16107
10340 13285
10340 15801
10340 18288
10340 23410
10341 16462
10341 17767
10341 21891
10341 23411
10342 11553
10342 20909
10343 18478
10344 13973
10345 17447
10346 10540
10346 12830
10346 19481
10347 12752
10347 15359
10348 12946
10348 18971
10348 19893
10348 24297
10348 24319
10348 24321
10349 11290
10349 11429
10349 12552
10350 12891
10350 19318
10351 16795
10351 17663
10351 18593
10351 21286
10352 19198
10352 21725
10353 14284
10353 16238
10353 18477
10353 22832
10354 11243
10354 14170
10354 18315
10356 23550
10357 10735
10357 11061
10358 10983
10358 13983
10358 17368
10358 21339
10358 22719
10358 23470
10358 23743
10359 23331
10360 24284
10361 24316
10361 24317
10363 11346
10363 19452
10363 20093
10364 19975
10365 10369
10365 22779
10365 24260
10365 24334
10366 12525
10366 16498
10367 15580
10368 14261
10368 18885
10368 20803
10369 20810
10369 24260
10370 10372
10370 14947
10370 15081
10370 19246
10370 23445
10371 20810
10371 22779
10372 10373
10372 15081
10372 22687
10372 23445
10373 19245
10373 22410
10373 22687
10373 23679
10374 23425
10374 23969
10375 19414
10375 23988
10375 24037
10376 11545
10376 19043
10376 19712
10377 13787
10377 15851
10377 20791
10378 19063
10379 16522
10379 22664
10380 16707
10380 20791
10383 11260
10384 10765
10384 21555
10385 12444
10385 13104
10385 14574
10385 18785
10385 21595
10385 23040
10387 20816
10388 21593
10389 12227
10389 16070
10390 10767
10390 13678
10390 18021
10390 20375
10391 10716
10391 17649
10391 22376
10391 22630
10392 13883
10392 14580
10392 20623
10392 22867
10393 10880
10393 11780
10393 14489
10395 11610
10395 21556
10397 12028
10397 16364
10397 16717
10397 16938
10397 17752
10397 17766
10397 18216
10397 18449
10397 18597
10397 18598
10397 18910
10397 19549
10397 21598
10397 22491
10398 23057
10398 23221
10399 20122
10400 11297
10400 23938
10401 13344
10401 19455
10403 14558
10403 17197
10403 21786
10404 12557
10404 23315
10404 24024
10404 24147
10404 24264
10406 16026
10406 22907
10407 24067
10407 24458
10408 20179
10409 12426
10409 15768
10409 20899
10409 22106
10409 23911
10409 23965
10410 15398
10410 16579
10411 15204
10411 16866
10413 19872
10414 14037
10415 11083
10415 14946
10415 15009
10416 11151
10416 15665
10416 18779
10417 10754
10417 11066
10417 11178
10417 12500
10417 16300
10417 17403
10417 22591
10418 13461
10418 19023
10418 21904
10418 22522
10418 23968
10419 11126
10419 18180
10419 24023
10419 24136
10419 24403
10420 10931
10420 13750
10420 16228
10420 16617
10420 19143
10420 21186
10421 19564
10421 22365
10422 11567
10422 17167
10423 10433
10423 19649
10424 22054
10424 23533
10425 15415
10425 22310
10426 10721
10426 12136
10426 15898
10426 17843
10426 19398
10427 18363
10427 21039
10428 17471
10428 17535
10428 20676
10429 16425
10429 16782
10429 17748
10429 20108
10429 20544
10430 10621
10430 15987
10430 23230
10431 11364
10431 13775
10431 14716
10431 15225
10431 19838
10431 21960
10432 18884
10432 23365
10433 11561
10433 19649
10434 14339
10434 15403
10434 15770
10434 17175
10434 18783
10434 19175
10434 20337
10435 12268
10436 12579
10436 12645
10436 23548
10437 12794
10437 14034
10437 19956
10437 21079
10438 16307
10438 21556
10439 23369
10440 20209
10441 15131
10441 16982
10441 17254
10442 13623
10442 20545
10443 24097
10443 24158
10443 24176
10444 11428
10444 23851
10444 24468
10445 21614
10446 14640
10446 18818
10446 22400
10447 12161
10447 18475
10448 11065
10448 12326
10448 13100
10448 16221
10448 22863
10449 12366
10449 21572
10449 23142
10449 23536
10450 23009
10451 24145
10451 24480
10451 24488
10452 12846
10452 18088
10452 20784
10453 11120
10453 16754
10453 21735
10454 19988
10454 21009
10454 23121
10455 10864
10455 24145
10455 24480
10456 14243
10456 22685
10457 16706
10457 17716
10457 23464
10458 15802
10458 17006
10458 17168
10458 18816
10459 16758
10460 12841
10460 13560
10460 22889
10460 22985
10460 23362
10460 24016
10461 13522
10461 16306
10462 15810
10462 19021
10463 23297
10464 19769
10464 22356
10465 14122
10465 15684
10465 16858
10465 18499
10465 19429
10465 20639
10465 21446
10465 22928
10466 20408
10467 17626
10468 12391
10468 13433
10469 11824
10469 12704
10469 14045
10469 19197
10469 19611
10469 20461
10469 21488
10470 12214
10470 13182
10470 13490
10470 15241
10470 21680
10471 15062
10471 15079
10471 16168
10471 16975
10471 18141
10471 20801
10471 21211
10471 22422
10472 18168
10473 14288
10474 21711
10475 19240
10475 19744
10476 14621
10476 17583
10476 19363
10476 22890
10476 23002
10477 12324
10477 20258
10477 22336
10478 18286
10479 12608
10479 18232
10479 19329
10480 23138
10481 13128
10481 19339
10482 14227
10482 16089
10482 22143
10483 13696
10483 14782
10483 17781
10484 22525
10485 10503
10485 16883
10485 19824
10485 20806
10486 12483
10486 15097
10486 19660
10487 15527
10487 18584
10488 21021
10489 16318
10489 17959
10490 12997
10490 14135
10490 21007
10491 11579
10491 15802
10492 14507
10492 15762
10492 17600
10492 23337
10494 23509
10495 12227
10496 12031
10497 12897
10497 15818
10497 22716
10498 12896
10498 14267
10499 10543
10499 10905
10499 10908
10499 22726
10499 22727
10499 23971
10500 11149
10500 22285
10500 23623
10501 21133
10501 23622
10501 23932
10501 24091
10503 10599
10503 12053
10503 12156
10503 13346
10503 19210
10503 19524
10503 19824
10503 21764
10503 22592
10503 22735
10503 23269
10504 16791
10504 17463
10504 17724
10505 16904
10505 18093
10505 20160
10505 20788
10505 23043
10506 14809
10506 16233
10506 16927
10506 19783
10506 20377
10506 23349
10507 13885
10508 13023
10508 14446
10509 15628
10509 21256
10510 24177
10510 24299
10511 24054
10512 24164
10512 24247
10513 23667
10513 24099
10514 13166
10514 21760
10515 24413
10516 10518
10516 23667
10516 23973
10517 13203
10517 14675
10517 18532
10517 23830
10517 24421
10518 23973
10518 24414
10519 24014
10519 24468
10520 15810
10520 19021
10521 15935
10521 21047
10521 21681
10522 13731
10522 17697
10524 18890
10524 22360
10524 24446
10525 21212
10526 10832
10526 11484
10526 13448
10526 15626
10526 19170
10526 21019
10527 13946
10527 16732
10527 20886
10529 21854
10529 23508
10530 17037
10530 19868
10531 10550
10531 15539
10531 21556
10532 15527
10534 20388
10535 19687
10536 12884
10536 18925
10537 19196
10537 20517
10539 13057
10539 15971
10539 20872
10540 11385
10540 12830
10540 21499
10541 17514
10541 20473
10541 23614
10542 11021
10542 13572
10542 18426
10542 20289
10543 19784
10544 10547
10544 17200
10545 24142
10545 24347
10545 24456
10545 24472
10546 15178
10546 24071
10547 10548
10547 17200
10547 24342
10547 24440
10548 17200
10549 11513
10549 21009
10553 15538
10553 15704
10553 20718
10553 21894
10554 13076
10554 21903
10555 13870
10555 14809
10555 16233
10555 16927
10555 17992
10555 19783
10556 22662
10557 12570
10557 15415
10557 16442
10557 22310
10558 13240
10558 17392
10558 18448
10558 19068
10558 19554
10558 20119
10558 20327
10558 20496
10558 21590
10558 21957
10558 22149
10559 13608
10560 13457
10560 21188
10560 22817
10561 23376
10562 10620
10562 12321
10562 12793
10562 14767
10562 20051
10563 20967
10564 18962
10565 13090
10565 21893
10566 12400
10566 13457
10566 18851
10566 22774
10567 11316
10567 11728
10567 12104
10567 13356
10567 14223
10567 18086
10567 20753
10568 21792
10569 11685
10570 11408
10570 11409
10570 11719
10570 16152
10570 16153
10570 17446
10571 10758
10571 10873
10571 11150
10571 11543
10571 11720
10571 11960
10571 12029
10571 12038
10571 12563
10571 12584
10571 12591
10571 13304
10571 13358
10571 13399
10571 13884
10571 13947
10571 13979
10571 14529
10571 14595
10571 14608
10571 14794
10571 15315
10571 15389
10571 15591
10571 15983
10571 17489
10571 17624
10571 17867
10571 18171
10571 18707
10571 18715
10571 18738
10571 18756
10571 18838
10571 18908
10571 19590
10571 19845
10571 19922
10571 20410
10571 20538
10571 20667
10571 20697
10571 21764
10571 21973
10571 22451
10571 23314
10571 23469
10571 23576
10572 11321
10572 20359
10573 10954
10573 23941
10574 20378
10575 20992
10575 22024
10576 12204
10576 13468
10577 21799
10577 22791
10578 14195
10578 14844
10578 17296
10579 10580
10579 16019
10579 19092
10580 10581
10580 16019
10580 19092
10581 16019
10582 22074
10584 11938
10584 14754
10584 16284
10584 17670
10584 17671
10584 19090
10585 23915
10585 24372
10586 20595
10586 21578
10586 21990
10586 22281
10587 14690
10588 12223
10588 13412
10588 14526
10589 13178
10589 13798
10589 16607
10589 19295
10589 19639
10589 20542
10589 21626
10590 10892
10590 15885
10591 11786
10591 13098
10591 13680
10591 15246
10591 15740
10593 11169
10593 11929
10593 12065
10593 12098
10593 12219
10593 12559
10593 12712
10593 12821
10593 13145
10593 13169
10593 13193
10593 14360
10593 15144
10593 15263
10593 15383
10593 15742
10593 16235
10593 16365
10593 16534
10593 16774
10593 16788
10593 16967
10593 17045
10593 17279
10593 17875
10593 18744
10593 19825
10593 20737
10593 21382
10593 21764
10593 22070
10593 22405
10593 22451
10593 22977
10593 23459
10594 18286
10594 22116
10594 23100
10595 12971
10596 13854
10596 16270
10596 17557
10597 13958
10598 10938
10598 24130
10600 14320
10600 18530
10603 10669
10603 11063
10603 23409
10603 24159
10604 10784
10604 11858
10604 11861
10604 12781
10604 13669
10604 19234
10604 20607
10604 21621
10605 18998
10605 22005
10606 11790
10606 21507
10607 16056
10607 18671
10608 10978
10608 17623
10608 17632
10608 18672
10608 20405
10608 21483
10608 21717
10608 22769
10608 23528
10609 22748
10609 24220
10610 16162
10610 16699
10610 17109
10610 21981
10611 13207
10611 19398
10612 16597
10613 18631
10614 10946
10614 17870
10614 18006
10614 18821
10614 19811
10614 21886
10615 16524
10616 11537
10616 13408
10616 21376
10616 21553
10617 13749
10617 18348
10619 13755
10620 12321
10620 12793
10621 17050
10621 17927
10621 20885
10621 23230
10622 10623
10622 12496
10622 15243
10622 16177
10623 14740
10623 15955
10623 16177
10624 16768
10624 17447
10624 18632
10625 11621
10625 13933
10625 18631
10625 20618
10626 21834
10627 11544
10627 14352
10627 15408
10628 12497
10628 14273
10628 18323
10628 18519
10628 22141
10629 12546
10629 16173
10630 14866
10630 14868
10630 14871
10631 12033
10631 13170
10632 16384
10632 21461
10633 14776
10633 22934
10634 15969
10635 12864
10635 16307
10635 19002
10635 19545
10636 12673
10636 20401
10636 23103
10637 15997
10637 16631
10638 17637
10638 17883
10638 22231
10639 10712
10639 12586
10639 13924
10639 14729
10639 15493
10639 20039
10639 21975
10640 19810
10640 23994
10641 19380
10641 23934
10642 21253
10642 24229
10643 11957
10643 22044
10644 12864
10644 23532
10645 19324
10646 10651
10646 12618
10646 14675
10646 23655
10646 23830
10646 24033
10646 24248
10647 12861
10647 14247
10647 21688
10647 22277
10648 16328
10648 16394
10648 17616
10649 17628
10650 11679
10650 13191
10651 10908
10651 14763
10651 23827
10651 23942
10651 24033
10652 16734
10652 22178
10653 15064
10654 24256
10655 21477
10656 13317
10656 14612
10656 19504
10657 14797
10658 13492
10659 13939
10659 21082
10659 21405
10660 12801
10661 10723
10661 17443
10662 10853
10662 11569
10662 18644
10663 13059
10663 15167
10663 19631
10664 18261
10664 18631
10665 11513
10665 19611
10667 19231
10667 20914
10669 11063
10669 24159
10670 17405
10670 20999
10671 11758
10671 16331
10671 16943
10671 17380
10671 19152
10671 21161
10672 12511
10672 21267
10672 22173
10673 10986
10673 14052
10673 17072
10673 20873
10673 23605
10674 19427
10675 12854
10675 16756
10675 23008
10675 23152
10676 16631
10677 14921
10678 10968
10678 11949
10678 12632
10678 13061
10678 16858
10678 17900
10678 20601
10678 22894
10679 17394
10679 22986
10679 23666
10680 15869
10680 16130
10680 17539
10680 22462
10680 23316
10681 14063
10681 14645
10681 17344
10682 11114
10682 11575
10682 21630
10682 23277
10683 12141
10683 17887
10683 21288
10684 11280
10684 11608
10684 12389
10684 15288
10685 16358
10685 22914
10686 15351
10686 19371
10688 17305
10688 18782
10689 14482
10689 17974
10689 19912
10689 20103
10690 11372
10690 17071
10690 18854
10690 19843
10691 16771
10691 19015
10692 12079
10692 19381
10692 21437
10693 11256
10693 14783
10693 17935
10694 13111
10694 21614
10695 15110
10696 13163
10696 17730
10696 18452
10696 18509
10696 19249
10696 19421
10696 19450
10696 21742
10698 12985
10698 15406
10698 19560
10698 21626
10699 12164
10699 13658
10699 22181
10699 22915
10700 10701
10700 16863
10700 20020
10700 20866
10701 20019
10702 19434
10703 14606
10703 15031
10703 19537
10703 19554
10703 20971
10703 22936
10704 10845
10704 16734
10705 15995
10705 16700
10706 11194
10707 14573
10707 22193
10708 15705
10709 17418
10710 18692
10711 21596
10711 22474
10712 13155
10712 14729
10712 21975
10712 22636
10713 12943
10713 14168
10713 17183
10714 11081
10714 11796
10715 11081
10715 11797
10716 15072
10716 20115
10716 22630
10717 16769
10717 17669
10717 17846
10717 20282
10718 15889
10718 16695
10718 16696
10718 23047
10719 15550
10719 21931
10720 20146
10720 23094
10720 23697
10720 23895
10721 20219
10722 12912
10722 15590
10722 15691
10723 13298
10723 16538
10724 14423
10724 18028
10725 11251
10725 17868
10725 21953
10726 22622
10727 19370
10727 20866
10728 19625
10728 22678
10729 14909
10729 18095
10729 18272
10729 19385
10730 13985
10730 14138
10730 23264
10731 23067
10732 13522
10732 17347
10732 20927
10734 19670
10734 22820
10735 13629
10736 13060
10736 15287
10736 15935
10736 18172
10736 19302
10737 12049
10737 12193
10737 12209
10737 12354
10737 12414
10737 13070
10737 19577
10737 20728
10738 11242
10739 23132
10740 11980
10740 12940
10740 14232
10740 14279
10740 15006
10740 15978
10740 23919
10740 23920
10740 24154
10740 24400
10740 24435
10741 19439
10742 17898
10742 21868
10743 15458
10744 23395
10744 23727
10744 24075
10744 24224
10745 13602
10745 19436
10745 20502
10746 10853
10746 18644
10748 13112
10748 21043
10749 12258
10749 16939
10749 18957
10750 13209
10750 16343
10750 22938
10750 23524
10751 11079
10751 11354
10751 12138
10751 12682
10751 14750
10751 15335
10751 19746
10751 20777
10751 20839
10751 20911
10751 21930
10752 10787
10752 11939
10752 16563
10752 23054
10753 13115
10753 19285
10754 16076
10754 16300
10755 18846
10755 19973
10756 14440
10756 17881
10757 12044
10758 22904
10759 19442
10759 23059
10760 10794
10760 15519
10760 16164
10760 16418
10760 16654
10760 19541
10761 11662
10761 12486
10761 12965
10761 16412
10761 16702
10761 16801
10761 17545
10761 18388
10761 19372
10761 21422
10761 22276
10761 23062
10762 12568
10762 13164
10762 16948
10762 17248
10762 20110
10764 16227
10764 18886
10765 12629
10766 12337
10766 20898
10768 14672
10768 21800
10768 22521
10768 22607
10769 21151
10770 18103
10771 10819
10771 15086
10773 11717
10773 15630
10774 14582
10774 15271
10774 15968
10774 22565
10775 15727
10776 16856
10779 13590
10779 15589
10779 17661
10779 18982
10779 19465
10780 11131
10780 19225
10780 22749
10780 22891
10781 18940
10781 19026
10781 19633
10782 14901
10782 16649
10782 17546
10782 17681
10782 19425
10782 19736
10783 15972
10783 23813
10784 19234
10785 24280
10785 24282
10786 14247
10786 14519
10787 11830
10787 11939
10787 14315
10787 16563
10787 23054
10788 10853
10788 18644
10788 20660
10789 13532
10790 20835
10791 11362
10791 23778
10792 11926
10792 23734
10793 23575
10793 23926
10793 24151
10795 11621
10795 13933
10795 23344
10796 11206
10796 14261
10796 14293
10796 14414
10796 14585
10796 15613
10797 15667
10797 17339
10797 18708
10797 19087
10797 20252
10797 23023
10798 14637
10800 12542
10800 20133
10800 23021
10801 13799
10801 16017
10801 19756
10801 20066
10802 18717
10802 22469
10803 14336
10803 14498
10803 16647
10803 18761
10804 11238
10804 12358
10804 12360
10805 11250
10805 13677
10805 13696
10805 15090
10805 15386
10805 17345
10805 17385
10805 18795
10805 20921
10806 11713
10806 13008
10806 13609
10806 15596
10806 16621
10806 18882
10807 12699
10808 20100
10808 22392
10808 24061
10809 13455
10809 19418
10809 21811
10810 10995
10811 14804
10812 11895
10812 17816
10812 19831
10813 13870
10813 17992
10814 17279
10815 10955
10815 13665
10815 18236
10816 11414
10816 13143
10816 18098
10817 12343
10817 16987
10817 17374
10817 18386
10817 19774
10817 20000
10817 20117
10818 12047
10818 15201
10819 15086
10819 20239
10820 14104
10821 18364
10821 18909
10821 20540
10822 13870
10822 16927
10822 17992
10823 12632
10823 16493
10823 16608
10823 17233
10823 20506
10823 21150
10823 22921
10823 23466
10824 12735
10824 12897
10825 10879
10825 11173
10827 22002
10828 16753
10828 18647
10828 19046
10829 17546
10829 17681
10829 19736
10830 17504
10830 18627
10830 22461
10831 11313
10831 17847
10831 22822
10832 21019
10833 14833
10833 15350
10834 21283
10835 13181
10835 14657
10835 17871
10836 17712
10836 18035
10836 22338
10837 15868
10837 18193
10837 19151
10837 20341
10838 11379
10838 11486
10838 17935
10838 18034
10838 18314
10839 23957
10840 19223
10842 13750
10842 19032
10842 19143
10842 20902
10843 13125
10843 13413
10843 17699
10843 19766
10843 23270
10844 20092
10844 21603
10844 22033
10844 22035
10844 22279
10845 16004
10845 18585
10845 22363
10846 11936
10846 14797
10846 18078
10847 10984
10847 11980
10847 24481
10848 15445
10848 16478
10848 19022
10848 21685
10849 19109
10849 21334
10849 22352
10850 22349
10851 12019
10851 18717
10852 16007
10853 11765
10853 12186
10853 12885
10853 12906
10853 13858
10853 14226
10853 15520
10853 15693
10853 16778
10853 17879
10853 18056
10853 18644
10853 19895
10853 20621
10853 20660
10853 20746
10853 20805
10853 21876
10853 23751
10854 16608
10854 20771
10854 22894
10855 12225
10855 13312
10855 19060
10855 20904
10856 18998
10856 19318
10857 11117
10857 14037
10857 18488
10858 17505
10858 22170
10858 22350
10859 15123
10861 13908
10861 15506
10861 19820
10861 22895
10863 11843
10863 11844
10863 13386
10863 19070
10863 23716
10864 11109
10864 22898
10864 24117
10864 24465
10864 24476
10865 12607
10865 12610
10865 18294
10866 12650
10866 12662
10866 19375
10866 23689
10866 23921
10866 24204
10867 11550
10867 12245
10867 24204
10868 13539
10868 13808
10868 17788
10868 21757
10868 23763
10869 18791
10870 20087
10871 18525
10872 12646
10872 20010
10872 24129
10872 24458
10873 13884
10874 11448
10874 17558
10875 11488
10876 14059
10876 15761
10876 16596
10876 16627
10876 18638
10876 20517
10876 21766
10877 14633
10877 18196
10878 14048
10878 18992
10879 11173
10879 21813
10880 11069
10880 11780
10880 22602
10881 11456
10881 12499
10881 16782
10881 19181
10881 19441
10881 19981
10882 19685
10882 21111
10883 11649
10883 14851
10883 19427
10883 21792
10886 20474
10887 11689
10887 13995
10887 20073
10888 16173
10889 14997
10889 20625
10889 21529
10890 19170
10891 12256
10891 13918
10891 21849
10892 14897
10892 15885
10892 16712
10893 11185
10893 11741
10893 11779
10893 12683
10893 12696
10893 12797
10893 13221
10893 13566
10893 14115
10893 14312
10893 14319
10893 14598
10893 14838
10893 14839
10893 15186
10893 15332
10893 15721
10893 15875
10893 15962
10893 16553
10893 17135
10893 17321
10893 17571
10893 17601
10893 19008
10893 19573
10893 19948
10893 20061
10893 20107
10893 20184
10893 20582
10893 20863
10893 21028
10893 21390
10893 22287
10893 22327
10893 22549
10894 21222
10894 21413
10894 21911
10895 14089
10895 17042
10895 17703
10895 18543
10895 20419
10895 20985
10895 22193
10896 21614
10897 19041
10897 20645
10898 12926
10898 15599
10899 20636
10899 22525
10901 14732
10901 16877
10901 19079
10902 12115
10903 15323
10903 16373
10903 17343
10904 14191
10904 23397
10905 10908
10905 23901
10905 24234
10906 11162
10906 24320
10907 12036
10907 16451
10907 23850
10909 19330
10911 19822
10912 19441
10913 13055
10913 14969
10913 17719
10914 13441
10914 13545
10914 15089
10914 15228
10914 15842
10914 16136
10914 16680
10914 17272
10914 17488
10914 21333
10914 21770
10914 23101
10915 14877
10917 12112
10917 22400
10918 22962
10919 13253
10919 19737
10919 21016
10920 17784
10920 23098
10921 13317
10921 22268
10922 19641
10923 12348
10923 21764
10923 22592
10924 11550
10924 23921
10924 24204
10925 18412
10926 13727
10926 20181
10926 21383
10927 18852
10927 20281
10927 23326
10928 16552
10928 16967
10928 23459
10929 11412
10929 12999
10929 16316
10930 12000
10930 12898
10930 17274
10930 17786
10930 18754
10930 19310
10930 22218
10930 23163
10931 21186
10932 13306
10932 14112
10932 15149
10932 16881
10932 18894
10932 19814
10932 19815
10933 17743
10934 14279
10934 23312
10934 23919
10934 24400
10935 13660
10935 19454
10935 20862
10935 22432
10936 12546
10936 16173
10936 19749
10937 15184
10937 17340
10938 11230
10938 11665
10938 24130
10940 14688
10940 15679
10941 21527
10941 22708
10942 13284
10942 21334
10942 22352
10942 22657
10943 15581
10944 16086
10944 19835
10945 13854
10946 12786
10947 12944
10947 17551
10947 20585
10948 12494
10948 12596
10948 23507
10949 13278
10949 16557
10950 18028
10951 19574
10951 20424
10951 22529
10952 12071
10952 18213
10952 20446
10953 15350
10953 15752
10953 20617
10955 13665
10955 17259
10955 18236
10956 11827
10956 14484
10956 23046
10957 19178
10957 23236
10958 13652
10958 16027
10958 17764
10958 19097
10959 20861
10960 13081
10960 16853
10961 21222
10961 21911
10961 22529
10963 16611
10963 18612
10963 22171
10964 11842
10965 14933
10965 16193
10965 21654
10966 14272
10967 16166
10967 20306
10968 12632
10970 13449
10970 17969
10970 20670
10971 18846
10972 17903
10972 18708
10972 19087
10972 20252
10973 14653
10974 13982
10974 14982
10974 16054
10974 17297
10974 18031
10974 20510
10975 14609
10975 22036
10976 21170
10977 22848
10979 16681
10979 21403
10980 12423
10981 18190
10981 18687
10982 11057
10982 12252
10983 21191
10983 23755
10984 11980
10984 23809
10985 11556
10985 14987
10985 15224
10985 17215
10985 20826
10986 12864
10987 13227
10987 18740
10987 19723
10988 23909
10988 23912
10989 11347
10989 13645
10989 14646
10989 20236
10990 21812
10990 21969
10991 12260
10991 18798
10991 19386
10992 18568
10992 20370
10992 23047
10993 13507
10993 13939
10993 22680
10994 17077
10994 17669
10995 11892
10995 12782
10995 17842
10995 19710
10995 23109
10995 24353
10996 14694
10996 18453
10997 11141
10997 11718
10997 16990
10997 22626
10998 14135
10998 15435
10998 21505
10999 11816
10999 17380
11000 11513
11000 21009
11000 22913
11001 17334
11001 19213
11001 20210
11001 21069
11002 11970
11002 12674
11002 14717
11002 18316
11002 19456
11002 23196
11002 23266
11002 23699
11002 24290
11004 17289
11004 23159
11005 20587
11005 20834
11005 24057
11005 24443
11006 14122
11006 20639
11006 21013
11006 21446
11006 22928
11007 11861
11008 17996
11008 20771
11009 15688
11009 17165
11009 22179
11010 11760
11010 11941
11010 12135
11011 14128
11011 22112
11012 15178
11012 17808
11012 19065
11012 24071
11013 19150
11014 11959
11014 12501
11014 13107
11014 15094
11014 15216
11014 18319
11014 18933
11014 21259
11014 23122
11015 15849
11015 18626
11015 19806
11015 19807
11015 23199
11016 16903
11016 23910
11017 15344
11017 20742
11017 21618
11017 21741
11018 15178
11018 23874
11019 19957
11019 23662
11020 13572
11020 14145
11020 18003
11020 18426
11020 20393
11021 11022
11021 15442
11021 20289
11022 14145
11023 23979
11023 24164
11024 12434
11024 19259
11024 19878
11026 12185
11026 22732
11027 13133
11027 13449
11027 13630
11027 15163
11027 22533
11028 19675
11028 23909
11028 23912
11028 24070
11028 24477
11029 21854
11029 23508
11030 13111
11030 21614
11031 13952
11031 18769
11031 22967
11031 23443
11032 21614
11033 11678
11033 23193
11034 12095
11034 18846
11036 13152
11036 22520
11037 11104
11037 24357
11038 15929
11038 23435
11039 22357
11040 12303
11040 18900
11041 13427
11042 15391
11043 15391
11044 22324
11045 17847
11045 20492
11047 13456
11047 15987
11047 17050
11047 18346
11047 20885
11047 23263
11048 16109
11048 16178
11048 17046
11049 18826
11050 18782
11052 18692
11052 21254
11053 11054
11053 15847
11053 17772
11053 18655
11053 23099
11053 23151
11053 23668
11053 23925
11054 18655
11054 18684
11054 22773
11054 23151
11054 23668
11055 12160
11055 13692
11055 16871
11056 12047
11056 12393
11056 14348
11056 15201
11056 16356
11056 16913
11056 16925
11056 19397
11057 12291
11057 16603
11057 23660
11057 24225
11058 14069
11058 18815
11058 18845
11058 20260
11059 12667
11059 15665
11059 18669
11061 17963
11061 19631
11061 20244
11061 20703
11061 22634
11061 23020
11062 20480
11063 17931
11063 20017
11063 21063
11063 23325
11064 11425
11064 13573
11064 16254
11065 12326
11065 17097
11065 17180
11066 16076
11066 16300
11067 21186
11067 22972
11068 14135
11068 20164
11069 11780
11069 14489
11071 18189
11072 12218
11072 12594
11072 16054
11072 19106
11073 11870
11073 15615
11073 20906
11073 21673
11074 11517
11074 11519
11074 15285
11075 11868
11075 13122
11076 14902
11076 14903
11076 20517
11076 21676
11077 11634
11077 14075
11077 19717
11077 23242
11078 11739
11079 12138
11079 22341
11080 19227
11080 20679
11081 11796
11081 11797
11083 15009
11084 12328
11084 13644
11084 16994
11084 18552
11084 18830
11084 21420
11085 15155
11085 19891
11085 22154
11086 14875
11086 21644
11087 12259
11087 19040
11087 20866
11088 22885
11089 12591
11089 14592
11090 15318
11091 15865
11091 16565
11092 23704
11093 13666
11093 18350
11093 19319
11094 14450
11094 15400
11094 16243
11094 19318
11095 17411
11095 20144
11096 12019
11096 18717
11096 22469
11097 12926
11097 14464
11097 17117
11099 12010
11099 24202
11099 24340
11099 24341
11100 11946
11100 13242
11100 22979
11101 14973
11101 16231
11101 23138
11102 11670
11102 18555
11102 18852
11103 15658
11103 21140
11104 24207
11104 24208
11104 24263
11104 24373
11105 15127
11106 18901
11107 12435
11107 15805
11107 16967
11107 21398
11108 12249
11108 14742
11108 16663
11108 20471
11108 21132
11110 13334
11110 15107
11110 20652
11111 14558
11111 21786
11111 22153
11112 14300
11112 22629
11113 22166
11114 14027
11114 14614
11114 15015
11114 18131
11114 22067
11114 23277
11114 23301
11116 12710
11116 15471
11116 22059
11116 23628
11117 20482
11118 12620
11118 23011
11119 22902
11119 24414
11120 11948
11120 12285
11120 13043
11120 14094
11120 15082
11120 15174
11120 17397
11120 20547
11120 21735
11120 23083
11122 12250
11122 20386
11123 12588
11124 14416
11124 19540
11125 23201
11126 24158
11126 24176
11127 21139
11128 17309
11129 13678
11129 18021
11129 18178
11129 21387
11129 21515
11130 11870
11130 12050
11130 15044
11130 15400
11131 12600
11131 15492
11131 22850
11131 23148
11132 11160
11132 15793
11132 19586
11133 16315
11133 17418
11133 19439
11133 21197
11134 11388
11134 12515
11134 13325
11134 14849
11134 20736
11134 20828
11134 22441
11134 23479
11134 23854
11134 23856
11134 23954
11134 23991
11134 24107
11134 24424
11134 24426
11135 23720
11135 23922
11136 20616
11136 21001
11137 14081
11137 22492
11138 21256
11138 23352
11139 12533
11139 16076
11139 17127
11139 17324
11139 20168
11139 20418
11139 20431
11140 13580
11141 16990
11141 19606
11141 20966
11141 22626
11142 18689
11143 23835
11143 24375
11144 15086
11145 15374
11145 16979
11145 21062
11145 22034
11146 14609
11146 15418
11146 22036
11147 14072
11147 17772
11147 18897
11147 22773
11147 23905
11148 15151
11148 22025
11150 12029
11151 18779
11152 11537
11152 13092
11152 21376
11152 21553
11153 19784
11154 16269
11154 18083
11154 19782
11155 16434
11155 20900
11155 23800
11155 24007
11155 24100
11157 11716
11157 13509
11157 14318
11157 23126
11159 17818
11159 21714
11160 14236
11161 16210
11161 16820
11161 17033
11162 24465
11163 23307
11164 11523
11164 17911
11164 20503
11165 13019
11165 15534
11165 17412
11165 22831
11165 23192
11166 18406
11167 17865
11167 21435
11168 16097
11168 20134
11168 22173
11170 21909
11172 13019
11172 14245
11174 15182
11174 21698
11175 11793
11175 12181
11175 12741
11175 18538
11175 18820
11175 18827
11175 21936
11176 11793
11176 11794
11176 12181
11176 12741
11176 15396
11176 18820
11176 18827
11176 19807
11177 14057
11178 16300
11179 20442
11179 24176
11179 24200
11179 24225
11180 11696
11180 12822
11180 22433
11180 23589
11181 20342
11182 21531
11183 12313
11183 12340
11183 14846
11183 14976
11183 19006
11183 19331
11183 20333
11183 21035
11184 23661
11184 23816
11185 22287
11185 23552
11186 18302
11187 16650
11187 23358
11188 11889
11188 13761
11188 15526
11188 18891
11189 11234
11189 13707
11189 14117
11189 21321
11189 22991
11190 14450
11190 22039
11190 22471
11191 18653
11192 17646
11193 13795
11194 22283
11195 17220
11196 11214
11196 12620
11196 23011
11197 15432
11197 17043
11197 19534
11197 22580
11198 14832
11198 15122
11198 17461
11198 17462
11198 17660
11199 14469
11200 20179
11201 11510
11201 19244
11201 20629
11202 22212
11203 13389
11203 14054
11204 16174
11204 21554
11205 12247
11205 23952
11205 24344
11206 17077
11206 18468
11207 11482
11208 12790
11208 19640
11209 16183
11209 17115
11209 18813
11209 19066
11209 21419
11211 12313
11211 15959
11211 19006
11211 20333
11211 20550
11211 21035
11213 11699
11213 12742
11213 16328
11213 16394
11213 17616
11213 21966
11214 11861
11214 12620
11214 12774
11214 13361
11214 13367
11214 13704
11214 14391
11214 14562
11214 15293
11214 15779
11214 18753
11214 20730
11214 24455
11215 11999
11216 18900
11216 22709
11217 20016
11218 16669
11218 21508
11218 21721
11218 22499
11219 13626
11219 17337
11220 13019
11220 14245
11220 20995
11222 12978
11222 12979
11222 14681
11223 12150
11223 17009
11224 18494
11225 13431
11225 15207
11225 18967
11226 13267
11226 22963
11227 16381
11227 18193
11227 19191
11228 14494
11228 15093
11229 13765
11229 15340
11229 19621
11229 22307
11231 12127
11233 16159
11233 23402
11234 13707
11235 16022
11235 24035
11235 24190
11235 24231
11238 12358
11238 12360
11238 22126
11238 22774
11239 19747
11239 21710
11240 21029
11241 16631
11241 21318
11241 23488
11242 15443
11242 22202
11243 14170
11245 11389
11245 17037
11246 13314
11246 16960
11246 17821
11246 19045
11247 14185
11247 20093
11248 11455
11248 20209
11248 21415
11249 12488
11249 16334
11250 12056
11250 13696
11250 17345
11251 12005
11251 12344
11251 17306
11251 18800
11251 21953
11252 15052
11252 22820
11253 11575
11253 23961
11254 16317
11255 12389
11255 16479
11255 17555
11255 17768
11255 20979
11255 23175
11256 14783
11256 17935
11257 13921
11257 19691
11257 20732
11258 12591
11258 22904
11259 11513
11259 14933
11259 22913
11261 14773
11261 21145
11263 18900
11265 11370
11265 14036
11265 23423
11266 13986
11266 14523
11266 16663
11267 13150
11267 13965
11267 16936
11268 11270
11268 11283
11268 16577
11268 20984
11269 11270
11269 11279
11269 11282
11269 11284
11269 11286
11269 11287
11269 16059
11269 16577
11269 20993
11270 11271
11270 11272
11270 11281
11270 11282
11270 11284
11270 11285
11270 11287
11270 14042
11270 16036
11270 16037
11270 16042
11270 16050
11270 16058
11270 16059
11270 16065
11270 16577
11270 17350
11270 18007
11270 20984
11270 22837
11271 11272
11271 11282
11272 11274
11272 11283
11273 11274
11273 11279
11273 11283
11273 11284
11273 11286
11273 11287
11273 11288
11273 16035
11273 16038
11273 16048
11273 16059
11274 11275
11274 11276
11274 16033
11274 16039
11274 16043
11274 16046
11274 16049
11274 16057
11274 16060
11274 16061
11275 11277
11275 16057
11275 16062
11276 16048
11276 16057
11276 16060
11277 16060
11277 16061
11277 16065
11278 11279
11278 11286
11278 14041
11278 16058
11278 20993
11279 11286
11279 14041
11279 20993
11280 11966
11281 11284
11282 11284
11282 22837
11283 11288
11284 11287
11285 11287
11285 16038
11285 16039
11285 16040
11285 16050
11285 20993
11286 11287
11286 14041
11286 20993
11287 16038
11288 16058
11288 22837
11289 18168
11290 11429
11290 12552
11290 21168
11291 12863
11291 23262
11292 16369
11292 23765
11292 24298
11292 24374
11293 23196
11293 23699
11294 23108
11294 24161
11294 24298
11295 14032
11295 16191
11295 16735
11295 20465
11295 21465
11296 24161
11296 24475
11297 11452
11297 14007
11297 24187
11298 17305
11298 18782
11299 13419
11299 15145
11299 17773
11299 19381
11300 12300
11300 17017
11300 19283
11301 13458
11302 14116
11302 15468
11302 18325
11302 18993
11302 23712
11303 12377
11303 13730
11303 14745
11303 15001
11303 15313
11303 15728
11303 17346
11303 18270
11303 18833
11303 20121
11303 21490
11303 22710
11303 23663
11304 15478
11304 15479
11304 15480
11304 19958
11305 17681
11306 11986
11307 19059
11307 21759
11307 22306
11308 13584
11308 20010
11308 23782
11308 24046
11308 24256
11309 16317
11310 16722
11312 12571
11312 17830
11313 15812
11313 22822
11314 23631
11314 24007
11314 24100
11315 15521
11315 18093
11315 23942
11317 14475
11317 14999
11317 22913
11318 20122
11319 22764
11320 11878
11320 14818
11320 15169
11320 22762
11321 20359
11322 23679
11323 11324
11323 11325
11323 23856
11323 23991
11324 11325
11324 23856
11325 24241
11326 15393
11326 15410
11327 19824
11328 15828
11329 12987
11329 20135
11329 21482
11329 22922
11331 19823
11331 20261
11332 23150
11333 20445
11333 24131
11333 24215
11334 12410
11334 17221
11334 24491
11335 12833
11335 18367
11335 22566
11336 16122
11336 17920
11336 18946
11337 11754
11337 14985
11338 23820
11340 21558
11340 22672
11342 12470
11342 13429
11342 17810
11343 11974
11343 19841
11343 20312
11344 12353
11345 15127
11345 17098
11345 17252
11345 18068
11346 14984
11346 18793
11346 19452
11347 11559
11347 13645
11347 14646
11347 18303
11347 19155
11347 20236
11347 22343
11347 22390
11348 15257
11348 15876
11348 21906
11348 22553
11348 23434
11349 23099
11349 23966
11349 23968
11350 13076
11350 14183
11351 17005
11351 18247
11351 19447
11351 22755
11352 14747
11352 16223
11353 19371
11354 14750
11356 12483
11356 15097
11356 17113
11357 12747
11357 13647
11357 13968
11357 14891
11357 15887
11357 16387
11357 18286
11357 18375
11357 18928
11357 18998
11357 20606
11357 22084
11358 16346
11358 21120
11359 13496
11359 15255
11359 17019
11359 18973
11359 19220
11359 21257
11359 21660
11360 15344
11360 20742
11360 21618
11361 12052
11361 22058
11362 12475
11362 13101
11362 13586
11362 23640
11362 23709
11362 23907
11363 12192
11364 14716
11364 15035
11365 18598
11366 13050
11367 19050
11367 21340
11369 22024
11371 12279
11371 12470
11371 14741
11371 22511
11372 17071
11372 18298
11373 13819
11373 14262
11373 21987
11375 12153
11375 14811
11375 18397
11375 20841
11375 22613
11375 22622
11376 23369
11376 24479
11377 15256
11377 17240
11377 18243
11378 14518
11378 22770
11379 13789
11380 11437
11380 18354
11380 22752
11381 13189
11381 15604
11381 20896
11382 12032
11382 12199
11382 12877
11382 13434
11382 17377
11382 18033
11382 18792
11382 19348
11382 20353
11382 21959
11382 22312
11382 23218
11383 23780
11384 19935
11384 20306
11385 21499
11386 18054
11386 22044
11387 14559
11388 20392
11388 23857
11389 15021
11389 17037
11390 12924
11390 17048
11390 18262
11391 16546
11392 11922
11392 19095
11392 20588
11393 17908
11395 12029
11396 15584
11396 17909
11396 17976
11396 20247
11398 11918
11398 18378
11398 20998
11399 17978
11399 19828
11400 16469
11401 18225
11401 18226
11401 21115
11402 18224
11402 18225
11402 18226
11403 11986
11403 15734
11403 16421
11403 17124
11404 16851
11405 21671
11406 15032
11406 20165
11407 21381
11408 16152
11408 16153
11408 16204
11408 16205
11408 17444
11408 17446
11409 16140
11409 16152
11410 23515
11410 23827
11411 20137
11411 20882
11411 22993
11412 12999
11412 16316
11413 12531
11414 13143
11414 18098
11415 13671
11415 22611
11416 12537
11416 17422
11416 18416
11417 14582
11417 15271
11417 15968
11417 17721
11418 12675
11418 23882
11418 23937
11418 24080
11418 24296
11419 16747
11419 19503
11420 18289
11420 19382
11421 11422
11421 12544
11421 15960
11422 12544
11422 15960
11422 17873
11422 19054
11423 16647
11423 18761
11423 23454
11424 13291
11424 20101
11425 13576
11425 13739
11425 14600
11425 15041
11425 16254
11425 19763
11425 22956
11426 14298
11426 19258
11426 22510
11427 13778
11427 15713
11427 17656
11429 12552
11430 21614
11430 22445
11431 22668
11431 22843
11432 23618
11432 23811
11432 23989
11433 17243
11433 22821
11434 12665
11434 23920
11435 18363
11435 21039
11436 22697
11437 21700
11437 22752
11439 11565
11439 14100
11440 18372
11440 22428
11441 19160
11441 22829
11442 20514
11442 22554
11442 23693
11443 21711
11444 14666
11444 16250
11444 16918
11444 23128
11444 23251
11444 23719
11444 23999
11444 24467
11445 17006
11446 22498
11446 23127
11446 23747
11446 24436
11447 12991
11447 14556
11447 18860
11447 20940
11448 17558
11448 20749
11448 23439
11449 12071
11449 20446
11450 17347
11450 18168
11451 18384
11451 21462
11452 12551
11452 23938
11453 23075
11454 14500
11454 21607
11456 11966
11456 12499
11456 16595
11456 17292
11456 18970
11456 19181
11458 23811
11458 23839
11459 16368
11459 17366
11459 18586
11459 20363
11460 18286
11461 11968
11461 15064
11461 15522
11461 16589
11461 19867
11462 13162
11462 18843
11462 22816
11463 12556
11463 18565
11463 21609
11463 22196
11464 14933
11464 19988
11464 22913
11466 11877
11467 18168
11467 20383
11467 21306
11467 23098
11468 12746
11468 18088
11469 13803
11469 19406
11469 19999
11470 11766
11470 23776
11470 23792
11470 23992
11471 24067
11471 24291
11471 24321
11472 13080
11472 17007
11473 16469
11474 12316
11474 14887
11476 12819
11477 18445
11477 23854
11477 24345
11478 22138
11480 17305
11481 17182
11481 20679
11482 20397
11483 19298
11484 14823
11484 15626
11484 19366
11485 16996
11485 17236
11485 20301
11486 18034
11487 24161
11488 11798
11490 13830
11490 18766
11490 23105
11491 11492
11491 14325
11491 14326
11491 14327
11491 16668
11491 19730
11491 19861
11491 23377
11492 13682
11492 14323
11492 14966
11492 16667
11492 16839
11492 19861
11493 12848
11493 13320
11495 19608
11496 19608
11497 20341
11498 12637
11498 13559
11498 23810
11498 24331
11499 12717
11499 15226
11499 15417
11499 16778
11499 17879
11499 18056
11499 19048
11499 20660
11499 20759
11499 21876
11499 22446
11500 12332
11500 18664
11500 23286
11501 24012
11501 24225
11502 11503
11502 11505
11502 19262
11502 19264
11502 21533
11503 21533
11504 18584
11504 20715
11504 23245
11507 20856
11507 21667
11507 22875
11508 24168
11509 24412
11510 12749
11510 22396
11510 23869
11511 13275
11511 16019
11511 19993
11511 20122
11511 22720
11512 19566
11512 23189
11513 13002
11513 14045
11513 14371
11513 14933
11513 14944
11513 15463
11513 15518
11513 16151
11513 17367
11513 17666
11513 18102
11513 18453
11513 18643
11513 18726
11513 18870
11513 18944
11513 19611
11513 19906
11513 20563
11513 21098
11513 21323
11513 21790
11513 22040
11513 22449
11513 22913
11514 12450
11514 13240
11514 13695
11514 14835
11514 15074
11514 16409
11514 16960
11514 17392
11514 19894
11514 20224
11514 20327
11514 20496
11514 21590
11514 21957
11514 22149
11514 22940
11515 11516
11515 11517
11515 11518
11515 11519
11515 20239
11516 15086
11516 19812
11516 20602
11516 20763
11517 11518
11517 15285
11517 20763
11518 11519
11518 15086
11518 20763
11519 14211
11519 15086
11519 15285
11519 17400
11519 22431
11521 13723
11521 16380
11521 16754
11522 12834
11522 19665
11522 22305
11523 11935
11523 12519
11523 14603
11523 15676
11523 19128
11523 20503
11523 21512
11523 21669
11523 23592
11524 11525
11525 11526
11525 11527
11525 23332
11526 11527
11527 23332
11528 12054
11528 12858
11528 14471
11528 17245
11528 19248
11528 21769
11528 23310
11529 13910
11529 14732
11529 16877
11529 19079
11530 13623
11530 14584
11530 15017
11530 17191
11530 18628
11530 20545
11530 22998
11530 23295
11531 16276
11532 14570
11532 16628
11532 18902
11532 21283
11533 20870
11533 23638
11533 24164
11534 17447
11534 18632
11535 12239
11535 23995
11536 13870
11537 13408
11538 12296
11538 23805
11538 24318
11539 16420
11539 24215
11540 13443
11540 17541
11540 17626
11540 20578
11541 24479
11542 22536
11542 23897
11542 23913
11542 24062
11543 15315
11544 19987
11545 18984
11545 19711
11545 21220
11545 23482
11546 12621
11546 14510
11547 14933
11547 22913
11548 14643
11548 20095
11548 21315
11549 12678
11549 22758
11549 22962
11550 12245
11550 23732
11550 23885
11550 23921
11550 24197
11551 15977
11551 17833
11551 18752
11552 14118
11552 15981
11552 22240
11553 17863
11553 20909
11555 16653
11555 17502
11555 17605
11555 23207
11556 14987
11556 19698
11557 12891
11557 19318
11557 19918
11558 12520
11558 14619
11558 18116
11559 18303
11559 21871
11559 22343
11560 14422
11560 17749
11561 22788
11562 19332
11562 21702
11563 23752
11563 24123
11564 16977
11565 12687
11565 21117
11565 23970
11566 13166
11567 19308
11568 19997
11569 12885
11569 12906
11569 13858
11569 20621
11569 20660
11570 20738
11571 21614
11572 11573
11572 11574
11572 15025
11573 11574
11573 15025
11574 11632
11574 20118
11574 21103
11574 21104
11575 14027
11575 17952
11575 22508
11575 23301
11575 23842
11575 23992
11576 15930
11576 20831
11577 12828
11577 14951
11578 16684
11579 15802
11580 13823
11580 15670
11580 15795
11580 19636
11580 22625
11581 14444
11581 16690
11581 16694
11582 14442
11582 14444
11582 14445
11582 14449
11582 15888
11582 16686
11582 16689
11582 16690
11582 16691
11582 16693
11582 16694
11582 17330
11583 11707
11583 11760
11583 12473
11583 13399
11585 15530
11585 20275
11585 21235
11586 16441
11586 18954
11587 17227
11587 17612
11587 20081
11587 21616
11588 12517
11588 17908
11588 22155
11589 17765
11589 18846
11590 18148
11590 19620
11591 12238
11591 13721
11592 18285
11592 19921
11593 23896
11593 24117
11593 24379
11594 21029
11595 12714
11595 20999
11597 18061
11598 16858
11598 20771
11598 22240
11598 22894
11600 16248
11600 18540
11600 24306
11601 21614
11601 21635
11602 14647
11602 14988
11602 20102
11602 21293
11602 22317
11602 22524
11603 11922
11603 13794
11603 15191
11603 19095
11603 19523
11604 12569
11604 18704
11605 23329
11606 13335
11606 17987
11606 18676
11607 22688
11607 24123
11607 24180
11608 19325
11609 13673
11609 17628
11609 21167
11610 12847
11610 13526
11610 14052
11610 14411
11610 14812
11610 15840
11610 16267
11610 18719
11610 19752
11610 19882
11610 19939
11610 20655
11610 21614
11610 22445
11610 23250
11611 17415
11611 19147
11611 22941
11612 23899
11612 24067
11613 16876
11613 19978
11614 11806
11614 17866
11614 19932
11614 21410
11614 22692
11615 13980
11615 15252
11615 22110
11616 16314
11616 20162
11617 19184
11617 20724
11618 13055
11618 14969
11618 15465
11618 17719
11618 20169
11618 23551
11619 11930
11619 13210
11619 13636
11619 14488
11619 14940
11619 15126
11619 15923
11619 16176
11619 16212
11619 18145
11619 18680
11619 18936
11620 15350
11620 18962
11621 13368
11621 14577
11621 18631
11621 23344
11622 13208
11622 22861
11624 11867
11624 17051
11624 20812
11624 22171
11625 12015
11627 13227
11627 15540
11627 19144
11627 21963
11628 12826
11628 15996
11629 19885
11631 15761
11631 16809
11631 17020
11631 19196
11634 12964
11634 13365
11634 22176
11634 23387
11636 15784
11636 18399
11636 18494
11636 19464
11636 22911
11637 13392
11637 17753
11637 18662
11638 12214
11638 14352
11638 15408
11638 19987
11638 21467
11639 13412
11639 16402
11640 14668
11640 22644
11641 24009
11641 24158
11642 14130
11643 23750
11644 13024
11645 15400
11645 16243
11645 19318
11646 23661
11647 24067
11647 24129
11647 24458
11648 12775
11648 14209
11648 15527
11648 16261
11648 18260
11648 18584
11648 19294
11648 20940
11648 21522
11648 21836
11648 22674
11648 23137
11649 15664
11649 18249
11649 21792
11650 16076
11651 20435
11651 23929
11651 24190
11652 13904
11652 17553
11652 17744
11652 18631
11652 21803
11653 17305
11653 17992
11654 15650
11655 12512
11655 22543
11656 16422
11656 20689
11657 13514
11658 17459
11658 23306
11659 16831
11660 13199
11660 23186
11662 19372
11663 23155
11664 23203
11664 24154
11666 15991
11667 24284
11667 24365
11668 15126
11668 15648
11669 20558
11670 12503
11670 15308
11670 16705
11670 17333
11670 18555
11670 21628
11670 23826
11671 21518
11672 14702
11673 12551
11673 24134
11673 24278
11674 13484
11675 13604
11675 14301
11675 19855
11676 15796
11676 20246
11676 22933
11678 17490
11679 24429
11682 18467
11683 19051
11683 22391
11684 11812
11684 12415
11684 13053
11684 13550
11684 17749
11684 18698
11684 19892
11685 16974
11685 17210
11685 17673
11685 18271
11687 11911
11687 15151
11687 22025
11688 11867
11688 17051
11688 20812
11689 20073
11689 24414
11690 11876
11690 12513
11690 14343
11690 16548
11690 16550
11690 18463
11690 22670
11691 17225
11691 19506
11693 16539
11694 15820
11696 22433
11696 23589
11697 12863
11697 13699
11697 14191
11698 13736
11698 14748
11698 22581
11698 23709
11698 23779
11698 23907
11699 12742
11699 14663
11699 16328
11699 16394
11699 18710
11699 21966
11700 23893
11701 12714
11701 13954
11702 13903
11702 22776
11703 12935
11703 19241
11704 13160
11704 14253
11704 15746
11704 17017
11704 21260
11704 22330
11706 12834
11706 19665
11707 12473
11708 13670
11708 22064
11709 15470
11709 19674
11710 19423
11711 12716
11711 17215
11711 21027
11712 20043
11712 20179
11713 13609
11713 15596
11713 16291
11713 16621
11714 14514
11714 14934
11714 15743
11714 22021
11715 14908
11716 13509
11717 14265
11718 16990
11718 22626
11719 16153
11719 17444
11720 12838
11721 23534
11722 20747
11723 12831
11723 21780
11723 22996
11725 13715
11725 21556
11726 18166
11726 19923
11727 17992
11727 19318
11728 18732
11729 13813
11729 14943
11729 16172
11729 16359
11730 21029
11731 15977
11731 17833
11731 18752
11731 22519
11733 13055
11733 21441
11734 18364
11734 18909
11734 20540
11734 21449
11735 14417
11735 22514
11735 22574
11735 23481
11736 11852
11736 20646
11736 21214
11737 16680
11737 21556
11738 16144
11738 17665
11738 23709
11738 23907
11741 21711
11743 17024
11743 20612
11744 13944
11745 13759
11745 14710
11745 14712
11745 14713
11745 23684
11746 12557
11746 16670
11747 14132
11747 19995
11748 23962
11748 24366
11749 21551
11750 16786
11750 16787
11750 18333
11750 18497
11750 19490
11750 20702
11750 23227
11751 21518
11752 19685
11753 11756
11754 20501
11754 23742
11754 24069
11755 11756
11756 14985
11756 24342
11756 24440
11757 11838
11757 12828
11757 21519
11759 11853
11759 16834
11759 21787
11760 12135
11761 14990
11761 20721
11761 21430
11761 21509
11761 21776
11762 15287
11762 21820
11763 19497
11763 23541
11764 12474
11764 12894
11764 15819
11764 18207
11764 18275
11764 19278
11766 14404
11766 14435
11766 19916
11766 23792
11766 23944
11766 23992
11767 15351
11767 19371
11768 12907
11768 16748
11768 23035
11768 23098
11769 16447
11770 12544
11770 17873
11771 23881
11772 17467
11772 20988
11773 13042
11773 16852
11773 17384
11773 18359
11774 15103
11774 15625
11774 17576
11774 17621
11774 18148
11774 19620
11774 21110
11774 23461
11775 12872
11775 13554
11775 14848
11775 15708
11775 20483
11776 19037
11777 18727
11777 19775
11777 19972
11777 20732
11777 20817
11777 22391
11778 12708
11778 15615
11779 22287
11780 11890
11780 14986
11780 18370
11780 20231
11780 20955
11781 22022
11781 22706
11782 22048
11783 11786
11783 15246
11783 18764
11783 20764
11785 21284
11786 15246
11786 15409
11786 18764
11786 20764
11786 22007
11787 14865
11787 15203
11787 17102
11788 14653
11788 14791
11789 13066
11789 22697
11790 13315
11790 17549
11790 18688
11790 21696
11790 21965
11790 21989
11791 23675
11791 23718
11791 24092
11792 13299
11792 22738
11793 15849
11793 18827
11793 19807
11794 15396
11794 18084
11794 18827
11794 22823
11795 16672
11795 16771
11795 19015
11795 23243
11796 11797
11796 20218
11797 17404
11797 17926
11797 20217
11797 20708
11799 14173
11799 16506
11800 19642
11800 22488
11801 22856
11802 14894
11802 21592
11803 14765
11804 17777
11804 17786
11805 20591
11806 22692
11807 14594
11808 16639
11809 11814
11809 12901
11809 12902
11809 12903
11809 12905
11809 15026
11809 17516
11809 18536
11811 13221
11811 13529
11812 19206
11813 12901
11813 22860
11814 12901
11814 12902
11814 17516
11815 12579
11815 14630
11815 20416
11815 20778
11817 22716
11818 13773
11818 18283
11818 18299
11818 18771
11818 20215
11819 12914
11819 16304
11819 18961
11820 19284
11820 21157
11821 15446
11821 20922
11822 13935
11822 17568
11822 22322
11823 13511
11823 14103
11823 14790
11823 15984
11823 17134
11823 18437
11823 22925
11824 20653
11825 19323
11825 20167
11826 20321
11826 22182
11827 13321
11827 13912
11827 14484
11827 21445
11827 23046
11828 13913
11828 21817
11829 19233
11830 14315
11830 16563
11830 23054
11831 21666
11832 15480
11833 21556
11834 12591
11834 22904
11835 18998
11835 22005
11835 22116
11837 16624
11837 16768
11837 17447
11837 18632
11838 21519
11839 12349
11839 17826
11839 23983
11839 24170
11839 24246
11839 24314
11839 24441
11840 12985
11840 13178
11840 13349
11840 15406
11840 15905
11840 19560
11841 20498
11842 24015
11842 24425
11843 23716
11844 13386
11844 24329
11845 16547
11845 17920
11845 18946
11846 12401
11846 13420
11846 19360
11846 24054
11847 12897
11848 12985
11848 13349
11848 17934
11849 13054
11849 17864
11849 19757
11851 14047
11852 20843
11853 12045
11853 17512
11853 21787
11854 24408
11855 21378
11855 23222
11857 13870
11857 20107
11857 23200
11858 21113
11859 23312
11859 24246
11859 24256
11860 22613
11860 23169
11861 11905
11861 12620
11861 12633
11861 12781
11861 13530
11861 14308
11861 14760
11861 15933
11861 17687
11861 18507
11861 18560
11861 19802
11861 20487
11861 20567
11861 21004
11861 21593
11861 22129
11861 22280
11861 22370
11861 23322
11861 24455
11862 18092
11863 19382
11863 23401
11864 17041
11865 13655
11865 16606
11865 17130
11865 19683
11865 20391
11865 22430
11866 11921
11866 13166
11866 21760
11867 20812
11868 16117
11868 16340
11868 16721
11868 16998
11869 24042
11870 12318
11870 12766
11870 12879
11870 13670
11870 13732
11870 15277
11870 15400
11870 17203
11870 18729
11871 13156
11871 20309
11872 15976
11873 13989
11873 17077
11873 18164
11873 19584
11874 12288
11874 18062
11875 13911
11875 22933
11876 22670
11876 23228
11878 13423
11878 14818
11878 15169
11878 15906
11878 16582
11878 22762
11879 15059
11879 15982
11879 19886
11879 20717
11880 18722
11880 20513
11881 13492
11882 12817
11882 13676
11883 18281
11884 13260
11884 20866
11885 16268
11886 16937
11886 19937
11886 21997
11887 11888
11887 15970
11887 16217
11889 23378
11890 15660
11891 13951
11891 14000
11892 23195
11892 24353
11893 15718
11893 19109
11893 22352
11894 22918
11895 17816
11895 18847
11896 13055
11896 14969
11896 21441
11897 13296
11897 20503
11898 12917
11898 13021
11898 16352
11898 20128
11899 13021
11899 20128
11899 23372
11901 18202
11901 20634
11902 15183
11902 15938
11902 22379
11903 11904
11903 20146
11903 21048
11904 21133
11904 23094
11904 23697
11905 23322
11906 21108
11907 23871
11907 23977
11907 24398
11908 16588
11909 13267
11910 12548
11910 13654
11910 20409
11911 12628
11911 12891
11911 14627
11911 14673
11911 14757
11911 15211
11911 15336
11911 15760
11911 16552
11911 17241
11911 19318
11911 19682
11911 19684
11911 19918
11911 21746
11911 21840
11911 22025
11911 22651
11911 23438
11912 19552
11912 21289
11913 12423
11913 17354
11913 21064
11914 21595
11915 17305
11915 19923
11916 12495
11916 12671
11916 18589
11917 14102
11917 14524
11920 18844
11920 22701
11920 22757
11921 16848
11921 17026
11922 15191
11922 19523
11922 20588
11923 14952
11923 15931
11923 22864
11924 14341
11924 18898
11924 22254
11925 16698
11925 20144
11926 23734
11926 24458
11927 20568
11927 22053
11928 18481
11928 20616
11928 20663
11928 21001
11929 21740
11930 12120
11930 15648
11930 18316
11930 19456
11930 23213
11931 22517
11931 23803
11931 23927
11931 23956
11931 24065
11932 17749
11933 11989
11933 16503
11934 22904
11935 12350
11935 13282
11935 14141
11935 15611
11935 20503
11936 14797
11937 22389
11938 17671
11938 17672
11938 23649
11939 16563
11940 23856
11940 23857
11942 19793
11943 12022
11943 13267
11944 19241
11944 22264
11945 16824
11946 13242
11946 14286
11946 16571
11947 13959
11949 12561
11949 22894
11950 13383
11950 19124
11950 23464
11951 22283
11952 16007
11952 19348
11953 18977
11953 21213
11953 23940
11953 24060
11953 24354
11953 24422
11954 13453
11954 18631
11954 20304
11954 22365
11955 15238
11955 17560
11955 22555
11957 14808
11957 16600
11957 22577
11957 23497
11958 13390
11958 15063
11958 19394
11959 14967
11959 18933
11959 19526
11959 20525
11959 21259
11959 21693
11959 22612
11961 13970
11961 23098
11962 13078
11962 16581
11962 19293
11963 19171
11963 19173
11963 19174
11965 21498
11966 14313
11966 15288
11966 16568
11966 17292
11966 17381
11966 18018
11966 18055
11966 18635
11966 20883
11966 21247
11966 22211
11967 14234
11968 14975
11968 15522
11968 16589
11968 17334
11968 18153
11968 19183
11968 19867
11968 20001
11969 12115
11969 24444
11970 12674
11971 12489
11971 17020
11972 19196
11973 15070
11974 11975
11974 12265
11974 15638
11974 17929
11974 19841
11974 20312
11975 12265
11975 15235
11975 15237
11975 16169
11975 22377
11975 23018
11976 15305
11976 20783
11976 23055
11976 23415
11977 22810
11977 23129
11978 22753
11979 16679
11979 24303
11979 24484
11980 14279
11980 21532
11980 22197
11980 23119
11980 23406
11980 23421
11980 23656
11980 23809
11980 23855
11980 23920
11980 24093
11980 24481
11981 13314
11981 16960
11981 17821
11983 18114
11983 18551
11983 21501
11983 22188
11984 19782
11985 17783
11985 18987
11985 24441
11986 12039
11986 12306
11986 12504
11986 13255
11986 15734
11986 16421
11986 18253
11986 20080
11986 21055
11986 21092
11986 22286
11987 13178
11987 16800
11987 20734
11987 21517
11987 23398
11988 12121
11988 14715
11988 21077
11989 15303
11990 14004
11990 15057
11990 16910
11990 17012
11990 21772
11990 22457
11991 15390
11991 17841
11991 21252
11992 13108
11992 13446
11992 15130
11992 20814
11993 18443
11994 17447
11994 20125
11995 23786
11995 24346
11996 18739
11996 19574
11997 20550
11999 13981
11999 21955
12000 12898
12000 17274
12000 18754
12000 19310
12000 22218
12000 23163
12000 23215
12001 14192
12002 13961
12003 13520
12004 13961
12005 18800
12005 21953
12006 15554
12006 22209
12006 23511
12007 14382
12007 18614
12008 22613
12009 15312
12009 16323
12009 20171
12009 23727
12010 12011
12010 17907
12010 24201
12010 24202
12010 24340
12010 24341
12011 13521
12011 24201
12011 24202
12011 24340
12011 24341
12012 15604
12013 17034
12013 17650
12013 19367
12014 23188
12014 23311
12016 12017
12016 12018
12016 23904
12016 24185
12016 24194
12017 12018
12017 22794
12017 23904
12017 24118
12017 24185
12017 24193
12017 24194
12018 22794
12018 24118
12018 24120
12018 24185
12018 24192
12018 24193
12018 24194
12019 13213
12019 14176
12019 17420
12019 17598
12019 18717
12019 21218
12019 22469
12020 13459
12020 13520
12021 13050
12021 16450
12021 20078
12021 20577
12021 20818
12021 21409
12022 13267
12023 17711
12023 20148
12023 20815
12024 12833
12024 18367
12025 20571
12025 21949
12026 14222
12026 20056
12027 12152
12027 14611
12027 15385
12027 17519
12027 18206
12027 18916
12027 19781
12027 20292
12027 21291
12027 22252
12028 16364
12028 17752
12028 18910
12029 13834
12029 14592
12029 16564
12029 18715
12029 22973
12031 12132
12031 13126
12031 14693
12031 17720
12031 20155
12031 22560
12032 12199
12033 16531
12035 18222
12037 12429
12037 13058
12037 16978
12038 15297
12038 17204
12038 19227
12038 19845
12038 20790
12039 15734
12039 18253
12039 22286
12040 15991
12040 16307
12040 19545
12041 14204
12041 15477
12041 17743
12042 22443
12042 24213
12042 24225
12043 19135
12043 20109
12043 23928
12043 24001
12043 24022
12043 24350
12044 14048
12044 15951
12044 21235
12045 17512
12045 21787
12046 21181
12047 12393
12047 15118
12047 15201
12047 15602
12047 19397
12047 21599
12048 16557
12048 18824
12049 12354
12049 12414
12049 13070
12049 16142
12050 12318
12050 12766
12050 13505
12050 15615
12052 14841
12052 20077
12052 22107
12053 12242
12053 12691
12055 18475
12056 12731
12056 18222
12056 19575
12057 17433
12058 12595
12058 24476
12059 15240
12059 15269
12059 15615
12060 24079
12061 12689
12061 16002
12061 19161
12061 19851
12061 19976
12061 23259
12062 18728
12064 13010
12064 18430
12064 19554
12065 13054
12066 15283
12066 17289
12068 12071
12068 15281
12068 15283
12068 17289
12068 23159
12069 12071
12069 15283
12069 17288
12069 17289
12069 23159
12070 18568
12070 20370
12071 13769
12071 15281
12071 15283
12071 17288
12071 18213
12071 19871
12071 20446
12072 23546
12073 18572
12073 23546
12074 13962
12075 14726
12075 19180
12075 19370
12077 12078
12077 12725
12077 16839
12077 21302
12078 12725
12078 16839
12078 16841
12079 12297
12079 13348
12079 13419
12079 13978
12079 14366
12079 14972
12079 15145
12079 15355
12079 16349
12079 16797
12079 19381
12079 19750
12079 19938
12079 20063
12079 20187
12079 21437
12079 22550
12079 22932
12079 23239
12079 23586
12080 13708
12080 18142
12081 12773
12081 15510
12081 20476
12082 18185
12082 23896
12082 24148
12083 23896
12083 24028
12083 24148
12084 16518
12084 17305
12084 22497
12085 12986
12085 17759
12085 18133
12086 12977
12086 17538
12086 21370
12087 19382
12088 16341
12088 16733
12088 21385
12089 18848
12089 19670
12089 20609
12090 12303
12091 13980
12091 15577
12091 22110
12093 18379
12093 22943
12094 15196
12095 13971
12095 17765
12095 19973
12095 21187
12096 14587
12096 15797
12096 19658
12097 19258
12097 22206
12098 17692
12099 14274
12099 14723
12099 15494
12099 18659
12099 19432
12099 21301
12099 23194
12100 23023
12100 23060
12101 12870
12101 12931
12101 13494
12101 15758
12101 16028
12101 18223
12101 20111
12102 12620
12102 17096
12102 17986
12102 18127
12102 18631
12102 19081
12102 20718
12102 22656
12103 14219
12103 18338
12104 18732
12105 21138
12106 14914
12106 19327
12107 14280
12109 15275
12109 17182
12109 19654
12109 22582
12110 14716
12110 15035
12110 15689
12111 14585
12112 16965
12112 18701
12112 18818
12112 20149
12113 12596
12114 12260
12114 19386
12115 24313
12116 24349
12117 15637
12117 18474
12117 19587
12117 19850
12117 21909
12119 18387
12119 20165
12119 22559
12120 14623
12120 15268
12120 15436
12120 15648
12120 16068
12120 17642
12120 19280
12120 20491
12120 21325
12121 13258
12121 14220
12121 14715
12121 15049
12121 17219
12121 21077
12122 12124
12122 12125
12122 22250
12122 22871
12123 12124
12123 12125
12123 22250
12123 22871
12124 12125
12124 22249
12124 22250
12124 22871
12125 22249
12125 22250
12126 19797
12126 21004
12126 22796
12127 18858
12128 14201
12128 15485
12128 17208
12128 19166
12128 19964
12129 14616
12129 15023
12129 16716
12129 18229
12129 19780
12129 19919
12129 21068
12129 21571
12130 13892
12130 17261
12131 21331
12132 13126
12132 15325
12132 17720
12132 20155
12132 22314
12132 22518
12132 22560
12132 23572
12133 18821
12134 13111
12134 21505
12136 18044
12137 18632
12137 20973
12138 19470
12138 20230
12138 20777
12138 22341
12138 23181
12139 17248
12139 19821
12139 20269
12140 13696
12140 20921
12141 17887
12142 20517
12143 15351
12144 12595
12144 24220
12144 24488
12145 13701
12145 13816
12145 18413
12146 14213
12146 15806
12146 16204
12146 16205
12146 16206
12146 18557
12147 13227
12147 19997
12147 21199
12148 13232
12149 13643
12149 17935
12150 17009
12151 12355
12153 22613
12154 15734
12154 18253
12155 16614
12155 18442
12155 22844
12156 22904
12157 13227
12158 17929
12160 21918
12161 14192
12161 18475
12161 21295
12162 21818
12162 23914
12164 13658
12164 22181
12164 22915
12166 19503
12167 12168
12167 12169
12167 12170
12167 14862
12167 21844
12167 24104
12168 12173
12168 24104
12169 12170
12169 14843
12169 23985
12170 12171
12170 14843
12172 23851
12173 23985
12175 18652
12175 23721
12175 24034
12176 20524
12176 23770
12176 23972
12176 24273
12177 17218
12177 22517
12177 23770
12177 23803
12177 23986
12177 24273
12178 22053
12180 13964
12180 21586
12180 22440
12181 18084
12181 18827
12182 12219
12182 15093
12183 21556
12184 12816
12184 22097
12184 22914
12185 12882
12185 15182
12185 20035
12186 20746
12188 21509
12189 20615
12191 14774
12191 17545
12191 18874
12192 13271
12192 16124
12192 17123
12192 22323
12193 15201
12193 20728
12194 15963
12194 16873
12194 20329
12195 13956
12195 22164
12196 21855
12197 12667
12197 15665
12197 18669
12198 21025
12198 22193
12198 23098
12199 13094
12199 17377
12199 19773
12199 22470
12200 22407
12201 14879
12201 18129
12202 17295
12202 17823
12202 19542
12202 22215
12202 23970
12203 16131
12203 16645
12203 17106
12203 18109
12203 20509
12204 13745
12204 15112
12204 17607
12204 18929
12204 22131
12204 22458
12205 12639
12205 14945
12205 20034
12205 20762
12206 13076
12206 21903
12207 18548
12207 22852
12208 15451
12208 16675
12208 18666
12210 16300
12211 12620
12211 18973
12211 19081
12211 23164
12211 23490
12212 14534
12212 17278
12212 21023
12212 23614
12213 14778
12213 15141
12213 16632
12214 13182
12214 13490
12214 13988
12214 15241
12214 19416
12214 19987
12214 21467
12214 21845
12215 13963
12215 16170
12215 16396
12215 22011
12216 13515
12218 12594
12218 13300
12218 15039
12218 16054
12218 17063
12219 12981
12219 18304
12219 19946
12220 16746
12220 19386
12221 20554
12221 21558
12223 12410
12223 13412
12223 14399
12223 16402
12223 20560
12223 24491
12224 14805
12224 14811
12224 20841
12224 22613
12225 14101
12225 14875
12225 15098
12225 20615
12225 21644
12225 22115
12226 12326
12226 17207
12227 14810
12227 21816
12229 14302
12229 19226
12229 21788
12231 12232
12231 18722
12231 22905
12232 13115
12232 15468
12232 16314
12232 18722
12232 19285
12233 14464
12233 16375
12233 17117
12233 17205
12233 19741
12234 21614
12235 13788
12235 16429
12235 21824
12236 12713
12236 13894
12236 15484
12236 21059
12236 22738
12237 12848
12237 15166
12237 15414
12237 16460
12237 21042
12239 13403
12239 23726
12240 15773
12241 23792
12241 24397
12243 21309
12244 13188
12244 16351
12244 18191
12246 14498
12246 23454
12247 13020
12247 14666
12247 16096
12247 18408
12247 19754
12247 20898
12247 23128
12247 23251
12247 23618
12247 23719
12247 23822
12247 23859
12247 24190
12247 24344
12247 24434
12247 24467
12248 13026
12248 13027
12248 20395
12249 21132
12250 20386
12251 23209
12251 23305
12252 23750
12253 12740
12253 17248
12254 18818
12254 22400
12255 23995
12255 24488
12256 13918
12256 21849
12257 15151
12257 19318
12258 23810
12258 23877
12258 23911
12259 12757
12259 18355
12259 18356
12259 18357
12259 18358
12259 19040
12259 20355
12259 22075
12259 23498
12260 14830
12260 16602
12260 18798
12261 18782
12261 19923
12262 12352
12262 15481
12262 18843
12262 24468
12264 14408
12264 16810
12264 20969
12265 15235
12265 15237
12265 20312
12265 22377
12265 23018
12267 15223
12267 18994
12267 20124
12268 19604
12268 23982
12269 12512
12270 13559
12270 15741
12270 15848
12270 18799
12270 23872
12270 23970
12271 23816
12272 14361
12272 15014
12272 17047
12272 22548
12272 22971
12272 23428
12273 18791
12273 20546
12274 12394
12274 20477
12274 21691
12274 23426
12275 22597
12276 16537
12278 17933
12278 23342
12278 23705
12279 12470
12279 15066
12279 17796
12280 21407
12280 21681
12281 17863
12281 24414
12283 18593
12283 19553
12284 12451
12285 17397
12285 21735
12286 12897
12286 21240
12287 24227
12288 18062
12289 12290
12289 12291
12289 14700
12289 23420
12289 23660
12289 24084
12289 24225
12290 12291
12290 14700
12290 23708
12290 24196
12290 24225
12291 24225
12292 17431
12292 24176
12292 24225
12293 17305
12293 22856
12294 21437
12295 13019
12295 20995
12296 23357
12296 23805
12296 23952
12296 24318
12297 15145
12297 17773
12297 18210
12298 20205
12298 23542
12299 13581
12299 21112
12300 15298
12300 18040
12301 13001
12301 21316
12302 14142
12302 15001
12302 19195
12303 13223
12303 13402
12303 13548
12303 13618
12303 13712
12303 13720
12303 14406
12303 14573
12303 14638
12303 14669
12303 15290
12303 15545
12303 15992
12303 16362
12303 16521
12303 16643
12303 16906
12303 17143
12303 17144
12303 17537
12303 17658
12303 17745
12303 18010
12303 18579
12303 18832
12303 18900
12303 19550
12303 20064
12303 21065
12303 21230
12303 21692
12303 22615
12303 22714
12303 22868
12303 23028
12303 23692
12303 23831
12303 24018
12304 15672
12304 20989
12304 23589
12305 20462
12305 21673
12305 22381
12306 18253
12307 20154
12307 21170
12308 17970
12308 19204
12309 13387
12309 13519
12309 20950
12310 15452
12310 21496
12311 14038
12312 16502
12313 19006
12313 19331
12313 20333
12313 21035
12314 15311
12315 24037
12316 14887
12318 15400
12319 14836
12319 20096
12320 17071
12320 18298
12320 18854
12321 12793
12321 14767
12322 15351
12323 18183
12324 12365
12324 20258
12324 20593
12324 22336
12325 13412
12325 14526
12326 14330
12326 22997
12327 21402
12328 20379
12328 22799
12329 23724
12329 24009
12329 24030
12329 24158
12330 21144
12331 13585
12333 15177
12333 19601
12334 14846
12334 15197
12334 20520
12335 14111
12335 14190
12336 14570
12336 17000
12337 20898
12337 23472
12338 21133
12338 23932
12340 19331
12340 20333
12341 23661
12342 15350
12343 15878
12343 19774
12344 18800
12344 21953
12345 15178
12345 23874
12346 13870
12347 20594
12347 20852
12348 12984
12348 14480
12348 14529
12348 14608
12348 14794
12348 16564
12348 18715
12348 21884
12348 21973
12348 23269
12349 12567
12349 24019
12349 24081
12350 20503
12350 21512
12351 20823
12352 18843
12352 21396
12353 15420
12354 12414
12354 12688
12354 13070
12354 19577
12354 20332
12356 12747
12356 13647
12356 13968
12356 15887
12356 16387
12356 18286
12356 18928
12356 18998
12356 20606
12356 21873
12356 21932
12356 22060
12356 22084
12356 22177
12356 23100
12357 18192
12357 18901
12359 12839
12359 13786
12359 16150
12359 18887
12359 19929
12359 20829
12361 13495
12361 21586
12361 22440
12362 12980
12362 13120
12363 12978
12363 12979
12363 14681
12366 21572
12366 23142
12367 18900
12367 22709
12368 13788
12368 21824
12368 22359
12369 12914
12369 15598
12369 17762
12370 23568
12371 12639
12371 14945
12371 15413
12371 22704
12373 14877
12374 13532
12375 21257
12376 14814
12376 15771
12377 15313
12377 21921
12377 23663
12378 17483
12381 19562
12382 23784
12382 24135
12383 19319
12384 16331
12385 22265
12385 23323
12385 24168
12386 12457
12387 13918
12387 21849
12388 13144
12388 23723
12388 23789
12388 24063
12388 24369
12389 17928
12389 19325
12389 23175
12390 21214
12391 13433
12391 14456
12391 14874
12391 16832
12391 17789
12391 18398
12391 18418
12391 18781
12391 21866
12391 22012
12391 22818
12393 12976
12393 15201
12393 15602
12394 21885
12394 23426
12395 21535
12395 22965
12396 14380
12396 23041
12397 18357
12397 20355
12397 20554
12398 15326
12398 18355
12398 18357
12398 21502
12399 17626
12399 19772
12399 22398
12400 18851
12400 21104
12402 15605
12402 23217
12402 24407
12403 12543
12403 13768
12403 21707
12404 14004
12404 17202
12404 17491
12404 18124
12406 12994
12407 18228
12408 12717
12408 15417
12409 15933
12409 22769
12409 23322
12411 18012
12412 23009
12413 21413
12414 13070
12415 13053
12417 14324
12417 15392
12418 24263
12418 24373
12419 16280
12420 12765
12420 14148
12420 16350
12420 20253
12420 22256
12421 12707
12421 16653
12421 19888
12423 13662
12423 17354
12423 21064
12424 15724
12424 15739
12424 18337
12425 24085
12425 24226
12426 22106
12427 24085
12427 24226
12428 24226
12429 12753
12429 15058
12429 17865
12429 20099
12429 21018
12430 21373
12432 15366
12432 20660
12436 13809
12436 22760
12436 22763
12437 12439
12437 15377
12437 18341
12437 22880
12438 12439
12438 14138
12438 18341
12438 21729
12438 21730
12438 22765
12438 22880
12439 15377
12439 18341
12439 18343
12439 21125
12439 21729
12439 21730
12439 22760
12440 21785
12440 21890
12441 23757
12442 13388
12442 16008
12443 18782
12444 13104
12444 14574
12444 17004
12444 18785
12444 21595
12444 23040
12445 17992
12445 19318
12445 20107
12446 19245
12446 24260
12447 20308
12447 21704
12448 13412
12448 17221
12449 20566
12450 21402
12450 22940
12451 23150
12452 13029
12452 15129
12452 19189
12452 21124
12452 21520
12454 14993
12454 15124
12454 15896
12454 18758
12454 19548
12454 21743
12454 22094
12454 23545
12455 13310
12455 13581
12455 17320
12455 21112
12456 22985
12456 23361
12457 17260
12458 20445
12458 24131
12458 24215
12459 21030
12460 17903
12461 19709
12462 16182
12462 17527
12462 18616
12462 18955
12463 13339
12463 17752
12464 17752
12465 22775
12466 16466
12466 23784
12466 24285
12467 24174
12467 24188
12468 15576
12468 16824
12468 23326
12469 21903
12469 23534
12470 14741
12470 15066
12470 16001
12470 17647
12470 17796
12470 17810
12470 17918
12472 15002
12472 16178
12472 17046
12474 15498
12474 15819
12474 18275
12474 18526
12474 19278
12474 23661
12475 23640
12476 13103
12476 18017
12476 18780
12476 22701
12477 20721
12477 21430
12477 21509
12477 21776
12478 12479
12479 12480
12479 12916
12479 16762
12481 14222
12481 16761
12482 15650
12482 16586
12482 18433
12483 15097
12483 17113
12484 18369
12484 20573
12486 18388
12486 19252
12486 19372
12487 16402
12488 14592
12488 16334
12488 16465
12488 17677
12488 18942
12488 19218
12488 19236
12488 21043
12489 14676
12489 16809
12489 21682
12490 21629
12491 19505
12491 20771
12492 17369
12492 19323
12492 22230
12493 14698
12494 14513
12496 14740
12496 16177
12497 18519
12497 21978
12497 22141
12498 18543
12498 20985
12498 22193
12499 20108
12500 16076
12500 16300
12501 13362
12501 19800
12501 21259
12502 13302
12502 18415
12502 20539
12503 21484
12505 16288
12505 16648
12505 18812
12505 21054
12506 20635
12506 20997
12506 23568
12508 15350
12509 13900
12509 17119
12509 21482
12510 22010
12511 16097
12511 20134
12512 13670
12512 13732
12512 13793
12512 14703
12512 15654
12512 21056
12513 14343
12513 16550
12514 19223
12515 20392
12516 13496
12516 13782
12516 14670
12516 16198
12516 17500
12516 18258
12516 18512
12516 19338
12516 21257
12517 17908
12517 22155
12518 13035
12518 14143
12518 15016
12519 14141
12519 14307
12519 14603
12519 18392
12519 20503
12519 21512
12519 23592
12520 18116
12521 14229
12522 19452
12523 17183
12523 18886
12523 19290
12523 21942
12524 13991
12524 14996
12524 18478
12525 15153
12525 16215
12525 16498
12525 23679
12525 24258
12526 19229
12527 16262
12528 14978
12528 18333
12529 19361
12529 23369
12530 16573
12530 18320
12530 21917
12531 18371
12531 19199
12531 20566
12532 17416
12532 20349
12532 20802
12533 13477
12533 15932
12533 16076
12533 17086
12533 18089
12533 19624
12534 17198
12534 22980
12534 23180
12535 12536
12535 12539
12535 20903
12535 21951
12535 21952
12535 22700
12536 12539
12536 21952
12536 22700
12537 17422
12538 13314
12538 13695
12538 14835
12538 15074
12538 16409
12538 16513
12538 16960
12538 17821
12538 19894
12539 21950
12539 21951
12539 22700
12540 13803
12540 16854
12540 17261
12540 19406
12541 15807
12541 16714
12541 19965
12541 21453
12542 12958
12542 18972
12542 19058
12543 13768
12543 21605
12543 21707
12545 15702
12545 17972
12545 18828
12546 15172
12546 16173
12547 15563
12548 17305
12549 17338
12549 19970
12549 20216
12549 21281
12549 21423
12549 22782
12550 13697
12550 15784
12550 16757
12550 18399
12550 18494
12551 14007
12551 23348
12551 24278
12551 24413
12551 24486
12553 12892
12553 19415
12554 13071
12554 14302
12554 19226
12554 20058
12555 23138
12556 18565
12556 21609
12557 17691
12557 22476
12557 23124
12557 23627
12557 23983
12557 24390
12558 16402
12559 14479
12559 15802
12559 20151
12560 16079
12560 20178
12561 17900
12561 18864
12562 15347
12562 18014
12562 22984
12563 22841
12564 16159
12564 16947
12564 23402
12565 17174
12565 18231
12566 24040
12567 24086
12567 24105
12567 24299
12567 24411
12568 13078
12568 17248
12568 21889
12569 13554
12570 15874
12570 16234
12570 16738
12570 17683
12570 21367
12571 14091
12571 15814
12571 16132
12571 16301
12571 16865
12571 17612
12571 17830
12571 17994
12571 18856
12571 21569
12571 21915
12571 22140
12571 23191
12571 23442
12571 23602
12572 13870
12573 14504
12574 15686
12574 15766
12574 22873
12574 23601
12576 13480
12576 14272
12576 14351
12576 17556
12576 21468
12577 15246
12577 19428
12577 20683
12579 15588
12579 15614
12579 16646
12579 16661
12579 17871
12579 17878
12579 18306
12579 19347
12579 20416
12579 21485
12580 14373
12580 19842
12581 24051
12581 24052
12582 19043
12582 19712
12583 15282
12583 19809
12584 20096
12585 15207
12585 18967
12585 19286
12586 20039
12587 17783
12587 17819
12587 19669
12589 16355
12590 23912
12590 24078
12591 13884
12591 16465
12591 20105
12591 22904
12592 14016
12592 14616
12593 13608
12593 14086
12593 15067
12593 17170
12594 16054
12594 17063
12594 18147
12595 21759
12595 22306
12598 13853
12598 16682
12599 14695
12599 14929
12599 15912
12599 16202
12599 20085
12599 21196
12599 22169
12599 22923
12599 23287
12599 23414
12600 14599
12600 23148
12602 18286
12602 22116
12602 23100
12603 14178
12603 15754
12604 14990
12604 19077
12604 22206
12605 13296
12606 13643
12606 17935
12607 12611
12607 17129
12607 17139
12608 18232
12608 21426
12609 12988
12610 12611
12610 17129
12610 17139
12610 18295
12610 18296
12610 20821
12611 18295
12611 18296
12611 20821
12613 13202
12613 21099
12614 24124
12615 12649
12615 22201
12615 23870
12615 23923
12616 16593
12616 18310
12616 21137
12616 22935
12617 18834
12619 17305
12619 20107
12620 12774
12620 13361
12620 14391
12620 15779
12620 16078
12620 17173
12620 17687
12620 17986
12620 20487
12620 21418
12620 22129
12620 22656
12620 23011
12620 23490
12621 21639
12622 24152
12622 24428
12623 18635
12623 23355
12623 24140
12624 23709
12625 13540
12625 14156
12625 17785
12625 17992
12626 22532
12626 23460
12627 17285
12627 19198
12629 21555
12630 16499
12630 19129
12630 20299
12631 19378
12632 17900
12632 22894
12635 14705
12635 21158
12636 13915
12636 14016
12636 14892
12636 15023
12636 17169
12636 17771
12636 18240
12637 18799
12637 23247
12638 13295
12638 19600
12639 14133
12639 14544
12639 14945
12639 20034
12639 21625
12640 19953
12640 24436
12641 14102
12641 15292
12641 18888
12642 22139
12643 13076
12643 19289
12643 19502
12643 20529
12644 17260
12645 23548
12646 24083
12646 24228
12647 15087
12647 20763
12647 22431
12648 23910
12648 24010
12648 24287
12648 24398
12650 23921
12651 17666
12651 22913
12652 16010
12652 22797
12654 16713
12654 22685
12655 16232
12655 24441
12656 22153
12657 20319
12658 21881
12659 23625
12659 24345
12659 24367
12660 21162
12662 23921
12662 23974
12663 23042
12663 23879
12663 24106
12664 24336
12664 24382
12665 23646
12665 24074
12665 24154
12666 16427
12666 17510
12666 22624
12667 18669
12667 18779
12667 20015
12668 21359
12668 22631
12669 17096
12669 18287
12669 18631
12669 19564
12670 14558
12670 22153
12672 19445
12673 16383
12673 17070
12673 23103
12674 18316
12674 23196
12674 23213
12674 23419
12674 23699
12674 24290
12675 17702
12675 18074
12675 19167
12675 24352
12676 22948
12677 14591
12677 15958
12677 22329
12678 20628
12678 22758
12678 22945
12679 18674
12679 20404
12679 22551
12681 16807
12681 23427
12682 15740
12682 19470
12683 20107
12684 14376
12684 19209
12684 22585
12684 23387
12685 12842
12685 14596
12685 22329
12686 13260
12686 20866
12687 14100
12689 16002
12689 17773
12690 13166
12690 18781
12692 18702
12692 20680
12693 13131
12693 15337
12694 17968
12694 19121
12695 16438
12696 17305
12697 17815
12698 13532
12698 14178
12699 15014
12699 19333
12700 19147
12702 17650
12702 17697
12702 23475
12703 23775
12703 23910
12703 24287
12704 14933
12704 21927
12705 20358
12706 15151
12706 19318
12707 12856
12707 19136
12707 20372
12709 13294
12709 14215
12709 14669
12710 15471
12710 22059
12710 23628
12711 19225
12711 22891
12712 21428
12713 13299
12713 13894
12713 15484
12713 21059
12713 22738
12714 13954
12714 14956
12714 15941
12714 17378
12715 22499
12716 15513
12716 21782
12717 15417
12718 18846
12719 14787
12721 13434
12722 14025
12722 17561
12722 18193
12722 19151
12722 19345
12722 19980
12722 20139
12722 20846
12722 20965
12722 21084
12722 21205
12722 21513
12723 14706
12723 20459
12724 12725
12724 16839
12724 21302
12725 16839
12725 16841
12725 21302
12726 13201
12726 15503
12726 23004
12726 23452
12727 14896
12727 18869
12727 18967
12728 21403
12728 23133
12729 20035
12729 22732
12730 13603
12730 14953
12731 13594
12731 16560
12731 17345
12731 18245
12731 20710
12731 23616
12732 14280
12732 16529
12732 17185
12732 19733
12732 20196
12732 20433
12734 20025
12734 20028
12734 20029
12735 13113
12735 13712
12735 14653
12735 14845
12735 15361
12735 16227
12735 18090
12735 18188
12735 18749
12735 21136
12735 23028
12735 23692
12738 22701
12738 22757
12739 14173
12739 14960
12740 16981
12740 17248
12741 19807
12742 14853
12742 15511
12742 16328
12742 16394
12742 17616
12742 21966
12743 17752
12743 18910
12744 13454
12744 17919
12744 18174
12744 20761
12745 16831
12746 16931
12746 17085
12746 23508
12747 18375
12747 18998
12748 23135
12748 23694
12748 24006
12748 24275
12749 19244
12749 20629
12749 22396
12749 22766
12750 17326
12750 17373
12750 17482
12750 18500
12750 21072
12750 22655
12751 13207
12751 15360
12752 14806
12753 13058
12753 20099
12753 21435
12754 13549
12754 13907
12755 17579
12755 18595
12755 19859
12755 20267
12755 21182
12755 21283
12755 21550
12756 20622
12757 14344
12757 20866
12758 14875
12758 20615
12759 18136
12759 19809
12759 20481
12760 17598
12760 18717
12760 19426
12760 23210
12761 19632
12761 20771
12762 13146
12762 13575
12762 22172
12763 19630
12764 18142
12764 22079
12764 22101
12765 16350
12765 23255
12766 15400
12766 20785
12767 18423
12768 15033
12768 19084
12768 22868
12769 23401
12770 15202
12770 18220
12772 23476
12772 23853
12773 15341
12774 13530
12774 22129
12776 13949
12776 14328
12776 14701
12776 15132
12776 15615
12776 17706
12776 18523
12776 19371
12776 20156
12776 20610
12776 21237
12776 22199
12776 22281
12776 23768
12777 17041
12779 22917
12779 23585
12779 23839
12780 14687
12780 17712
12780 22981
12781 13669
12781 21113
12783 15215
12783 15877
12783 17411
12784 13033
12784 24162
12785 17213
12785 19428
12786 17625
12786 19811
12786 21886
12788 15643
12788 16988
12789 13546
12789 17167
12791 18126
12791 18405
12792 13181
12793 14767
12794 17718
12794 19716
12794 19956
12794 22760
12795 12796
12795 16197
12795 17327
12796 16197
12796 19716
12796 22760
12797 14115
12797 14312
12797 19573
12797 22116
12798 12945
12798 13683
12798 13791
12798 16539
12798 22275
12801 12937
12801 13482
12801 14043
12801 14813
12801 16025
12801 16195
12801 19813
12801 20946
12801 21127
12801 22026
12801 23206
12802 15192
12802 18140
12803 23529
12803 24326
12804 15178
12804 24071
12805 14877
12805 19061
12806 19580
12806 22834
12807 16703
12807 16935
12808 18900
12809 17257
12810 14363
12811 21487
12811 22948
12812 13745
12812 15112
12812 22131
12813 14558
12813 16501
12814 19487
12815 13055
12815 20905
12815 21441
12816 16625
12816 22097
12818 14275
12818 22283
12819 14392
12819 16344
12819 16407
12819 20268
12819 20945
12819 21223
12819 21834
12819 22388
12820 18077
12820 21116
12821 12981
12822 20624
12822 22433
12823 17848
12823 19747
12823 21710
12823 23519
12824 23274
12824 24326
12826 15996
12827 15439
12827 16751
12828 14951
12828 21519
12830 21499
12831 21780
12831 22079
12832 21614
12835 20613
12835 22960
12836 17988
12836 18986
12837 24225
12838 23576
12839 13786
12839 19929
12840 13604
12840 15704
12840 18631
12840 19855
12841 24262
12842 15958
12842 20891
12843 14109
12843 16327
12844 24014
12844 24221
12844 24468
12845 13702
12845 15310
12846 17738
12846 20784
12847 13460
12847 22445
12848 13320
12849 14251
12849 17825
12850 13784
12850 18653
12850 19138
12851 22384
12852 13827
12852 14737
12852 16995
12853 17020
12853 17212
12853 21682
12854 16756
12854 23007
12855 13603
12855 18938
12855 19761
12856 19136
12856 20035
12857 20633
12857 20634
12857 22378
12857 23528
12858 19248
12858 22573
12859 13082
12859 14128
12859 21652
12860 14317
12860 16485
12860 18469
12860 22552
12861 14247
12862 19314
12862 23028
12863 13699
12863 16924
12863 21369
12863 23567
12864 13057
12864 13864
12865 15651
12866 19413
12866 21804
12867 17643
12867 20204
12868 20713
12868 21556
12868 21614
12869 20315
12870 15758
12870 16028
12871 17018
12871 23304
12872 14848
12872 15708
12873 16350
12873 23255
12875 19665
12875 20662
12875 22305
12876 17080
12876 18328
12876 19086
12876 21456
12877 19348
12877 21959
12878 20197
12878 20748
12878 22455
12878 23096
12879 15440
12879 16163
12879 16192
12879 17701
12879 18939
12879 19186
12879 21429
12879 21736
12881 13795
12882 15182
12882 20694
12882 22135
12883 23912
12884 14278
12884 16268
12885 20746
12886 18205
12886 22632
12886 23347
12887 12994
12887 13664
12887 14446
12887 21149
12889 13313
12890 13885
12890 15587
12891 14627
12891 15760
12891 16179
12891 19318
12891 19682
12891 20387
12891 22025
12891 22507
12892 14165
12892 14287
12892 15238
12892 17792
12892 22865
12893 15064
12893 19411
12893 21372
12893 21827
12893 23611
12894 15819
12894 18275
12895 18954
12895 20473
12896 16000
12896 16742
12897 12938
12897 13551
12897 13607
12897 14152
12897 14155
12897 14334
12897 14959
12897 15361
12897 15608
12897 15668
12897 15705
12897 15818
12897 16337
12897 16446
12897 16467
12897 16770
12897 16945
12897 17231
12897 17410
12897 17885
12897 18305
12897 18919
12897 20671
12897 20968
12897 21065
12897 21136
12897 21226
12897 21240
12897 21546
12897 21568
12897 21611
12897 21680
12897 21732
12897 21823
12897 22083
12897 22351
12897 22547
12897 22716
12897 22885
12897 23208
12897 23836
12897 24077
12898 17274
12898 18754
12898 19310
12898 23215
12899 18554
12899 21452
12900 13665
12900 18924
12901 17917
12901 22860
12902 12905
12903 15026
12903 17516
12903 17917
12903 18536
12904 15425
12904 16544
12904 19072
12905 18536
12906 18644
12907 13675
12908 12910
12908 12911
12908 15249
12908 16297
12909 22365
12911 12995
12911 19040
12911 20554
12911 21502
12912 15659
12913 19096
12913 20771
12914 13382
12914 17762
12914 20484
12914 22406
12915 16129
12915 21995
12916 16762
12917 23372
12917 23378
12918 21570
12918 21697
12918 21781
12919 16963
12920 14475
12920 23121
12922 13405
12922 17698
12922 23404
12924 14413
12924 15803
12924 17048
12924 17540
12924 18262
12925 23563
12926 13489
12926 14464
12926 16375
12926 17117
12926 17361
12926 19741
12927 18214
12928 17918
12928 21181
12928 21392
12929 20597
12929 22115
12930 13435
12930 17584
12930 18001
12930 23214
12931 14364
12932 13207
12932 20719
12933 23509
12934 15785
12935 20145
12936 14619
12936 18116
12937 13482
12937 14813
12937 19813
12937 22026
12940 24225
12941 17015
12941 18606
12942 18723
12942 22906
12943 15397
12943 16227
12943 17858
12943 18886
12943 24453
12944 17710
12944 21793
12945 18569
12945 20434
12945 22275
12945 23525
12946 23652
12947 19705
12947 24221
12947 24222
12948 19934
12949 12950
12949 12951
12949 12953
12949 12955
12950 12951
12950 12953
12951 12952
12951 12953
12951 12955
12951 13578
12951 14381
12951 19472
12952 12953
12953 12955
12953 13579
12953 14303
12954 21245
12954 21683
12955 13578
12955 13579
12955 14381
12955 14983
12955 19472
12956 17545
12957 14375
12957 17678
12957 19955
12957 21074
12958 19058
12959 13122
12959 13157
12959 15004
12959 15247
12959 15472
12959 16448
12959 18149
12959 18443
12959 20705
12960 21261
12960 23680
12961 21261
12962 20304
12962 22365
12963 16054
12963 16115
12964 13365
12964 23387
12965 18388
12967 15350
12967 18962
12968 17650
12968 19367
12969 19043
12970 17734
12970 17736
12970 21496
12971 14291
12971 16372
12971 20882
12971 21399
12972 15549
12972 19075
12972 19572
12974 13837
12974 15076
12975 24007
12977 17538
12978 12979
12978 13120
12980 13120
12980 14681
12981 13145
12981 17045
12981 19199
12981 19825
12981 20737
12981 23431
12982 13247
12982 13836
12982 16680
12982 21556
12983 14229
12983 14377
12983 19598
12983 23284
12983 23303
12984 14324
12985 13349
12985 15905
12985 17934
12986 17538
12986 21370
12987 17119
12987 19822
12987 23344
12989 14217
12989 16618
12989 17836
12989 18013
12989 18163
12989 23052
12990 14551
12990 20866
12991 14556
12991 16138
12991 17832
12991 18860
12991 20940
12991 21327
12991 22270
12992 14737
12992 18204
12992 18841
12992 21460
12993 20427
12993 21726
12994 13664
12994 16355
12994 17122
12994 18730
12994 18954
12994 20974
12994 21149
12994 22100
12994 22344
12994 22955
12996 20427
12996 21726
12997 14622
12997 15539
12997 17708
12997 20164
12997 21970
12997 22974
12998 19912
12999 16316
12999 17332
12999 21170
13000 14484
13000 21445
13001 13378
13001 21316
13001 23547
13001 23898
13002 16930
13002 19988
13003 19069
13004 16026
13004 22907
13006 19228
13006 20718
13007 22848
13007 23350
13008 13609
13008 21763
13009 15716
13009 16278
13009 17438
13009 22385
13010 18430
13010 19193
13010 19554
13010 20104
13011 14509
13012 18286
13012 22116
13012 23100
13014 14099
13014 16543
13014 18051
13014 21674
13015 18479
13015 19678
13015 19679
13015 20530
13015 21045
13015 22038
13016 22200
13016 22226
13017 13166
13017 14874
13019 22831
13019 23192
13020 18461
13020 19754
13020 23472
13021 18002
13023 14446
13023 14491
13023 15916
13023 16855
13023 18404
13023 20283
13023 20472
13023 22334
13025 19482
13025 21478
13025 21582
13026 13027
13026 20395
13026 21977
13027 13923
13029 15129
13029 17800
13030 13481
13030 14935
13031 13621
13031 15139
13031 15772
13031 18640
13032 18373
13032 18374
13033 21133
13033 24442
13034 23813
13035 15016
13035 23403
13036 15337
13037 14626
13037 15575
13038 13883
13038 16993
13039 18393
13039 21798
13040 23375
13041 22849
13042 17384
13042 18359
13044 14102
13044 15292
13045 13562
13045 17781
13046 24428
13047 17590
13047 21593
13047 23030
13048 15232
13048 18993
13048 22333
13049 15997
13049 16631
13049 19186
13049 23644
13051 20439
13052 17457
13052 18227
13052 21073
13054 16534
13054 16788
13054 19462
13054 21382
13055 15064
13055 15465
13055 17719
13055 20169
13055 20905
13055 21349
13055 21889
13055 22319
13055 23480
13055 23551
13056 16994
13056 17511
13057 13623
13057 15017
13058 14144
13058 14744
13058 15058
13058 17865
13058 20381
13058 21271
13059 15167
13059 20447
13059 20703
13062 20354
13062 21335
13062 21610
13062 23477
13063 13090
13063 17609
13064 13065
13064 13751
13064 14520
13064 17452
13064 17453
13065 14520
13065 17452
13065 17454
13065 23527
13066 15473
13066 23304
13067 14005
13067 16820
13067 17033
13068 16260
13068 19569
13069 21856
13069 22702
13070 20728
13071 14302
13071 19226
13071 20058
13071 21788
13072 22429
13073 20004
13074 19171
13074 19173
13075 13221
13075 23405
13076 14183
13076 18146
13076 20192
13076 21903
13077 19676
13078 17248
13078 19293
13079 19328
13079 19445
13079 23170
13080 14992
13080 17007
13080 20038
13081 20013
13082 19343
13082 20229
13082 21652
13083 14273
13083 18323
13083 18519
13084 14616
13084 15023
13084 19780
13087 19479
13087 23242
13088 21473
13089 17225
13089 19506
13090 16788
13090 20552
13090 21893
13093 13672
13093 14324
13094 13865
13094 15929
13094 17377
13094 17939
13094 18250
13094 19255
13094 20186
13094 21312
13094 21480
13094 21613
13094 21835
13094 23577
13095 21397
13096 14800
13096 17163
13096 21497
13097 17708
13098 13680
13098 19428
13098 23201
13100 13320
13100 14189
13100 17180
13101 23709
13101 23779
13101 23907
13102 21666
13103 18017
13106 18476
13107 20525
13108 13446
13108 14651
13108 20814
13109 16441
13109 18954
13109 20473
13110 17393
13110 20394
13110 21560
13110 21561
13110 21562
13111 13752
13111 16888
13111 17955
13111 19785
13111 21425
13111 21505
13111 21614
13114 16508
13115 18709
13115 18722
13115 19285
13116 21783
13117 16221
13117 17180
13118 13681
13118 13815
13119 16572
13119 18096
13119 18248
13119 21364
13120 14681
13121 13208
13121 15755
13122 13157
13122 15004
13122 15247
13122 15458
13122 15472
13122 16340
13122 16998
13122 18149
13122 20598
13122 22138
13122 22434
13122 22468
13123 15350
13124 17369
13124 19323
13124 20167
13126 15325
13126 15915
13126 16377
13126 17720
13126 22314
13127 14876
13127 15865
13127 17978
13127 20986
13128 15128
13128 19486
13132 14524
13133 13630
13133 15163
13134 13921
13134 20717
13134 22391
13135 23321
13135 24144
13136 13931
13136 14747
13136 14913
13136 16012
13136 20420
13136 20937
13136 22482
13137 13246
13137 18043
13137 20664
13138 14535
13138 18410
13140 17712
13140 18735
13140 19681
13140 21653
13141 15047
13141 16759
13141 17215
13141 18189
13141 23430
13142 13727
13144 23723
13144 23789
13145 18371
13146 13575
13146 16900
13146 23608
13147 15971
13147 16789
13147 22998
13148 16406
13148 18757
13148 19407
13149 23738
13149 24284
13150 16591
13151 14359
13151 14560
13151 16959
13152 20763
13153 17910
13153 19321
13154 22520
13155 21975
13155 22636
13156 18368
13157 15421
13157 20705
13157 21114
13157 22103
13157 22138
13158 18913
13158 22335
13159 15737
13159 16424
13160 16285
13161 15795
13161 18831
13162 21396
13162 22816
13163 15046
13163 16604
13163 17730
13163 19421
13163 21742
13164 17248
13164 20110
13164 23157
13165 16506
13165 22695
13166 13433
13166 14256
13166 14456
13166 14874
13166 15404
13166 16709
13166 16832
13166 16848
13166 17026
13166 17789
13166 18291
13166 18365
13166 21159
13166 21866
13166 22012
13166 22413
13168 14877
13169 16774
13170 16531
13171 20939
13172 23731
13173 17353
13173 17860
13173 18943
13173 19927
13174 23940
13174 24060
13174 24422
13175 18768
13175 19154
13176 17651
13176 20002
13176 23212
13177 23969
13178 17934
13179 17363
13180 14593
13180 14730
13180 16629
13181 14806
13181 15109
13181 15359
13181 17844
13181 17871
13181 18930
13181 19036
13181 19273
13181 20278
13181 21316
13181 23537
13181 23603
13183 16107
13184 22819
13185 20572
13185 21074
13185 22102
13186 17605
13186 20179
13186 23691
13187 15538
13187 21894
13188 15245
13188 23006
13189 15536
13189 18282
13189 20896
13189 21860
13190 21614
13191 24429
13192 24169
13193 16774
13195 13196
13195 15071
13195 18537
13197 21556
13198 15306
13198 19210
13198 22904
13199 15633
13199 19327
13199 21870
13200 13975
13200 15351
13200 16729
13200 22612
13201 18115
13204 23720
13204 23979
13204 24164
13204 24427
13205 22390
13205 22488
13206 18968
13206 22819
13207 13487
13207 15360
13207 18868
13207 19398
13207 23518
13208 13953
13208 16086
13208 20090
13208 22861
13209 18359
13210 13636
13210 17642
13210 18680
13210 21189
13210 21325
13211 13547
13211 19153
13212 20999
13213 18041
13213 19426
13213 23210
13214 24186
13214 24268
13214 24322
13215 13608
13217 16994
13217 17511
13218 13531
13218 15662
13219 23724
13219 24158
13220 19531
13221 13753
13221 14194
13221 15599
13221 16161
13221 17256
13221 17293
13221 20568
13221 21711
13221 21908
13222 21505
13223 18900
13224 15607
13225 16983
13225 19104
13225 22552
13226 17034
13226 19367
13227 19997
13227 20804
13228 19576
13229 24321
13230 14363
13230 20640
13232 20303
13232 21987
13234 16836
13234 18822
13234 18823
13235 15302
13235 21008
13235 22095
13236 16239
13236 16630
13236 22371
13238 21881
13239 23203
13239 24093
13239 24154
13240 21137
13240 21402
13241 18695
13243 14773
13243 21145
13244 13870
13244 23200
13244 23492
13246 16126
13246 16743
13246 18043
13247 13545
13247 21770
13248 17411
13249 13323
13249 13557
13249 20866
13250 17173
13251 21015
13251 23153
13252 17162
13252 21881
13253 19737
13253 21016
13253 21702
13253 22792
13253 23088
13254 13524
13254 18737
13255 15734
13255 18253
13255 22286
13256 20617
13258 14715
13259 13557
13259 21319
13260 17154
13260 20866
13261 14828
13262 14403
13263 13304
13263 13979
13263 16742
13264 14011
13264 16230
13264 16491
13264 16826
13264 17697
13264 18518
13264 20398
13265 13485
13265 15185
13266 15217
13266 19947
13267 14250
13267 14991
13267 19267
13267 20336
13267 20644
13267 21531
13269 17077
13269 17669
13270 19110
13270 20000
13272 13689
13272 14451
13272 17545
13272 18874
13272 20263
13273 16792
13273 17039
13273 17874
13273 20347
13273 22057
13273 22741
13274 14844
13274 16006
13274 17440
13275 14059
13275 18985
13275 19956
13275 21701
13275 23530
13276 19635
13276 23590
13277 13619
13278 18607
13278 18822
13278 18824
13279 16427
13279 17510
13279 23288
13280 18846
13280 19973
13281 13577
13281 18105
13281 20067
13281 21347
13281 22505
13281 23204
13281 23340
13282 14141
13283 15908
13283 16353
13283 17267
13283 20344
13284 14804
13284 19382
13284 23155
13285 15348
13285 15801
13285 18288
13285 20437
13286 15547
13286 16248
13286 17266
13287 14396
13287 20306
13287 20533
13288 16350
13289 15131
13290 15735
13290 16275
13290 21731
13291 14363
13291 16764
13291 16914
13291 17528
13291 17687
13291 19113
13292 15980
13292 16295
13292 17181
13292 20047
13292 23647
13293 19343
13293 21984
13293 22715
13294 14215
13294 14669
13294 15453
13295 16030
13295 16755
13295 18100
13295 20247
13295 20574
13295 21181
13295 21678
13295 21872
13295 22495
13296 20503
13297 23362
13298 19582
13299 13894
13301 13874
13301 13877
13301 13878
13301 15833
13301 15834
13301 15836
13301 15837
13301 15838
13302 18415
13302 24392
13304 13947
13304 19833
13305 14449
13305 15886
13306 14112
13306 16881
13306 19815
13306 21888
13307 24073
13307 24409
13308 15991
13309 19973
13310 17320
13310 21112
13312 19060
13312 21644
13313 14882
13313 21789
13314 13984
13314 15074
13314 16960
13314 17392
13314 18448
13314 19016
13314 19045
13314 19068
13314 19603
13314 20023
13314 20119
13314 20224
13314 20327
13314 20496
13314 21590
13314 21957
13314 22149
13314 22255
13314 22940
13315 21989
13316 19506
13316 20937
13316 22482
13317 19504
13319 21614
13320 14624
13320 14949
13320 17180
13321 13354
13321 23046
13322 18705
13322 21832
13322 24284
13323 16862
13323 16863
13324 15930
13324 17747
13324 20831
13325 20392
13325 23857
13325 23954
13326 21138
13327 17783
13327 19669
13328 17447
13328 18632
13328 20973
13330 22298
13331 21614
13332 16852
13333 13747
13333 18967
13334 15107
13334 16976
13334 17552
13334 20652
13335 16697
13335 17987
13335 19689
13336 15944
13336 22796
13337 23742
13337 23794
13338 14958
13338 15416
13338 22219
13339 18597
13339 18598
13340 23938
13341 21029
13342 23409
13342 24154
13344 14821
13344 14964
13344 14965
13344 14981
13344 15104
13344 15509
13344 16157
13344 16437
13344 17187
13344 17188
13344 18264
13344 19455
13344 20573
13344 22813
13345 21318
13345 23488
13346 22904
13347 15751
13347 16397
13347 22124
13347 22770
13347 23198
13348 20063
13348 22290
13349 13930
13349 15406
13349 19560
13349 21626
13352 22334
13353 14073
13353 22773
13354 14295
13354 14484
13354 23046
13355 23962
13357 24400
13358 13979
13358 19833
13358 22679
13359 13570
13359 13962
13359 18130
13359 20533
13360 19673
13360 23240
13362 18933
13364 14720
13364 16154
13364 19369
13364 19927
13364 20384
13365 13468
13365 14075
13365 15714
13365 19717
13365 22061
13366 15084
13366 16289
13366 21658
13368 22667
13369 17847
13370 18058
13370 18846
13370 19973
13370 20566
13371 16403
13373 14154
13373 19257
13373 21154
13374 18867
13375 17770
13375 21603
13375 22033
13375 22035
13376 17776
13376 18788
13376 18892
13376 19804
13377 14665
13377 16080
13377 17687
13377 22004
13378 21316
13380 18962
13380 20617
13381 17723
13381 17857
13381 20288
13381 21087
13381 21321
13382 15598
13382 22406
13383 13430
13383 22803
13384 14952
13384 19830
13384 21897
13384 22864
13384 22876
13385 13434
13386 19070
13386 23716
13387 20642
13388 22679
13389 14054
13389 19584
13390 17089
13391 13780
13391 13977
13391 14955
13391 16814
13391 19664
13391 19786
13392 17364
13392 17753
13392 18662
13393 13954
13393 14956
13393 15941
13393 17378
13394 21169
13395 14324
13396 13909
13396 19110
13396 22288
13397 14244
13397 15040
13397 15356
13397 15400
13398 15924
13398 18937
13398 20163
13398 20933
13398 21066
13399 22696
13400 19784
13401 24135
13401 24285
13401 24436
13403 23995
13405 14826
13405 17698
13406 20107
13407 14877
13407 23369
13408 21553
13409 24009
13409 24030
13409 24086
13409 24158
13410 17029
13410 18857
13411 14619
13412 13518
13412 14526
13412 15541
13412 16525
13412 21887
13413 23270
13414 14351
13414 21468
13415 16722
13415 17358
13416 17420
13416 17598
13416 18041
13417 19997
13417 20463
13418 18001
13419 18490
13419 21437
13419 22290
13422 17067
13422 19569
13422 20836
13423 15906
13423 22762
13424 20144
13425 16201
13425 19876
13426 16327
13426 22227
13427 13596
13427 14541
13427 15181
13427 17184
13427 17638
13427 18561
13427 18733
13427 20744
13427 21106
13427 21232
13428 21200
13428 22374
13430 18829
13430 19943
13430 20412
13430 22803
13431 15207
13431 18869
13431 18967
13431 19286
13431 21718
13432 17031
13432 21031
13432 23220
13432 23458
13434 14082
13434 16752
13434 16928
13434 18110
13434 18792
13434 20353
13434 21959
13434 23218
13435 18001
13435 23214
13436 17785
13438 13439
13440 18467
13440 20998
13441 13776
13441 21770
13442 22455
13443 19772
13444 24051
13444 24053
13445 15672
13445 18169
13445 20989
13446 14651
13446 15130
13446 19067
13446 23512
13448 14010
13448 14316
13448 17195
13448 18197
13448 21019
13448 22099
13449 20422
13450 15419
13451 13570
13451 13962
13451 15720
13451 17464
13451 18932
13452 14759
13452 23188
13452 23311
13452 24349
13453 13553
13453 14078
13453 16214
13453 17820
13453 17949
13453 18631
13453 19001
13453 21029
13453 21491
13453 22292
13454 18174
13454 21631
13455 13684
13455 14024
13455 14533
13455 21086
13455 23339
13456 16379
13456 20331
13456 23276
13457 22774
13458 14471
13458 19248
13458 19281
13458 21779
13458 22132
13458 23310
13459 13635
13459 20260
13460 14071
13460 19982
13460 21614
13461 23912
13461 23961
13463 16631
13463 23488
13465 13474
13465 21560
13465 21563
13466 17091
13466 19274
13466 21375
13466 22076
13467 15868
13467 19191
13467 20341
13470 14230
13470 15161
13470 22188
13471 21152
13473 15630
13473 17813
13474 16956
13474 18026
13474 21560
13474 21563
13476 19158
13476 19877
13476 20175
13477 16076
13477 18089
13478 22365
13479 13509
13479 21401
13480 14272
13481 14935
13481 18337
13483 14556
13483 16138
13483 20940
13483 21327
13487 15360
13487 18868
13487 19168
13488 15786
13488 17935
13489 13850
13489 22478
13491 17117
13491 19741
13492 15662
13492 22988
13493 18721
13493 22365
13494 14364
13494 23369
13495 19115
13495 19502
13495 20529
13495 21805
13495 22440
13496 21660
13499 13643
13499 14783
13499 17935
13500 17893
13501 15689
13501 20657
13502 13774
13504 15595
13504 17291
13504 18631
13505 15044
13505 17676
13506 21614
13506 21635
13506 22315
13507 21274
13508 17649
13509 14318
13509 15339
13509 16224
13509 17359
13509 21401
13509 22027
13510 14481
13510 17999
13511 14103
13511 14790
13511 15984
13511 18437
13511 22925
13512 14346
13512 17182
13512 22148
13513 13970
13513 17984
13515 18066
13516 14251
13516 17351
13517 20771
13518 14526
13518 16402
13519 20642
13519 20840
13520 14069
13520 16186
13520 20260
13520 22120
13521 24202
13522 16306
13523 17054
13526 21593
13526 21614
13527 17305
13528 22764
13529 16161
13531 15662
13532 16082
13532 18460
13532 22393
13534 19673
13534 23240
13535 23223
13536 16403
13537 17849
13537 18238
13538 15124
13538 18758
13540 14156
13540 15439
13541 21152
13541 21719
13541 23531
13543 15447
13543 16482
13544 19371
13545 13836
13545 21770
13546 19024
13546 21030
13547 15774
13547 17702
13547 18074
13547 18842
13547 19153
13547 21637
13547 24352
13548 18900
13549 13907
13549 22175
13549 23292
13550 22678
13552 14782
13553 21029
13554 21021
13555 15532
13555 23016
13556 15818
13557 16863
13557 19499
13557 20866
13557 21319
13558 14568
13559 23247
13560 23446
13560 23958
13562 13696
13562 14020
13562 17781
13563 13619
13563 13722
13563 14397
13563 15433
13563 17061
13564 14628
13564 18366
13564 21040
13564 21466
13564 23499
13565 19314
13565 23028
13566 17305
13567 19218
13567 19236
13568 17641
13568 21163
13569 19632
13569 20771
13570 13962
13570 17464
13570 18130
13571 14288
13571 15114
13572 15800
13572 20289
13573 16254
13573 17362
13574 15609
13574 15757
13574 18380
13574 22571
13575 16900
13576 16254
13577 14303
13578 13579
13578 14381
13578 14983
13580 14768
13580 17779
13580 19485
13580 21542
13581 21112
13582 19361
13582 19676
13583 15151
13583 16179
13583 19159
13583 19318
13583 19682
13584 24048
13584 24256
13585 13792
13585 15413
13586 23640
13586 23779
13586 23907
13587 16523
13588 13639
13588 14566
13589 17864
13589 20996
13589 22983
13590 17661
13590 21006
13591 14874
13591 18781
13592 21879
13593 23399
13595 15448
13595 23258
13596 14541
13596 19460
13597 13632
13597 21672
13598 13798
13598 21359
13598 22631
13599 21719
13600 14300
13600 17425
13600 21469
13600 23160
13601 19064
13602 20502
13603 14358
13603 19761
13604 14301
13604 19855
13605 17421
13605 19612
13605 22212
13606 20985
13607 17025
13607 18567
13608 14086
13608 15067
13608 18803
13610 15974
13610 16933
13610 22473
13611 14486
13611 18900
13613 22269
13614 15351
13615 19263
13615 23061
13615 23090
13616 23061
13616 23090
13617 13740
13617 16907
13617 22235
13618 18900
13618 22053
13619 15231
13619 16335
13620 17363
13621 15139
13621 15772
13621 18640
13622 18689
13622 19224
13623 15017
13623 17191
13623 18161
13623 18234
13623 18628
13623 19879
13623 22527
13623 23295
13624 20887
13625 18921
13625 19373
13625 22191
13625 22409
13626 17337
13626 19376
13626 22586
13627 24337
13628 17944
13628 21162
13629 18285
13631 21798
13632 18649
13632 23375
13633 19858
13635 19222
13637 16639
13638 19737
13638 23683
13639 15187
13639 22721
13640 22716
13642 14768
13642 20318
13643 14886
13643 21853
13644 20379
13645 20236
13646 16592
13646 17320
13647 18286
13647 18375
13647 18998
13648 18740
13649 23266
13649 23699
13650 16932
13650 17619
13650 21328
13651 17305
13652 16027
13652 17764
13652 19097
13653 15429
13653 17637
13653 20678
13655 16606
13655 19683
13655 22430
13656 14537
13656 22842
13657 19447
13657 21964
13658 18850
13658 22915
13659 21527
13660 19454
13660 20862
13661 21275
13662 21064
13663 14177
13663 15307
13663 15328
13663 17709
13663 18602
13663 19198
13663 19476
13663 21504
13663 22294
13664 21149
13665 17259
13666 14002
13666 18350
13667 16007
13668 17428
13669 16940
13669 23433
13670 15504
13670 20243
13671 22611
13672 14324
13672 19655
13673 17628
13673 19467
13675 14363
13675 15991
13675 21552
13676 14125
13676 18731
13676 19063
13676 21917
13677 15090
13677 17385
13677 21686
13679 15417
13681 13815
13681 15349
13683 13791
13683 16539
13684 15142
13684 19052
13685 15437
13685 16876
13685 21666
13686 17334
13686 20916
13686 21069
13687 15253
13687 17054
13687 18804
13687 22357
13688 15807
13688 16714
13688 19965
13688 21453
13688 22486
13688 23012
13689 13822
13689 23071
13690 16644
13690 22389
13691 21614
13692 14819
13692 18574
13692 21918
13693 16308
13693 18233
13693 18984
13693 19711
13694 16845
13694 17215
13694 21198
13695 21402
13695 22940
13696 14020
13696 15386
13696 16116
13696 18245
13696 18711
13696 18904
13696 20921
13696 21233
13696 21686
13696 22516
13697 15152
13697 18494
13697 22911
13698 14495
13698 14644
13698 14936
13698 16536
13699 14191
13699 20522
13699 20720
13699 21369
13699 22627
13699 23397
13700 17076
13700 23765
13700 24298
13702 15310
13703 17669
13703 24000
13703 24184
13703 24437
13705 23891
13706 23891
13707 14117
13707 22991
13708 16472
13708 20879
13708 22096
13708 22101
13709 16893
13709 19972
13710 14457
13710 20179
13710 20193
13710 20926
13711 22795
13713 17401
13714 14285
13714 16389
13714 17767
13714 23366
13715 15707
13715 19637
13717 22597
13718 15265
13718 16414
13720 18900
13722 15231
13723 17646
13723 20547
13723 23083
13724 13726
13724 19720
13725 16439
13726 16439
13727 20181
13727 21383
13728 15952
13728 17984
13728 22193
13729 17334
13729 20210
13729 20916
13730 13998
13730 15001
13730 23663
13731 16118
13731 16210
13731 17347
13731 18645
13731 21993
13731 23475
13734 15315
13735 19988
13735 21009
13735 21614
13735 23121
13736 22581
13736 23709
13736 23779
13736 23907
13737 16103
13737 16111
13737 18775
13737 19963
13737 22225
13738 15471
13738 21068
13738 23628
13739 15041
13739 16651
13740 16907
13740 21173
13741 18075
13742 23924
13743 17411
13743 20144
13744 22450
13746 14423
13747 15411
13747 17368
13747 18967
13747 19286
13747 19640
13747 20132
13747 23755
13748 18324
13748 19561
13748 20120
13750 16617
13750 19143
13750 21186
13751 17452
13751 23278
13752 14579
13752 21505
13754 14549
13754 19404
13754 22637
13756 18114
13757 23098
13758 21297
13758 22234
13759 14711
13759 14712
13759 14713
13759 23291
13760 21269
13761 15525
13761 18891
13761 23486
13762 15526
13762 18891
13763 13764
13763 18059
13763 18060
13763 18486
13764 23224
13764 23226
13766 14135
13766 20164
13768 21707
13769 15281
13769 17288
13769 17289
13770 15281
13770 15283
13770 17288
13771 23969
13772 18508
13772 22350
13773 18299
13773 18771
13773 22622
13774 16166
13775 14716
13775 15035
13776 23081
13777 18332
13777 19198
13777 21556
13777 21640
13778 14193
13778 15713
13778 17059
13778 20782
13779 21072
13781 15897
13781 20967
13782 14670
13783 22392
13784 18978
13784 23567
13785 21039
13786 15063
13786 15675
13786 18063
13786 18807
13786 20470
13786 20908
13787 21865
13787 23254
13788 13797
13788 21824
13788 22359
13790 19131
13790 22286
13791 16539
13792 15413
13793 18075
13795 17646
13795 20792
13796 17262
13796 18846
13796 19973
13796 21594
13798 16607
13799 16017
13799 19756
13801 14314
13801 18864
13802 20572
13802 21074
13803 19999
13804 23955
13805 23802
13805 24279
13805 24332
13807 18671
13807 19975
13808 17788
13808 22835
13808 23763
13809 16197
13810 14226
13811 15033
13811 20925
13811 23028
13812 19824
13812 21129
13813 14943
13813 15723
13813 16359
13814 16896
13815 15349
13816 18413
13817 18846
13817 19973
13817 21655
13818 21029
13819 21342
13821 15363
13822 16492
13822 19445
13822 21298
13823 15670
13823 19636
13823 21427
13823 22645
13824 16456
13824 20325
13825 17162
13825 21881
13826 17788
13827 14083
13827 14784
13827 15209
13827 16995
13827 18204
13827 21574
13827 22912
13827 23599
13828 18006
13828 18821
13828 19811
13830 18766
13830 20223
13830 21002
13831 21614
13833 16546
13834 20179
13835 16953
13835 23621
13836 21770
13838 14009
13839 15416
13839 21724
13839 24415
13840 15607
13842 19297
13842 19326
13842 21448
13843 15609
13843 20884
13843 23746
13844 15208
13844 18382
13844 20941
13844 21412
13845 22757
13846 14769
13846 19179
13847 16650
13847 23358
13848 18800
13848 19819
13848 22342
13849 16767
13850 17117
13850 22478
13851 14270
13851 18820
13851 21819
13852 14833
13853 16682
13854 15080
13854 15831
13854 16011
13854 16270
13854 16401
13855 24282
13856 19318
13857 23318
13858 18644
13861 23912
13861 24078
13862 16223
13862 19506
13863 18613
13863 21169
13863 22833
13864 22801
13865 20186
13865 21835
13866 17506
13866 20401
13866 23103
13868 22049
13869 17996
13869 19505
13869 20771
13870 13899
13870 14140
13870 14910
13870 14918
13870 15205
13870 15499
13870 16233
13870 16330
13870 17138
13870 17163
13870 17742
13870 17769
13870 17967
13870 17992
13870 19083
13870 19253
13870 19315
13870 19320
13870 19336
13870 19387
13870 19726
13870 19986
13870 20443
13870 20508
13870 20681
13870 20947
13870 21421
13870 21662
13870 21747
13870 22383
13870 23049
13870 23200
13870 23349
13871 18916
13872 16165
13872 19633
13872 23740
13873 13874
13873 13875
13873 13876
13873 14650
13873 15452
13873 15832
13873 15833
13873 15834
13873 15837
13873 22512
13874 15834
13875 13876
13875 13877
13875 13878
13875 15832
13875 15833
13875 15834
13875 15837
13875 21229
13876 15834
13876 15837
13877 21229
13878 15837
13879 16653
13879 17887
13879 19516
13879 19888
13879 21288
13880 13997
13880 15921
13880 21670
13881 21428
13882 14724
13882 20495
13883 20543
13883 20623
13883 21995
13883 22805
13883 22867
13884 14389
13884 14595
13884 17489
13884 17867
13884 18171
13884 19618
13884 21043
13885 20138
13885 22061
13886 15890
13887 19242
13888 19185
13889 18228
13890 15182
13890 16069
13892 17261
13892 21162
13893 13902
13893 19060
13893 20904
13893 21644
13893 21948
13895 13913
13895 17251
13895 18634
13896 14541
13896 19211
13896 19619
13896 20726
13897 21283
13898 14409
13898 19519
13899 16535
13899 20107
13900 14880
13900 17100
13900 19379
13901 18372
13902 14875
13902 20615
13902 21644
13903 17365
13903 22776
13904 17553
13904 17744
13904 18631
13905 16083
13906 18378
13906 19374
13907 22175
13907 23292
13908 17228
13909 19970
13910 19305
13912 22296
13913 17251
13913 17439
13913 18634
13913 20228
13913 20800
13913 20851
13913 21817
13914 14423
13914 18028
13915 14016
13915 14892
13916 14313
13916 14893
13916 15979
13916 16923
13916 18959
13916 20844
13917 13952
13917 14436
13917 22967
13919 17347
13919 20674
13920 15358
13920 15808
13921 19691
13921 21668
13921 22391
13922 23362
13922 24217
13923 20395
13924 18016
13926 22348
13927 22436
13928 20460
13929 19248
13930 14586
13930 15406
13930 16489
13930 21626
13931 14913
13931 23258
13934 18193
13934 21205
13934 21513
13935 17568
13935 19847
13937 20205
13938 20882
13938 21399
13939 21082
13940 15467
13940 16706
13940 17679
13940 17716
13941 16501
13942 14597
13942 21029
13944 17163
13945 17305
13946 15199
13947 19833
13947 23314
13948 17225
13948 19506
13948 20816
13949 19371
13950 14504
13950 18406
13951 14000
13951 17230
13951 18917
13953 15755
13953 17142
13954 14337
13954 17378
13954 17405
13954 20999
13955 22760
13955 22880
13955 23264
13956 21629
13957 18588
13958 14299
13958 14919
13958 18625
13958 19223
13958 19392
13959 15244
13959 15681
13959 17910
13959 19321
13960 24014
13960 24221
13960 24468
13962 15720
13962 17464
13962 22207
13964 19115
13964 19188
13964 19256
13964 21397
13964 22440
13965 16936
13965 17654
13965 20936
13965 22152
13966 15980
13966 20047
13966 23455
13967 14968
13967 18969
13967 20120
13968 18998
13968 23100
13969 16680
13969 16942
13970 16748
13970 20594
13970 20852
13970 22062
13970 23035
13970 23253
13971 18846
13975 14671
13975 15351
13975 20924
13976 18395
13977 14955
13977 16814
13977 19786
13978 19745
13978 21437
13978 22290
13978 22932
13979 19833
13980 15577
13980 22110
13982 16054
13982 18031
13984 16960
13984 17821
13985 21125
13986 14523
13986 20471
13986 21962
13987 21234
13990 14994
13990 19668
13991 14996
13991 20040
13992 14930
13992 16641
13992 20050
13994 23226
13995 15719
13995 20073
13995 22273
13995 24414
13996 14828
13996 17012
13997 15921
13998 15001
13999 24443
14000 17230
14000 18917
14001 15125
14001 22287
14003 20052
14004 17491
14004 18124
14005 16820
14005 17033
14006 23210
14007 23938
14008 23028
14009 15316
14010 18197
14010 19125
14010 22099
14011 20041
14012 18885
14013 17854
14013 21744
14013 22063
14014 15999
14014 17037
14014 18923
14014 19868
14014 22604
14014 23197
14015 16987
14015 19774
14015 20000
14015 20117
14016 14616
14016 20150
14016 21571
14017 18364
14017 20362
14018 14259
14018 15350
14022 14565
14022 16245
14022 17044
14023 22903
14024 15027
14024 19052
14024 21086
14025 14576
14025 18193
14025 19191
14025 20846
14025 21513
14025 22246
14025 22404
14026 14173
14026 22597
14027 23277
14028 17550
14028 21801
14030 14678
14030 20987
14030 21290
14031 22570
14032 20465
14032 20590
14034 14059
14034 19956
14035 14329
14035 20178
14038 17434
14039 17978
14039 19828
14040 18534
14040 22154
14041 20993
14042 16037
14042 16040
14042 16065
14043 14813
14043 22026
14044 21251
14045 18453
14047 16775
14048 15951
14048 17893
14048 18992
14048 19466
14049 22207
14050 24473
14051 15308
14052 15083
14052 22020
14053 20933
14054 17570
14054 17669
14054 18135
14054 18164
14054 19584
14054 20352
14054 20772
14054 22137
14055 24169
14056 19318
14058 19082
14058 21291
14058 23076
14059 14902
14059 14903
14059 19196
14059 21701
14060 14711
14060 17688
14060 23506
14061 21844
14061 24157
14062 23735
14062 24015
14062 24425
14065 14715
14066 22237
14067 19989
14068 14492
14068 14878
14068 16084
14068 19872
14069 22120
14070 14514
14070 15743
14070 22021
14071 14088
14071 15029
14071 15110
14071 16620
14071 17024
14071 18342
14071 19198
14071 19982
14072 21194
14072 22773
14073 22773
14074 15461
14074 22773
14075 23242
14076 17162
14078 14365
14078 21029
14078 23502
14079 15350
14080 19191
14081 16120
14083 16995
14083 21460
14084 24225
14087 14626
14087 15486
14087 15831
14088 15029
14088 16508
14089 17703
14089 18543
14089 20985
14089 22193
14090 15086
14090 23268
14091 17830
14091 22140
14092 19635
14093 14545
14093 20360
14094 15174
14094 20547
14094 21735
14096 18215
14096 20382
14097 21834
14098 24395
14099 15628
14099 18051
14100 23970
14101 20904
14101 23162
14102 15292
14102 18888
14102 22186
14102 22957
14102 23130
14103 14790
14104 16835
14104 18804
14104 22357
14105 18782
14106 23811
14106 24017
14106 24451
14107 14969
14107 20169
14107 21349
14109 16327
14109 16861
14110 15513
14110 15845
14110 20228
14111 20172
14111 20881
14112 14113
14112 16881
14113 15102
14113 16157
14113 16495
14113 18894
14114 14790
14116 16502
14116 23712
14118 15981
14118 22240
14118 22576
14119 19314
14119 19954
14119 23028
14120 14251
14120 14257
14120 16951
14120 18568
14120 19608
14121 15715
14121 15732
14121 20854
14122 15684
14122 16858
14122 18499
14122 18617
14122 19301
14122 19429
14122 19790
14122 20639
14122 21013
14124 16294
14124 16440
14124 17148
14124 21285
14126 18442
14127 18154
14127 20919
14129 15262
14130 23365
14131 20361
14133 18725
14133 23434
14134 21001
14135 20490
14135 23070
14136 16398
14136 21617
14137 17179
14137 22904
14139 15643
14140 20714
14141 18392
14141 23485
14142 17346
14142 19195
14142 19597
14142 21490
14144 14744
14144 19118
14144 21018
14145 18426
14145 20289
14145 20393
14146 19191
14146 20341
14147 15288
14149 17593
14150 17703
14150 20985
14153 14585
14153 21614
14154 21154
14154 21352
14157 16820
14157 17033
14158 17060
14158 21750
14159 20989
14160 20840
14161 15934
14161 19662
14161 21864
14162 21556
14163 17079
14163 17243
14163 22821
14166 14482
14167 21903
14168 17183
14168 18025
14168 18886
14168 20673
14169 14668
14169 16218
14169 18588
14169 23183
14170 18315
14171 17425
14172 16909
14172 23146
14173 16680
14173 23581
14174 15531
14174 16126
14174 18043
14174 20664
14175 22365
14176 17598
14176 19426
14177 15328
14177 17634
14177 17709
14177 18602
14177 20220
14177 21504
14177 22294
14177 23596
14178 15754
14178 23703
14179 15947
14179 21297
14179 22234
14179 22463
14179 22854
14181 14704
14181 15984
14183 18146
14183 21903
14184 17337
14184 21050
14185 19601
14186 19044
14187 19073
14187 21581
14188 18405
14188 19198
14189 22389
14189 23118
14190 16114
14191 16638
14191 17567
14191 20522
14191 20720
14191 21369
14191 22204
14191 22627
14191 23397
14191 23567
14193 15210
14193 16533
14194 21711
14195 16006
14195 17440
14196 15111
14196 17341
14197 20100
14197 24061
14198 22675
14199 15350
14200 20376
14200 22287
14201 17208
14201 19964
14202 14619
14202 15740
14203 15975
14203 19757
14203 20996
14203 23019
14204 14779
14204 15136
14204 19569
14204 23024
14205 20651
14205 21614
14205 21650
14206 14531
14207 20707
14208 15350
14208 20617
14209 15893
14211 15285
14211 20763
14211 21296
14212 23013
14213 16205
14213 16206
14214 20403
14214 21206
14214 21719
14215 15453
14216 23566
14217 16618
14217 17162
14219 14322
14219 15055
14219 15575
14219 15873
14219 18000
14219 19520
14220 14715
14220 21308
14221 15033
14221 19084
14222 16761
14223 18732
14224 18124
14226 15417
14226 23764
14227 16089
14227 22143
14228 14846
14229 19598
14231 23338
14232 14279
14232 23312
14234 16923
14234 18635
14236 19586
14237 20393
14239 15971
14240 18261
14240 20718
14240 21029
14240 22365
14241 15185
14241 17077
14241 17093
14241 18135
14241 18164
14242 17216
14242 17602
14242 21962
14242 22397
14243 21535
14243 22685
14244 15400
14244 16259
14245 15534
14245 17412
14245 20995
14245 22831
14245 23192
14246 23861
14247 14519
14247 16585
14247 18278
14247 23055
14248 16642
14248 22242
14248 23222
14249 15649
14249 16612
14249 17990
14250 22963
14251 14257
14251 14353
14251 15147
14251 16458
14251 17351
14251 17352
14251 18158
14251 19808
14251 20056
14251 20254
14251 23047
14251 23048
14252 16618
14252 17162
14254 18689
14255 19352
14255 19613
14257 17351
14257 18158
14258 17351
14258 18158
14259 15350
14260 23802
14260 24279
14261 15267
14261 17483
14262 17870
14262 19296
14262 20303
14262 21342
14263 19173
14263 19174
14264 20800
14265 15630
14265 17582
14266 21145
14267 17022
14267 19719
14269 24164
14270 18820
14271 23006
14272 19657
14272 20136
14272 21361
14272 21468
14272 22583
14272 23273
14273 18323
14275 19517
14275 22283
14275 23147
14276 21171
14277 15197
14277 16265
14278 16268
14278 18925
14278 19866
14279 23919
14279 24400
14280 15002
14280 19733
14281 20137
14281 20882
14282 17141
14282 18307
14283 15505
14283 18539
14283 22210
14284 16238
14284 18477
14286 15270
14288 15114
14288 19471
14289 20879
14289 22079
14290 17838
14291 20882
14291 22993
14292 21154
14293 14585
14293 14923
14293 20561
14295 16052
14296 14879
14296 15995
14296 16700
14296 21958
14297 16135
14297 16700
14297 18023
14297 20300
14297 23453
14298 21120
14298 23156
14299 14919
14299 19223
14299 19392
14300 17425
14302 18441
14302 19226
14302 20058
14302 21788
14303 14381
14304 20237
14305 19563
14305 21926
14306 16164
14306 18587
14306 21856
14306 23888
14307 20503
14308 15933
14308 18672
14309 16972
14310 24090
14311 15523
14311 16506
14311 20351
14313 15120
14313 17292
14313 19181
14313 19673
14313 23584
14314 18864
14314 19546
14314 20548
14314 22272
14315 16563
14315 23054
14316 14823
14316 22099
14317 21459
14317 23688
14318 15339
14318 16224
14318 17359
14318 19443
14318 21401
14318 22027
14319 17305
14320 18530
14321 23369
14321 24109
14322 18000
14322 19520
14322 21620
14323 14325
14323 14326
14323 15304
14323 16667
14323 16668
14323 19730
14324 17155
14324 21472
14325 14326
14326 14327
14326 16667
14326 19730
14326 19861
14327 16667
14327 23377
14328 19371
14331 15491
14331 15514
14331 20458
14332 14512
14332 20787
14333 15132
14333 18271
14333 21256
14333 21310
14334 17025
14335 23200
14336 18761
14336 19917
14336 20225
14336 21733
14336 23454
14337 15941
14339 15403
14339 16569
14339 20337
14341 21697
14341 21781
14341 22254
14342 17419
14342 22599
14343 16550
14344 20554
14344 20866
14345 19248
14348 15501
14348 16925
14350 18782
14350 19923
14351 17556
14351 21468
14352 19987
14352 21467
14353 17351
14353 18420
14354 19727
14356 18785
14356 21595
14357 17267
14357 19761
14358 14953
14359 14560
14359 16959
14360 16235
14360 22977
14361 17047
14361 23428
14362 19358
14362 22442
14363 14820
14363 15024
14363 15515
14363 15882
14363 16014
14363 16590
14363 16764
14363 17426
14363 17478
14363 17585
14363 18570
14363 18949
14363 19565
14363 19700
14363 20159
14364 19061
14364 19361
14364 19849
14364 23369
14365 16214
14365 18212
14365 21029
14365 23502
14366 19381
14366 21437
14367 14442
14367 14444
14367 14445
14367 19958
14368 18467
14369 15300
14370 14475
14370 19988
14371 22913
14372 14660
14372 16358
14372 22914
14373 20066
14374 17884
14374 17958
14374 19248
14375 20572
14375 21074
14376 19959
14376 20304
14377 16490
14377 23284
14378 18150
14379 15991
14380 15393
14380 15410
14380 20436
14381 19194
14382 14978
14384 15035
14384 19509
14385 18200
14386 21381
14387 16189
14387 17551
14389 22904
14390 24395
14392 21685
14393 22631
14394 23987
14395 19064
14396 15018
14396 20306
14396 20533
14396 22910
14397 15231
14397 15433
14398 18077
14398 21923
14399 16402
14400 16098
14400 19755
14401 19052
14402 18058
14402 18846
14402 20566
14403 17782
14403 19591
14403 22643
14404 24397
14405 17563
14407 22927
14408 16810
14408 18969
14408 19185
14408 20977
14409 15444
14410 15447
14410 19793
14411 15840
14411 19198
14411 21614
14412 15398
14412 22156
14412 22820
14413 18262
14413 21527
14414 14585
14414 15613
14415 16843
14415 17458
14416 16357
14417 17682
14417 18450
14417 22514
14417 22574
14417 23481
14418 16273
14418 19562
14419 17872
14419 21269
14420 19685
14421 17096
14421 18631
14421 22365
14422 18353
14422 18883
14422 19268
14422 19794
14422 22678
14422 23319
14423 22701
14424 15347
14424 16878
14424 23093
14425 20107
14425 20376
14425 22287
14426 15413
14426 21625
14427 23853
14428 18910
14429 16450
14429 17780
14429 19000
14429 19777
14429 20577
14429 20818
14429 21409
14430 16399
14430 16862
14430 23141
14431 20431
14432 17082
14433 22969
14433 23628
14434 17493
14434 22477
14435 23792
14435 23992
14437 15473
14437 17018
14438 21524
14439 21599
14441 14443
14441 14445
14441 14447
14441 14449
14441 14485
14442 14445
14442 14449
14442 15886
14442 16689
14442 16691
14443 14445
14443 15478
14443 15479
14443 19958
14444 14898
14444 15886
14444 15888
14444 16689
14444 16691
14444 16912
14444 21125
14444 23643
14445 14449
14445 14485
14445 15479
14445 17330
14446 18404
14446 21265
14446 22334
14447 15478
14447 19958
14448 15426
14448 19050
14448 20952
14448 21723
14449 15480
14449 17330
14449 23643
14450 17002
14450 18144
14450 18237
14450 18998
14450 19318
14450 19412
14454 23969
14455 19943
14455 20412
14455 22328
14456 14874
14456 18781
14456 18861
14457 16966
14457 20193
14459 15746
14459 16870
14460 18494
14461 21656
14462 22621
14463 15494
14463 20039
14463 20696
14464 17117
14465 22930
14466 19687
14466 21902
14467 22138
14468 23193
14469 21593
14470 15121
14470 22019
14470 22975
14471 15299
14472 14501
14472 17968
14472 20480
14472 22619
14473 15940
14473 18202
14473 20116
14474 18884
14474 23365
14475 16156
14475 16400
14475 17880
14475 18811
14475 19988
14475 21009
14475 22040
14475 23121
14476 20356
14477 17790
14478 16401
14479 16426
14479 17116
14479 17608
14479 19848
14480 21764
14481 20208
14482 15499
14482 16163
14482 16192
14482 16476
14482 17529
14482 17701
14482 17967
14482 18939
14482 19551
14482 20906
14482 21736
14483 17353
14483 19927
14485 19958
14486 15318
14486 15516
14486 16643
14486 16906
14486 17745
14487 18631
14488 14940
14488 18680
14489 22602
14490 14877
14490 23369
14492 14878
14492 16084
14493 17687
14493 19075
14494 15093
14494 21857
14495 14644
14495 14936
14495 16536
14495 18906
14495 19593
14496 14963
14496 16024
14496 17146
14496 18482
14496 21051
14496 21209
14496 21661
14496 22071
14496 22315
14497 21508
14497 21721
14498 16647
14498 18761
14498 20225
14498 20771
14499 22597
14500 18862
14500 19220
14501 19121
14501 20480
14501 20709
14502 18624
14503 19156
14503 19164
14503 19854
14503 20955
14504 19039
14505 22668
14506 15485
14507 21861
14508 14874
14508 22818
14509 22944
14511 16242
14511 23532
14512 16442
14512 17572
14512 20787
14513 14789
14513 16504
14513 16650
14513 18108
14513 18566
14513 18729
14513 19923
14513 22623
14513 23507
14514 15920
14514 22021
14515 16768
14515 18632
14516 16289
14516 16660
14516 21658
14517 15820
14518 15751
14518 22080
14518 22504
14518 22770
14520 17452
14520 17454
14520 20583
14520 23527
14521 16227
14521 18886
14522 23425
14523 16663
14524 15010
14524 17525
14525 22829
14526 16402
14527 18334
14527 19957
14528 22305
14530 18599
14532 17340
14532 18331
14533 16819
14533 23339
14534 17514
14535 14686
14535 22050
14535 22372
14536 22917
14536 23265
14536 23585
14536 23839
14537 23605
14538 18512
14539 17969
14540 24103
14540 24106
14541 18561
14541 19619
14541 20726
14542 23794
14543 15991
14544 15413
14544 18303
14544 22343
14544 22390
14545 14960
14545 16023
14545 20360
14546 24124
14548 19755
14549 18181
14549 22637
14550 14607
14550 14681
14550 14798
14550 17455
14551 20866
14552 19040
14552 20866
14553 22543
14555 15244
14555 17717
14556 16138
14556 18860
14556 22270
14557 15486
14558 20917
14558 21451
14558 21786
14558 22767
14561 15350
14561 16784
14562 16853
14563 18844
14563 22701
14564 22822
14565 20182
14565 20194
14565 20452
14565 21481
14566 15187
14566 22721
14569 18453
14569 19605
14569 19830
14569 19906
14569 20653
14569 21897
14569 22449
14569 22677
14570 17000
14571 20856
14573 15135
14574 18785
14575 17785
14576 14680
14576 18193
14576 20389
14576 21513
14577 14753
14577 17553
14577 17744
14577 18631
14578 15147
14580 16639
14581 19908
14581 21256
14581 23352
14582 15271
14582 17224
14582 17721
14582 22565
14583 15573
14583 17304
14584 15017
14584 20545
14584 21847
14584 22998
14584 23295
14585 14859
14585 14923
14585 15395
14585 15687
14585 16361
14585 16955
14585 18468
14585 19106
14585 20561
14585 21593
14585 21614
14585 21650
14585 21878
14585 22049
14585 23583
14587 15797
14587 19658
14587 19901
14590 15624
14590 22154
14591 18510
14592 16465
14593 15745
14593 16629
14593 17074
14593 21863
14594 17385
14596 18510
14598 22287
14600 15041
14600 15619
14600 16651
14600 18582
14600 19724
14600 19763
14600 22956
14602 17633
14602 18073
14602 18675
14602 20277
14602 20648
14602 23297
14604 19344
14604 21640
14605 15868
14605 19191
14606 15031
14606 19537
14606 19796
14607 14681
14609 15418
14609 22786
14610 16551
14610 17575
14610 18372
14611 19931
14611 20723
14613 20992
14613 22024
14614 22067
14615 18529
14616 18229
14616 18280
14616 20150
14616 20859
14616 21571
14617 14877
14617 20377
14617 23369
14618 18286
14618 23100
14619 19126
14620 14710
14620 14711
14620 14713
14620 17492
14620 23506
14623 14940
14623 18680
14625 23162
14626 23843
14627 19318
14628 15750
14629 18214
14629 21527
14629 22708
14630 15614
14630 20778
14630 21485
14631 14632
14631 14636
14632 14636
14632 21200
14633 14635
14637 14653
14638 22053
14639 19601
14639 20127
14639 21579
14641 20840
14642 17268
14642 22535
14643 16973
14643 20095
14643 20813
14643 21315
14643 22151
14643 23190
14644 18906
14644 23063
14644 23329
14645 17344
14646 22343
14647 18274
14649 15640
14650 18274
14651 15130
14651 19067
14651 20814
14651 23512
14652 23952
14653 14791
14653 14941
14653 16419
14653 18188
14653 24483
14654 17984
14654 22193
14655 17534
14655 22046
14656 23641
14656 23924
14656 23930
14657 19273
14657 19769
14657 22849
14657 23537
14657 23547
14658 15817
14658 16703
14658 20500
14658 22747
14659 23071
14660 22097
14660 22914
14662 23638
14662 23710
14662 24075
14662 24164
14663 16328
14663 17616
14664 18405
14664 19198
14665 17687
14666 24384
14667 15351
14668 16218
14668 21386
14668 21389
14668 22653
14668 22730
14670 16198
14670 21257
14672 22521
14672 22607
14673 20920
14673 21256
14673 22028
14674 24402
14675 23830
14676 16809
14676 17020
14678 19597
14679 15811
14679 21724
14680 16199
14680 21513
14681 14684
14681 14685
14681 14686
14681 15369
14681 21395
14681 22372
14682 15529
14682 18052
14682 23494
14683 14686
14684 14685
14684 15369
14684 21395
14686 15369
14687 17712
14687 18735
14687 19681
14687 22981
14688 17286
14688 17459
14688 22557
14689 15087
14689 17103
14689 20763
14690 23610
14691 15311
14692 15108
14692 20796
14693 22314
14693 22518
14693 23572
14695 14929
14695 22169
14696 15168
14696 22738
14697 15977
14697 17833
14697 20061
14697 22519
14698 15539
14699 14966
14699 16839
14699 21565
14701 22281
14704 18809
14706 15239
14707 24279
14707 24332
14708 17349
14708 19117
14708 19341
14710 14713
14710 15640
14710 23291
14710 23684
14712 14713
14714 15539
14714 16680
14714 16781
14714 17708
14714 22974
14715 15738
14715 21077
14716 15535
14716 19838
14718 15350
14719 16207
14719 21524
14720 17860
14720 18943
14721 22429
14721 23478
14722 19198
14723 15821
14725 15434
14725 18077
14725 19731
14726 20554
14726 20866
14727 23765
14727 23800
14728 19382
14729 17838
14730 15745
14730 16629
14730 17755
14730 21863
14732 16713
14732 16958
14732 22109
14733 16807
14734 16849
14734 20204
14734 22939
14735 22285
14736 15734
14736 18253
14737 15209
14737 16526
14737 16995
14737 17110
14737 18841
14737 21574
14737 22912
14737 23599
14738 15488
14738 17824
14738 18005
14738 21986
14738 22217
14739 18286
14739 18375
14739 18998
14739 23100
14740 16177
14741 17078
14742 21132
14744 21018
14745 15313
14746 16586
14746 19829
14746 20773
14747 22676
14747 23258
14748 23709
14748 23907
14749 21556
14750 15335
14750 19470
14751 17995
14751 18440
14751 18665
14751 19224
14751 21118
14751 22340
14752 16816
14753 18631
14754 17670
14754 19578
14755 14800
14755 21624
14756 24254
14756 24284
14757 21840
14757 22064
14758 17224
14758 23542
14759 19340
14761 15914
14761 18760
14761 18927
14761 22730
14762 15190
14762 21257
14763 22274
14763 23793
14763 23976
14764 23793
14764 23976
14765 15497
14765 18660
14765 19967
14766 23790
14766 24159
14767 20051
14768 15003
14769 19179
14770 18193
14770 20389
14772 17945
14772 19035
14773 21145
14775 14958
14775 15943
14776 20143
14776 22934
14777 15480
14778 15141
14778 19181
14778 20005
14779 16260
14779 21335
14781 17216
14781 21962
14781 22397
14782 20921
14782 21233
14783 17935
14783 18066
14784 15209
14784 16526
14784 21417
14785 16161
14785 21356
14787 21070
14790 15984
14790 17134
14790 18329
14790 18437
14790 22925
14792 23694
14792 24275
14793 23672
14793 24267
14793 24461
14794 20667
14796 21203
14796 23514
14797 23267
14798 17455
14799 19445
14800 17338
14800 18729
14800 20216
14800 21281
14800 21624
14801 16209
14801 20686
14802 23155
14803 18894
14803 19814
14803 19815
14804 15718
14804 19109
14805 22613
14806 15782
14806 20519
14806 23603
14807 17427
14807 17450
14808 15561
14808 18054
14808 23497
14810 16070
14811 21937
14811 22622
14812 21593
14812 21614
14813 21127
14813 23206
14814 15802
14814 17657
14814 21263
14815 23775
14816 20619
14817 22526
14818 15906
14818 22762
14820 19776
14821 16157
14821 19455
14821 20573
14824 17692
14824 18805
14824 22515
14825 17765
14825 18846
14826 17698
14826 20799
14827 21355
14827 22337
14829 15604
14829 20896
14830 15720
14830 16602
14830 18798
14832 17462
14832 21756
14833 15350
14833 15977
14833 16640
14833 17833
14833 18049
14833 18327
14833 18752
14833 18962
14833 19359
14833 20083
14833 21712
14833 22519
14834 16262
14835 21402
14835 22940
14836 15673
14836 23539
14837 21486
14837 23056
14839 17305
14839 17992
14840 16879
14841 22107
14842 16939
14842 18957
14844 16006
14845 18188
14848 15708
14849 23854
14849 23856
14850 24454
14851 15664
14851 21792
14852 14861
14852 19128
14852 22286
14852 22964
14853 16394
14854 15033
14854 19084
14854 20925
14855 18211
14855 19312
14855 22166
14856 23955
14856 24423
14857 17996
14857 20771
14859 21593
14860 16310
14860 16894
14861 15734
14861 22286
14862 24104
14863 21713
14864 15740
14864 17631
14864 19355
14864 20765
14865 19139
14865 21147
14866 14868
14866 14871
14866 15843
14866 15844
14867 14869
14867 14871
14867 19449
14868 14871
14868 15843
14869 14871
14869 19449
14870 22056
14872 15316
14872 23682
14873 17188
14873 19455
14874 15404
14874 15783
14874 16832
14874 18291
14874 18418
14874 18861
14874 21159
14874 21883
14874 21900
14874 22012
14874 22413
14874 22978
14875 20904
14875 21644
14875 21948
14876 15865
14876 20986
14877 16624
14877 16857
14877 16964
14877 18981
14877 19288
14877 20244
14877 20438
14877 20703
14877 20807
14877 21594
14877 22594
14877 23359
14878 16084
14878 18657
14879 17768
14879 18129
14879 20979
14879 23175
14880 17100
14881 21208
14884 18179
14884 19742
14885 17305
14885 18782
14886 21853
14887 18810
14888 19221
14889 15677
14889 15700
14891 18286
14891 18375
14891 18998
14892 15023
14893 20844
14894 15542
14894 22740
14894 23231
14895 16347
14895 17498
14895 19585
14895 21979
14896 15207
14896 18869
14896 18967
14896 21869
14896 23860
14897 16712
14897 17467
14900 14906
14900 19322
14900 19688
14900 21343
14900 22128
14901 17546
14901 19736
14902 19956
14903 19956
14904 14905
14904 15888
14904 15895
14904 16683
14904 16685
14905 16684
14906 15946
14906 19688
14906 22128
14907 19368
14907 21761
14907 22324
14907 23535
14909 16296
14909 18272
14910 23492
14911 16915
14912 20265
14913 16012
14913 20420
14913 20937
14913 23258
14915 24282
14916 16567
14916 17065
14916 17589
14920 15151
14920 19318
14921 15342
14921 15401
14921 17430
14922 15715
14923 21614
14924 15877
14925 19476
14925 19853
14926 17200
14927 16935
14927 21775
14928 15948
14928 19428
14928 20683
14928 23201
14929 16202
14929 22169
14929 22923
14929 23287
14929 23414
14930 16641
14930 22227
14931 24299
14932 15266
14932 17945
14932 19356
14932 19969
14932 21264
14933 16324
14933 16423
14933 19988
14933 20824
14933 21098
14933 21654
14933 21927
14934 15743
14934 22021
14937 15393
14937 15410
14938 21036
14938 22300
14939 18286
14939 18998
14939 23100
14940 15126
14940 15268
14940 15436
14940 15648
14940 15923
14940 16212
14940 18145
14940 18936
14940 19145
14940 20491
14940 21325
14941 16227
14941 20386
14942 23960
14943 16359
14944 19611
14946 15009
14946 20054
14947 19245
14947 19246
14948 24288
14950 18631
14952 15931
14952 22864
14953 15908
14953 17267
14953 19761
14954 15609
14954 23808
14955 19786
14956 17378
14956 20999
14957 16506
14957 18127
14957 20013
14958 15416
14958 15943
14958 17795
14960 16023
14961 19298
14961 22051
14962 16483
14963 17307
14965 15102
14965 16157
14965 18265
14966 16839
14967 18933
14967 21259
14968 16530
14968 18969
14968 20120
14969 15465
14969 20905
14969 21441
14969 21889
14969 22319
14969 23551
14970 18604
14972 15145
14972 19381
14972 20063
14974 16133
14975 15557
14977 23369
14978 20606
14978 23400
14978 23887
14978 24087
14979 15388
14979 15952
14979 17984
14979 22062
14979 23253
14980 15416
14980 21724
14980 24415
14981 15509
14982 16054
14982 18516
14982 19033
14986 17544
14986 20939
14987 19698
14988 16280
14988 20102
14989 15967
14989 20146
14989 23094
14990 21509
14990 22882
14991 15581
14992 17007
14992 21726
14993 17847
14993 20492
14994 19021
14995 24429
14997 21529
14997 22082
14998 15975
14998 19757
14998 20996
14998 23019
14999 15904
14999 17170
14999 19988
15000 23057
15001 16454
15001 16626
15001 18833
15001 19195
15001 20274
15001 22710
15001 23663
15002 16109
15002 17046
15002 17185
15003 20318
15004 22138
15007 23765
15009 20054
15010 17525
15010 17896
15010 18855
15010 21982
15011 20369
15012 17406
15012 18456
15013 15594
15013 21293
15013 22524
15015 18131
15015 21825
15015 23277
15015 23301
15017 17191
15017 18161
15017 19879
15017 23295
15018 17991
15018 19935
15018 22910
15019 15316
15021 15999
15021 17037
15021 19868
15021 22604
15022 18612
15023 17169
15023 17771
15023 18229
15023 18240
15023 18280
15023 20150
15026 22860
15027 19052
15027 19834
15027 21086
15030 17252
15030 17264
15031 19796
15031 21341
15031 22936
15032 18387
15032 22424
15032 22559
15033 15593
15033 16275
15033 17145
15033 18244
15033 20925
15033 20983
15033 21758
15033 22345
15034 20990
15034 22597
15035 15535
15035 19740
15035 19838
15035 21960
15036 18014
15036 22984
15036 23093
15037 21556
15039 18031
15040 15356
15040 16259
15041 16254
15041 17362
15042 22653
15043 18645
15043 19902
15044 15615
15045 16331
15045 22342
15045 22653
15046 19249
15047 18189
15047 23430
15049 18104
15049 19238
15049 20134
15049 20425
15049 23308
15051 18312
15051 20326
15053 16819
15053 23553
15054 15120
15054 16902
15054 17381
15054 18999
15054 19181
15054 20158
15055 15873
15056 19588
15058 20381
15058 21435
15059 15982
15059 17693
15059 18258
15059 19886
15061 17686
15062 16168
15063 15675
15063 18063
15063 18807
15063 19929
15063 20829
15063 22162
15063 22321
15064 15522
15064 16256
15064 19411
15064 21372
15064 22047
15064 22387
15065 21487
15066 17402
15067 17170
15068 17951
15068 19437
15068 23189
15070 17785
15071 18537
15072 17649
15073 18890
15073 21183
15073 22360
15073 24232
15075 20601
15075 20771
15075 22894
15077 16856
15078 19674
15079 20801
15080 15831
15083 21593
15083 21614
15084 16305
15084 21664
15085 19805
15085 22902
15086 20239
15086 20763
15086 21296
15086 23268
15086 23565
15087 20763
15087 23268
15091 16549
15091 17933
15091 19854
15091 23705
15093 21857
15095 16315
15095 17418
15095 21197
15096 23006
15097 17113
15098 21948
15098 23162
15099 16978
15099 17865
15100 15725
15100 17546
15100 20157
15100 21549
15100 22349
15101 17411
15101 20144
15102 16437
15102 17238
15102 18265
15103 17621
15103 18148
15103 21110
15103 23461
15104 16157
15105 22820
15106 20049
15107 17552
15107 20123
15107 22189
15108 16671
15108 20796
15110 19198
15110 21725
15110 22156
15110 22444
15111 17341
15111 20421
15112 18929
15113 19852
15113 22432
15113 22739
15115 20771
15116 15127
15118 15201
15119 21339
15119 23470
15120 19181
15121 16819
15121 19418
15121 19834
15122 17462
15122 17660
15125 15332
15125 15721
15125 16553
15125 17321
15125 17571
15125 19177
15125 22287
15125 23552
15126 15648
15126 16176
15126 17642
15126 18680
15126 21189
15126 22130
15126 22208
15127 17098
15127 17252
15127 17264
15128 19339
15128 19486
15129 17800
15129 19189
15129 21124
15129 21520
15130 20814
15130 22165
15134 19554
15134 21837
15135 16748
15135 20383
15135 22193
15135 23035
15135 23098
15137 17167
15137 19308
15138 24303
15139 15772
15139 18640
15139 19393
15140 15539
15140 20164
15140 23380
15141 16632
15143 15748
15145 17773
15145 18210
15145 18490
15145 19381
15145 19732
15145 19750
15145 19938
15145 20063
15145 21165
15145 21437
15145 22271
15145 22290
15145 23586
15147 21547
15148 15578
15148 18414
15148 24407
15149 16495
15149 18384
15149 21462
15149 21888
15150 15509
15150 16495
15150 16950
15151 15524
15151 16179
15151 16287
15151 17199
15151 18517
15151 18673
15151 19159
15151 19318
15151 19760
15151 21185
15151 22025
15151 23463
15152 15784
15152 16757
15152 18399
15152 19464
15153 23679
15154 17305
15154 20107
15155 22154
15156 15680
15156 16363
15156 18377
15156 22326
15158 15824
15158 20305
15159 18355
15159 19040
15160 19370
15160 20866
15161 16219
15161 18114
15161 21501
15162 16438
15164 15460
15164 18973
15165 15302
15165 17029
15165 20576
15165 21251
15166 15414
15166 16460
15166 17426
15167 19921
15167 20447
15167 20521
15167 22634
15167 22809
15168 23059
15169 22762
15170 20112
15171 18975
15171 20364
15171 20629
15171 21464
15172 16173
15172 17209
15173 20402
15174 16754
15176 19374
15176 23597
15177 19601
15178 15698
15178 19065
15178 24071
15179 23827
15180 22546
15182 15627
15182 19510
15182 20043
15182 21479
15182 22135
15183 15940
15183 22379
15184 17414
15185 17093
15185 18135
15185 18164
15186 22287
15186 23552
15187 20366
15187 22721
15188 17307
15188 17437
15188 17884
15188 17958
15189 22676
15189 22919
15191 19523
15191 20588
15192 18678
15194 16840
15194 18301
15194 18580
15194 20354
15194 23024
15195 16191
15195 20465
15195 21465
15196 16191
15197 22447
15197 23182
15198 17101
15199 16732
15199 20886
15200 16191
15200 20590
15201 15602
15201 16913
15201 17938
15201 19219
15201 20320
15201 20332
15201 21012
15201 22298
15202 18220
15202 21346
15203 17102
15205 16927
15205 17992
15206 15812
15207 18427
15207 18869
15207 18967
15207 23561
15207 23580
15210 17806
15211 16552
15211 21764
15212 15958
15212 22329
15213 17228
15213 17917
15214 17554
15214 18094
15214 23123
15215 20144
15216 19800
15216 22045
15217 19947
15217 21360
15218 16345
15219 22419
15220 18980
15221 23141
15222 21658
15223 18994
15223 20124
15224 17215
15224 19677
15224 21027
15227 15538
15227 19018
15227 20453
15227 20718
15227 21894
15228 21452
15228 21770
15229 22053
15230 15932
15230 19459
15230 20285
15231 15433
15232 18993
15233 19661
15234 19192
15235 16169
15235 23018
15236 16768
15237 22377
15237 23018
15238 20934
15238 22555
15238 22828
15239 15394
15239 16371
15239 20459
15240 15650
15240 16139
15240 17408
15240 18335
15240 18729
15240 19742
15240 21195
15241 22168
15242 15609
15243 16177
15245 16351
15246 15409
15246 15579
15246 18764
15246 19496
15246 20764
15246 22007
15247 16978
15247 20598
15247 22138
15248 20660
15250 17206
15250 19047
15252 15577
15252 22110
15253 17054
15253 18804
15254 22285
15254 23623
15255 23164
15255 23184
15256 17240
15256 18243
15256 19247
15256 19478
15256 24432
15257 15876
15257 21906
15258 19473
15260 16664
15261 16076
15261 16300
15262 22456
15262 23762
15264 15670
15264 18831
15264 19636
15266 19356
15266 19969
15267 24215
15269 20298
15269 20665
15270 17206
15270 19047
15270 19666
15270 22003
15271 15968
15271 17224
15271 22072
15272 17033
15273 17807
15273 17852
15273 22715
15275 17182
15275 19654
15275 20679
15276 16746
15276 21033
15277 15400
15277 17203
15277 23200
15278 23338
15279 22691
15280 15706
15280 21921
15280 23351
15281 23165
15283 17288
15283 19871
15284 20628
15284 22962
15285 17827
15286 20152
15286 21971
15286 23407
15287 19778
15287 21345
15287 21820
15287 22494
15289 16255
15289 22008
15289 22348
15290 22053
15291 15722
15291 22267
15292 18888
15292 22734
15292 22957
15292 23130
15293 17828
15293 18753
15294 16072
15294 16148
15294 20432
15295 17315
15295 17319
15295 19870
15296 23792
15296 23992
15298 18511
15298 20486
15299 23310
15300 17480
15300 22909
15301 18631
15301 21029
15302 17029
15302 17925
15302 21008
15302 22095
15305 23243
15306 19824
15306 22735
15307 20220
15308 23326
15309 23955
15309 24279
15311 15379
15312 23817
15313 15728
15313 18833
15314 15333
15314 23533
15315 15389
15315 16277
15315 17947
15315 21078
15315 22696
15317 23932
15317 24143
15319 17431
15319 23652
15320 15788
15321 24284
15322 22281
15323 19831
15324 16909
15325 22560
15326 21583
15327 16374
15328 23596
15329 21606
15329 22795
15330 19007
15330 20315
15330 21005
15330 22962
15331 22890
15331 23002
15332 20376
15332 21394
15332 22287
15333 23533
15335 20230
15336 19318
15337 18699
15337 21284
15337 23290
15339 21401
15339 23126
15340 22307
15341 15510
15341 20476
15342 16722
15342 17430
15343 19314
15343 19954
15343 23028
15344 20742
15344 21618
15344 21741
15345 21009
15346 17765
15346 18846
15346 19586
15347 22984
15348 23410
15350 16784
15350 16793
15350 17536
15350 18049
15350 18230
15350 18422
15350 18962
15350 19359
15350 20399
15350 21128
15350 21712
15350 21809
15350 22418
15350 23858
15351 16507
15351 16729
15351 17125
15351 17957
15351 19105
15351 20656
15351 21237
15351 21602
15351 22191
15351 22725
15351 23143
15352 17194
15352 18770
15352 19243
15352 23182
15353 16239
15353 16630
15353 20629
15354 16440
15355 21437
15355 22290
15356 15400
15357 18322
15357 21491
15358 15808
15359 22849
15360 15927
15360 15949
15360 15994
15360 17954
15360 18868
15362 18058
15362 18846
15362 19973
15362 20566
15363 15726
15363 18175
15363 23289
15364 17935
15365 17786
15366 18644
15366 20660
15366 20746
15367 24458
15368 19449
15369 15370
15369 22372
15370 15371
15371 15373
15371 21314
15371 22564
15372 18998
15373 21314
15373 23140
15374 18873
15374 22034
15375 15641
15375 15644
15375 16988
15376 16916
15376 19729
15377 18343
15378 21927
15378 22913
15378 23121
15380 18253
15380 22286
15381 16383
15381 17070
15381 17114
15381 20401
15381 22744
15381 22858
15381 23103
15383 16235
15383 22048
15383 22977
15384 21834
15385 19082
15385 19931
15387 23792
15387 23943
15387 23990
15387 24397
15387 24420
15388 17984
15389 19227
15390 16074
15390 16077
15390 23109
15394 17193
15394 20107
15395 21593
15396 18827
15397 18025
15399 21257
15400 17083
15400 18144
15400 19130
15400 20462
15401 16722
15401 17430
15402 17507
15402 18724
15402 21806
15402 22163
15403 17175
15403 18783
15405 23981
15405 24476
15405 24488
15406 15905
15406 16489
15406 17934
15406 21626
15407 15538
15407 16581
15407 21894
15408 19987
15408 20185
15409 19496
15409 20764
15411 22259
15413 19155
15413 22390
15414 17426
15415 18160
15415 23542
15416 17795
15416 20091
15416 22219
15416 24415
15417 16778
15417 20660
15417 21876
15418 19111
15418 22786
15422 23425
15422 24111
15423 23121
15424 16743
15424 17469
15425 16544
15425 19072
15426 19050
15428 16737
15428 19064
15429 17121
15429 17637
15429 17883
15429 23050
15430 21403
15430 22768
15431 22894
15432 17043
15433 22850
15434 16151
15434 18077
15434 19731
15434 21923
15434 22992
15434 23373
15436 18680
15437 19823
15437 20261
15437 23146
15438 21710
15438 23468
15438 23519
15439 22930
15440 16516
15440 20649
15440 23067
15442 20076
15442 20289
15443 16127
15443 21638
15443 22202
15445 16478
15445 16811
15445 17746
15445 20268
15445 20693
15445 20945
15445 21223
15445 21685
15445 21834
15446 17436
15446 19903
15447 16482
15448 16171
15448 19395
15448 20420
15450 19445
15450 23170
15451 15635
15451 16675
15452 16280
15452 18274
15452 22317
15452 22512
15454 18132
15454 22966
15456 16072
15456 17803
15456 23340
15457 15458
15459 17591
15459 22537
15460 18973
15460 23164
15462 17021
15462 17854
15462 18065
15462 22063
15463 22913
15465 21349
15465 23551
15466 18493
15466 20378
15467 16706
15467 23029
15467 23464
15468 18722
15468 18993
15468 22333
15469 18998
15469 22116
15470 15903
15470 18004
15470 18534
15470 19146
15471 22059
15472 18149
15472 22138
15473 16137
15473 17018
15474 16103
15474 18775
15474 19963
15474 22225
15475 19400
15476 19202
15477 22144
15478 15479
15479 15480
15479 19958
15480 19614
15480 19958
15481 22816
15482 17772
15482 22800
15483 18006
15483 19811
15484 22738
15485 17208
15488 16181
15488 16713
15488 17824
15488 18005
15488 20751
15488 23077
15490 17887
15491 15514
15491 20636
15492 23148
15493 17838
15495 19202
15495 21489
15496 15867
15497 20207
15498 15819
15498 16532
15498 16868
15498 18275
15498 19278
15498 21320
15499 19986
15500 15718
15500 21334
15500 22352
15501 21192
15502 16245
15505 22210
15507 15508
15507 21557
15507 21559
15507 22684
15507 23408
15508 21557
15508 22684
15509 16542
15509 16950
15511 16394
15512 23856
15512 24115
15512 24426
15515 15991
15517 15998
15517 16728
15518 18453
15518 20199
15519 16418
15519 17411
15519 20144
15520 20660
15521 17694
15521 18093
15521 20788
15521 22274
15522 16589
15522 19867
15523 16506
15523 22695
15524 19318
15525 15526
15526 18891
15526 23486
15527 16701
15527 19342
15527 19483
15527 20507
15527 22369
15527 23866
15528 23546
15530 19696
15530 20275
15530 21235
15531 18043
15531 20643
15531 20664
15531 20911
15531 21934
15532 22990
15532 23014
15532 23015
15533 23296
15535 15689
15536 15604
15537 23425
15537 23657
15538 15704
15538 16242
15538 16581
15538 17239
15538 17739
15538 18085
15538 18261
15538 19228
15538 20453
15538 21442
15538 21822
15538 21894
15538 21956
15538 22801
15538 22826
15538 23074
15538 23532
15539 21393
15539 23380
15540 18664
15540 23286
15542 22740
15543 21770
15544 17096
15544 18631
15544 20718
15545 15735
15545 16275
15545 17498
15545 21731
15546 18286
15546 18375
15546 18998
15547 16248
15547 17266
15548 21615
15549 17687
15549 19075
15550 20295
15550 21931
15550 22259
15551 23100
15552 19785
15553 17992
15553 19318
15554 22209
15555 21792
15556 20342
15557 18153
15557 19183
15557 19867
15558 16839
15558 22144
15559 19361
15560 19675
15560 23912
15560 24070
15560 24477
15564 18082
15564 18309
15564 18712
15565 16601
15565 20495
15566 16194
15566 17096
15566 18631
15567 16575
15568 17428
15569 22235
15570 20660
15572 17094
15572 22778
15574 17234
15574 21398
15575 19520
15577 22110
15578 18414
15578 21100
15578 21317
15578 24407
15579 22007
15580 24274
15582 15649
15582 19568
15582 19805
15582 21634
15583 16273
15585 16003
15585 16546
15586 22751
15587 17993
15587 19129
15587 20138
15587 23579
15588 15614
15589 17661
15592 23945
15592 24281
15593 19084
15593 20925
15593 22868
15593 23028
15594 21293
15595 21029
15596 16291
15596 16621
15596 18882
15598 17926
15598 22406
15600 18363
15600 19856
15601 17434
15602 20320
15603 16469
15605 18326
15605 23996
15605 24172
15605 24407
15606 18631
15607 21567
15608 15818
15610 17606
15610 18648
15610 20653
15610 21488
15611 20503
15612 16329
15612 17801
15612 18881
15612 20647
15612 21848
15612 23450
15613 18468
15614 20778
15615 16959
15615 16961
15615 17013
15615 17210
15615 20924
15615 21256
15615 21310
15616 17737
15617 22027
15618 19131
15618 20570
15618 22286
15619 16651
15619 19724
15619 19763
15619 20088
15620 16002
15620 17040
15620 19851
15621 17032
15622 17590
15622 23030
15623 19102
15624 18534
15625 17621
15625 23461
15626 19366
15627 16069
15627 20179
15627 21698
15627 22732
15628 23352
15629 22510
15630 20910
15630 21529
15632 20107
15632 20376
15632 22287
15633 18524
15633 19661
15634 17481
15634 17988
15634 18986
15634 21000
15635 18666
15637 19587
15638 16682
15639 16928
15639 19348
15639 20353
15640 17079
15641 15642
15641 15643
15641 15644
15641 15645
15641 15647
15641 16988
15642 15643
15642 15647
15642 19093
15643 15645
15643 19093
15644 15645
15644 15647
15644 19093
15645 19093
15646 17563
15646 18690
15648 16176
15648 17642
15648 18680
15648 18936
15648 20291
15648 20491
15648 20797
15648 21325
15648 22130
15648 22208
15649 16612
15649 17526
15649 17990
15649 19535
15649 19568
15649 20842
15649 23386
15650 16586
15650 18433
15651 23026
15652 18624
15653 16655
15653 19076
15653 21188
15656 24303
15657 17504
15659 23383
15660 20955
15664 21792
15665 18669
15665 18779
15665 22886
15666 17922
15667 17339
15667 19087
15668 17025
15669 18173
15670 15795
15670 19636
15670 22625
15670 22645
15671 19970
15671 22465
15672 20989
15672 23589
15673 20096
15674 19492
15674 24325
15676 17911
15677 15700
15678 17305
15678 21945
15682 18846
15683 19147
15683 22941
15684 20771
15685 23121
15686 15766
15686 22873
15687 19939
15687 21614
15688 22179
15689 19838
15689 20657
15690 17922
15690 23279
15691 18947
15691 19798
15691 21727
15692 18632
15693 20746
15695 19109
15695 21334
15695 22352
15696 16866
15697 17465
15697 23528
15698 19065
15698 23874
15698 24071
15702 24323
15703 21593
15703 21614
15704 16581
15704 18261
15704 19634
15704 20453
15704 21442
15704 21956
15704 23074
15705 17025
15705 17410
15705 21025
15705 21611
15705 21732
15706 16777
15706 19074
15706 23351
15707 16942
15707 19637
15708 20240
15710 17075
15710 18111
15710 24189
15711 20144
15712 21129
15712 22904
15713 17059
15713 17656
15715 18035
15715 20854
15716 16278
15716 17438
15716 21774
15718 19382
15718 21334
15718 22352
15718 22544
15718 23573
15721 20376
15721 21394
15721 22287
15722 22267
15723 16359
15724 22879
15726 18175
15726 23289
15727 22636
15728 20274
15728 23663
15729 18570
15729 22578
15730 16680
15731 22358
15732 17712
15732 18035
15733 17877
15733 18364
15733 21449
15734 15749
15734 16421
15734 16505
15734 19131
15734 20044
15734 22286
15734 22964
15735 16362
15735 17484
15735 17578
15735 20700
15737 20880
15738 17219
15738 21077
15738 21308
15739 22879
15740 20765
15740 23745
15741 18799
15741 23247
15744 17996
15744 20771
15745 17074
15745 17755
15745 21863
15746 17017
15746 22330
15747 19547
15750 16394
15750 17616
15750 18710
15751 22124
15751 22770
15751 23198
15752 20617
15753 17419
15753 19913
15753 21673
15754 16082
15754 18460
15755 20090
15757 18380
15757 20177
15758 16028
15759 23529
15759 24326
15760 19318
15761 19196
15762 21861
15763 17224
15763 23542
15764 17207
15765 18683
15765 22668
15766 22873
15766 23261
15766 23601
15767 23786
15767 24053
15768 20584
15768 23965
15770 16474
15770 19303
15771 15802
15773 19329
15774 19167
15774 21637
15774 24404
15776 24057
15778 22242
15780 17216
15780 22397
15781 21795
15781 22307
15782 22849
15784 18494
15785 18417
15786 16949
15786 17935
15786 17941
15786 18403
15786 22872
15788 18152
15789 18047
15789 22621
15790 19172
15791 19956
15792 16898
15793 23080
15794 18178
15795 18831
15795 21109
15796 18835
15796 20962
15796 22933
15797 19901
15797 21123
15798 15991
15798 17687
15798 22156
15799 17757
15800 18426
15801 18288
15802 20541
15803 17048
15803 21527
15804 21872
15805 15830
15805 19644
15806 16053
15807 16714
15807 19965
15809 19242
15809 21701
15810 22439
15810 23690
15811 21355
15811 21724
15812 15880
15812 17171
15813 18257
15814 17830
15814 18856
15814 22140
15816 17992
15816 19318
15816 20107
15817 16703
15818 16770
15818 21392
15818 21568
15818 21823
15818 22303
15818 22885
15819 16532
15821 21301
15822 17817
15822 18844
15822 20329
15822 23437
15822 23444
15823 19898
15824 20305
15825 20692
15825 21537
15826 21556
15827 20534
15827 21737
15828 18796
15828 22045
15828 23009
15829 19318
15829 22025
15832 15837
15833 15837
15833 21496
15834 15836
15834 15837
15834 15838
15834 21496
15835 20966
15838 21229
15839 18806
15839 19567
15840 16267
15840 18719
15840 21614
15841 18498
15841 20798
15842 21452
15842 21770
15843 15844
15846 16994
15846 17511
15847 23925
15848 23671
15848 23765
15849 15850
15849 18827
15849 19806
15849 21494
15850 18827
15850 19806
15850 19807
15850 23199
15851 18961
15852 15854
15852 15858
15852 16887
15852 18029
15853 15854
15853 15855
15853 15856
15854 15856
15854 15858
15854 18029
15855 15856
15855 15858
15855 16887
15856 15858
15856 15859
15856 16887
15856 19663
15857 15859
15857 15861
15857 15862
15857 16889
15857 19663
15858 15859
15858 15861
15858 15862
15858 18029
15858 19663
15858 22802
15858 23642
15859 15860
15859 15861
15859 15863
15859 16885
15859 22802
15859 23642
15860 16889
15860 19663
15861 15862
15861 16889
15861 19663
15861 23642
15862 15863
15862 16885
15862 16889
15862 16890
15862 19663
15862 22802
15863 19663
15864 24403
15865 20986
15866 17100
15866 18121
15866 19379
15866 22393
15867 22664
15868 17561
15868 17727
15868 19151
15868 19191
15868 19345
15868 19686
15868 20139
15868 21084
15868 22085
15868 22246
15868 23834
15869 16130
15869 22462
15870 16130
15870 17539
15870 22462
15870 23316
15871 16208
15871 17513
15871 18436
15871 21167
15872 16459
15873 18000
15873 18338
15873 19520
15873 21620
15874 16738
15874 17683
15876 23434
15877 17411
15877 20144
15877 20170
15877 23039
15878 16698
15879 23999
15879 24053
15881 19398
15882 19776
15883 16461
15883 17756
15884 19382
15885 16712
15886 16689
15887 18998
15888 16683
15888 18865
15889 16684
15889 16690
15891 16685
15892 24016
15893 18260
15893 23137
15894 15895
15894 16683
15896 17847
15899 17511
15900 20905
15900 22728
15901 17924
15901 19733
15901 20976
15902 17120
15902 18859
15904 22913
15905 21626
15906 16582
15907 17646
15908 20344
15909 21844
15912 16202
15912 16392
15912 20085
15912 21196
15912 22169
15912 22923
15914 22730
15915 16377
15916 22334
15917 21635
15919 17610
15919 22893
15919 24024
15922 20059
15923 17642
15924 18937
15924 20163
15924 20933
15924 21066
15925 16780
15925 19518
15926 21134
15928 17899
15929 17939
15929 21480
15929 21613
15929 21835
15930 17028
15930 20831
15931 19830
15931 21897
15931 22876
15932 16076
15933 18672
15934 19662
15934 22572
15935 18172
15935 21681
15936 19353
15936 19672
15936 21344
15937 20107
15937 22287
15939 18202
15939 23412
15940 20116
15944 17470
15944 19797
15944 22370
15944 22796
15945 22437
15946 22128
15947 22463
15948 17213
15948 19428
15948 20683
15950 18873
15950 22034
15951 19826
15951 21235
15952 17984
15952 22193
15952 23253
15953 18940
15953 19026
15953 22680
15954 19178
15954 21393
15954 23380
15956 18117
15956 19525
15956 22952
15958 16457
15958 16567
15958 17589
15958 18510
15958 19022
15958 22329
15959 19006
15959 19331
15960 19054
15961 20122
15962 17305
15963 16873
15963 17399
15963 17817
15963 17837
15963 18866
15963 19858
15963 20329
15963 20581
15963 22147
15963 23437
15964 18286
15964 22116
15965 18918
15965 21152
15965 21719
15965 23531
15966 17033
15966 18696
15966 21242
15967 21133
15967 23094
15968 22565
15971 16789
15971 17653
15971 18234
15972 16169
15973 21262
15974 16933
15975 17946
15975 19316
15975 19757
15975 20996
15975 21089
15975 23019
15976 20793
15976 22601
15978 24078
15978 24325
15979 16568
15979 16923
15980 19027
15980 21503
15981 22240
15982 17693
15982 18258
15984 17134
15984 18437
15984 18809
15985 21696
15985 21944
15986 20899
15986 22106
15987 16488
15987 17927
15987 20885
15988 18379
15988 18654
15988 18837
15988 19291
15988 19367
15989 23418
15991 16014
15991 16842
15991 17478
15991 17687
15991 18507
15991 18560
15991 18949
15991 19198
15991 19700
15991 19941
15991 20127
15991 20487
15991 20567
15991 20638
15991 20672
15991 21164
15991 21579
15991 22156
15991 22717
15992 22053
15993 18769
15993 19935
15993 20533
15995 21958
15995 22195
15997 16631
15997 21131
15997 22859
15997 23644
15998 17102
15998 20094
15999 17037
15999 20888
15999 22604
15999 23197
16001 17402
16001 17918
16001 22511
16002 23259
16003 19656
16004 22363
16005 16763
16005 19600
16005 20674
16006 17440
16006 18162
16007 17761
16007 19348
16007 21480
16007 22312
16007 23218
16009 17948
16010 20572
16010 21074
16010 22102
16011 16270
16012 23258
16015 19052
16015 19834
16016 20669
16016 22086
16017 23330
16020 22341
16021 18867
16021 23557
16023 20360
16024 22315
16026 16659
16026 22248
16028 16816
16029 21074
16030 17593
16031 19529
16033 16035
16033 16048
16033 16057
16033 16058
16034 16040
16034 16045
16034 16057
16034 16058
16035 16058
16035 16062
16036 16040
16036 16045
16036 16047
16036 16049
16036 16058
16037 16051
16037 16060
16039 16040
16039 16044
16039 16049
16039 16058
16040 16051
16041 16057
16041 16058
16042 16045
16042 16049
16043 16044
16043 16046
16043 16047
16043 16061
16043 16063
16044 16045
16044 16046
16044 16049
16045 16046
16045 16049
16046 16047
16050 17350
16051 16065
16053 18557
16054 16115
16054 17063
16054 17297
16054 18147
16054 18439
16054 19033
16054 20510
16055 17058
16055 23435
16057 16058
16057 16060
16057 16061
16057 16062
16057 18007
16058 16060
16058 16062
16060 16062
16063 16065
16065 18007
16067 21944
16067 21989
16068 18680
16069 20179
16069 22732
16071 17233
16071 21150
16071 22921
16071 23466
16072 16148
16072 17803
16072 20324
16072 20432
16072 23340
16073 16859
16074 16075
16076 16300
16076 17086
16076 17127
16076 17324
16076 17403
16076 18089
16076 19624
16076 20168
16076 20285
16076 21632
16079 20321
16080 17687
16085 23108
16085 24298
16086 17711
16086 19073
16086 19835
16086 20815
16087 18988
16087 18989
16087 19996
16087 22452
16088 18631
16088 22365
16089 22937
16090 16631
16091 20458
16091 20636
16093 22757
16094 18493
16094 18681
16096 24170
16097 17890
16097 18104
16097 20134
16097 21267
16098 16908
16098 19755
16099 19066
16101 16452
16102 20554
16103 16110
16103 18775
16103 19962
16103 19963
16103 22225
16104 16111
16104 17095
16104 19963
16104 22225
16105 16111
16105 17095
16105 19963
16105 22225
16106 16107
16107 21083
16108 18528
16109 17046
16110 16111
16110 17095
16110 19963
16111 17095
16111 19962
16111 19963
16113 19004
16113 23861
16114 20172
16115 19033
16115 20510
16116 17635
16116 17781
16117 22138
16118 18645
16118 21993
16119 24189
16120 16317
16121 18565
16121 21609
16121 22196
16122 16547
16122 16937
16122 19937
16122 20959
16123 18457
16123 18531
16123 22016
16125 21711
16126 20664
16127 21638
16128 21140
16129 19887
16129 21995
16130 17539
16130 22462
16131 20509
16131 22793
16132 16865
16132 22140
16133 18527
16133 18978
16134 19164
16134 19753
16134 20955
16135 20300
16135 23573
16137 23304
16138 16724
16138 17084
16138 17832
16138 18584
16138 18860
16138 19498
16138 20363
16138 21327
16138 22223
16139 19742
16139 20473
16140 17444
16140 17446
16141 23770
16141 24273
16144 20691
16144 24349
16145 16758
16145 19530
16146 16167
16146 16480
16146 19819
16147 17462
16147 21262
16148 20432
16149 18631
16152 16153
16152 17444
16152 17446
16152 17448
16153 17444
16153 17445
16153 17446
16154 18943
16156 19988
16156 23121
16157 16495
16157 17187
16157 18384
16157 21462
16158 20659
16159 16947
16159 20608
16159 23402
16162 22785
16164 18587
16164 20640
16164 23102
16165 21684
16166 20306
16166 20533
16168 16975
16168 18141
16168 21211
16169 22377
16171 20420
16171 23258
16172 16359
16173 16453
16173 16869
16173 19749
16174 21554
16175 20899
16175 23131
16176 17642
16179 19318
16179 19682
16180 18782
16181 17824
16181 21765
16182 17527
16182 18616
16182 18955
16182 20259
16183 19066
16183 20417
16183 21058
16184 16706
16184 17716
16184 23464
16186 22120
16188 24275
16189 16736
16189 20585
16191 16735
16191 18790
16191 20590
16191 21465
16193 16423
16193 21654
16193 21927
16194 17096
16194 19564
16194 19890
16194 21270
16194 22308
16195 19813
16196 20335
16196 21060
16197 16201
16197 17327
16197 19876
16197 22760
16198 21257
16198 21660
16199 20389
16199 21205
16199 21513
16200 17316
16202 21196
16202 23287
16202 23414
16203 18843
16203 21396
16203 22816
16204 16205
16204 16206
16205 20024
16206 20024
16207 18853
16208 17513
16208 18436
16209 16847
16211 16639
16211 22586
16212 17642
16212 18680
16213 18113
16213 19573
16214 22365
16214 23502
16215 23679
16215 24260
16215 24261
16216 24048
16218 18588
16219 18114
16219 21501
16220 22164
16221 17180
16221 22863
16221 22997
16221 23118
16222 23813
16222 23912
16222 24078
16223 18522
16223 20972
16223 21053
16223 22493
16223 22919
16224 21401
16226 17260
16226 23319
16227 18886
16228 22972
16230 16491
16230 16826
16230 19440
16234 17683
16234 21367
16236 17465
16236 17466
16236 17467
16239 20629
16240 24191
16240 24194
16241 17785
16241 18998
16241 20107
16242 18661
16243 17083
16243 18144
16243 19130
16243 20243
16244 20272
16245 17044
16245 20182
16245 20194
16245 20452
16245 21481
16246 22056
16247 17207
16247 18677
16248 24306
16249 22053
16250 23952
16250 23999
16251 18846
16252 17278
16252 17475
16252 17902
16252 22113
16252 23614
16253 17031
16253 21031
16253 23458
16254 17362
16254 22956
16254 23793
16255 21123
16255 22008
16255 24348
16256 21827
16257 17248
16257 17495
16257 23551
16258 21599
16259 19270
16263 18580
16263 23096
16264 18580
16264 23096
16265 19751
16265 22447
16266 19178
16266 19822
16267 16636
16268 18925
16268 19866
16269 18083
16269 19974
16269 20954
16271 17237
16271 23098
16272 20990
16272 21899
16272 22597
16273 19562
16274 17249
16274 19455
16274 20573
16275 16362
16275 19084
16275 20925
16275 23028
16278 17438
16278 22385
16278 22713
16279 18246
16279 22163
16281 21359
16283 23317
16284 19090
16285 18178
16285 20397
16286 17841
16286 23195
16287 19318
16288 16648
16288 18812
16288 19334
16288 21600
16289 21658
16290 18362
16290 22027
16291 18882
16291 21763
16292 17749
16293 18737
16293 20313
16297 18463
16299 19318
16299 20107
16300 17403
16300 22591
16303 21181
16304 19304
16304 19368
16304 21761
16305 21658
16305 21664
16307 22295
16308 18984
16309 17268
16309 22535
16310 19827
16311 19797
16311 22796
16312 17094
16312 23032
16313 22287
16314 20162
16317 21171
16317 21406
16317 22492
16318 17959
16318 22069
16318 23112
16319 23949
16319 24321
16320 23305
16320 24408
16321 24446
16322 19332
16322 23088
16323 24221
16323 24222
16324 20824
16324 21927
16325 19981
16325 20622
16327 16861
16327 22227
16327 23422
16328 16394
16328 17616
16329 16619
16331 16943
16331 17151
16332 24029
16332 24225
16333 22349
16334 19218
16336 22053
16336 23028
16337 22885
16339 16911
16339 17244
16339 21338
16341 16733
16341 21385
16342 23535
16343 16852
16343 23327
16345 22323
16346 21120
16346 23156
16347 20568
16347 22053
16349 17961
16349 18210
16349 22271
16349 23167
16350 16555
16350 17707
16351 19200
16351 21577
16351 22417
16351 23006
16352 20128
16352 23372
16354 19319
16355 21149
16358 21821
16360 20776
16360 20964
16362 17498
16364 21598
16365 18371
16366 22366
16366 22367
16366 23371
16367 24200
16367 24225
16367 24312
16368 20363
16369 23765
16369 24374
16371 20107
16372 20137
16373 17343
16374 18608
16374 23582
16375 17117
16376 23929
16377 22560
16378 22238
16378 24048
16378 24154
16379 18346
16379 23276
16380 16754
16381 18193
16381 22246
16382 19537
16382 20037
16382 20235
16383 20401
16383 22858
16383 23103
16384 18580
16386 23738
16386 24254
16387 18286
16387 18375
16387 18998
16388 17942
16389 17767
16389 21700
16390 18416
16391 21020
16392 16921
16393 23792
16393 23945
16394 18710
16395 19066
16396 19987
16397 22770
16399 16862
16399 23141
16400 18870
16400 21009
16402 16525
16403 17631
16403 19355
16404 17305
16404 18782
16404 20107
16405 21821
16405 22914
16406 18983
16406 23766
16407 17674
16407 19022
16407 21834
16408 23188
16408 24349
16410 16469
16411 18967
16412 18388
16412 19252
16412 19372
16412 21422
16412 22415
16412 23062
16413 18181
16413 19404
16413 22635
16413 22637
16414 21748
16416 20554
16416 20866
16416 21502
16416 22671
16417 16750
16420 20445
16420 21381
16421 17124
16421 17778
16421 20044
16423 16659
16423 21654
16424 22791
16425 16782
16425 20544
16425 21076
16426 21011
16426 23459
16427 22416
16427 22624
16428 16506
16429 16687
16429 16962
16430 16963
16430 21256
16431 18632
16434 18447
16434 24414
16435 17712
16435 22338
16437 17238
16439 19720
16441 21910
16441 22689
16441 22694
16443 22744
16444 17003
16444 23982
16445 17003
16445 23982
16447 17818
16447 21722
16449 24123
16452 16657
16452 17435
16452 22927
16454 16626
16454 22716
16454 23663
16455 18355
16455 19040
16455 20355
16456 20326
16457 19839
16459 17814
16459 21470
16459 22477
16460 21042
16461 21538
16461 22641
16461 22662
16462 21891
16463 23719
16463 24318
16464 16845
16464 23473
16466 23784
16466 24135
16468 23023
16469 17336
16469 17999
16469 18269
16469 20098
16469 20619
16469 20723
16470 24129
16470 24458
16471 24008
16472 18665
16472 20879
16472 22101
16473 23780
16473 23931
16474 17971
16475 21487
16479 20129
16479 21872
16483 23604
16484 17436
16486 17243
16486 22239
16488 17050
16489 19560
16489 21626
16491 17697
16492 23170
16493 21150
16493 22921
16493 23563
16494 19024
16495 16950
16495 19815
16495 21400
16495 21462
16496 20306
16497 21554
16497 24490
16499 19129
16499 20299
16499 23450
16500 16854
16502 18713
16504 23449
16504 23496
16505 16932
16505 17619
16506 17638
16506 17708
16506 17882
16506 19216
16506 20351
16506 20873
16506 21627
16506 22656
16506 22695
16510 19215
16513 20418
16513 20431
16514 19719
16514 23058
16515 22856
16516 17270
16517 17002
16517 18237
16517 19318
16517 19412
16517 22025
16518 19923
16519 19602
16519 22599
16520 16614
16520 18442
16520 22844
16522 22664
16522 23722
16523 16727
16523 17684
16523 20497
16524 18470
16526 20385
16527 24199
16527 24225
16528 18514
16528 19484
16529 17924
16529 19733
16529 20433
16532 16868
16533 20558
16533 22614
16535 17163
16535 17992
16535 19083
16535 19320
16535 20508
16535 20947
16535 22383
16535 23049
16536 20176
16536 22540
16536 22812
16537 18718
16537 19042
16537 20003
16537 20651
16540 19564
16541 20370
16541 23047
16542 21299
16542 21300
16543 21674
16544 18851
16545 19149
16546 18036
16546 18434
16546 19014
16546 19495
16546 19656
16546 20340
16547 16937
16548 18463
16548 19433
16548 22670
16548 23228
16549 17933
16552 23459
16553 22287
16555 23255
16556 21614
16557 18822
16557 18824
16558 18012
16559 17373
16559 18500
16559 21072
16560 17345
16561 20075
16562 19221
16563 20991
16563 23054
16565 20986
16570 16926
16570 19141
16570 21804
16571 22979
16572 18096
16572 18759
16572 21364
16572 21748
16573 19966
16573 22501
16574 16978
16574 17865
16576 17333
16576 18852
16576 23326
16577 20984
16578 18584
16578 20715
16578 23245
16579 22820
16580 18334
16580 19957
16580 23242
16581 20718
16581 21287
16582 22762
16583 20114
16583 20271
16584 17564
16584 18061
16584 22353
16584 23138
16586 18433
16586 18633
16587 19388
16588 20503
16588 20570
16589 20001
16590 20640
16590 21856
16592 17320
16592 17904
16592 19208
16592 19910
16593 16897
16593 17132
16593 17565
16593 18221
16593 18430
16593 18594
16593 19554
16593 20037
16594 19196
16596 19196
16598 19576
16598 23429
16599 19583
16601 20495
16602 18798
16602 19386
16604 19421
16604 19450
16605 23729
16605 24032
16605 24446
16607 19639
16607 20542
16607 21626
16608 18559
16608 20189
16608 20441
16608 21796
16609 17046
16610 19358
16611 18612
16611 21633
16612 17526
16612 17990
16612 18045
16612 19212
16612 19568
16612 20842
16612 21634
16612 23386
16614 18442
16615 18201
16615 20845
16615 21580
16615 21814
16616 24383
16616 24473
16617 22972
16618 17162
16618 18163
16618 20512
16619 17801
16619 23450
16620 21614
16620 22156
16622 18692
16623 17220
16623 21348
16624 19361
16624 20377
16625 22914
16626 18270
16627 16809
16627 21682
16628 17000
16628 21283
16629 17755
16630 20629
16630 22371
16631 17328
16631 18513
16631 20286
16631 20449
16631 21131
16631 22859
16631 23644
16632 19181
16633 18006
16633 19811
16634 23452
16635 23415
16636 17383
16637 18494
16638 22627
16639 17337
16639 22586
16643 18900
16643 22053
16644 17180
16644 22389
16644 23118
16645 18109
16646 17871
16646 17878
16647 17255
16647 18761
16647 19917
16647 20938
16647 21733
16647 23454
16648 18812
16648 19334
16648 21054
16648 21600
16649 17681
16649 19736
16649 22214
16650 16678
16650 21438
16652 21965
16653 17502
16653 17605
16653 19888
16653 20372
16653 21754
16653 23207
16654 20640
16654 23888
16656 23912
16658 18154
16660 21658
16662 20007
16662 22583
16663 20471
16664 17263
16664 19779
16664 20520
16665 18476
16665 19609
16666 20017
16667 23377
16668 19730
16669 21508
16669 21721
16669 22499
16669 23555
16670 24177
16670 24239
16672 21688
16672 23243
16673 19513
16676 21339
16676 22719
16677 18998
16677 22005
16677 22116
16679 24303
16679 24484
16680 16781
16680 18554
16680 20296
16680 21333
16680 21452
16683 16684
16683 16685
16683 16688
16683 16695
16684 16685
16684 16694
16684 16695
16684 16696
16684 18865
16684 23134
16685 16696
16685 18865
16686 16693
16686 16695
16688 16696
16689 16690
16689 16694
16692 23400
16692 24087
16693 16695
16695 16696
16697 19689
16698 19613
16698 21336
16698 23154
16700 22436
16703 16952
16703 17433
16703 22747
16705 18555
16705 18852
16707 20791
16707 23254
16708 18053
16713 21535
16713 21972
16713 22109
16713 22965
16716 22969
16717 17766
16718 17054
16719 17651
16719 18938
16719 21307
16719 23212
16721 22138
16722 17336
16722 17358
16722 17515
16722 18267
16722 20440
16724 17520
16724 22223
16725 20989
16727 17684
16727 23010
16728 20094
16730 20144
16731 24233
16731 24284
16732 19588
16736 22435
16737 19064
16737 19563
16737 21586
16738 17683
16738 21367
16739 17198
16739 21962
16739 22569
16739 22916
16739 22980
16740 22069
16741 22702
16743 17469
16744 20205
16744 23542
16746 19386
16746 21033
16747 18070
16747 18218
16747 20701
16747 23089
16748 23098
16752 16928
16752 19348
16753 19046
16753 19979
16755 20534
16756 23007
16756 23008
16756 23152
16757 18494
16758 19530
16758 19776
16758 21221
16758 22946
16759 18189
16759 23430
16761 16762
16766 24339
16767 18117
16767 19525
16767 22952
16768 17447
16768 20211
16768 20580
16769 18547
16770 22716
16772 23153
16773 19537
16773 19554
16774 16967
16774 22405
16776 17436
16776 20680
16777 18686
16777 19634
16777 22205
16777 22266
16777 23136
16778 20660
16779 18573
16780 18311
16780 19203
16780 19518
16781 18332
16781 18550
16781 19637
16782 17748
16783 19229
16783 20266
16783 22589
16785 22636
16786 20702
16788 23260
16789 18234
16789 18390
16790 24217
16791 17724
16792 20466
16793 18962
16794 18331
16795 18593
16795 19553
16795 21286
16795 23248
16796 17896
16796 21982
16797 19381
16797 21437
16798 17735
16798 19744
16798 20390
16799 21501
16799 22188
16800 22473
16801 17413
16801 17545
16801 18429
16801 19252
16802 20298
16802 20665
16802 23388
16805 21209
16805 22315
16806 17339
16808 18512
16808 22391
16809 19622
16809 21682
16809 22425
16812 23329
16817 23542
16818 18658
16819 19052
16819 19834
16820 17033
16821 18849
16822 19318
16822 20107
16823 18631
16823 21219
16823 22365
16823 23620
16824 21484
16824 23306
16824 23326
16827 21414
16828 18732
16829 21619
16829 22156
16829 22421
16834 17512
16834 21787
16834 22759
16835 18804
16836 18822
16836 20370
16836 22133
16837 20358
16838 18561
16839 16841
16839 18155
16840 18580
16842 17687
16844 20484
16845 21928
16847 23056
16849 17643
16849 20204
16849 22939
16850 17428
16850 19171
16852 22938
16854 19406
16856 22088
16857 23369
16858 18617
16858 20626
16858 20639
16858 21013
16858 23500
16860 17305
16860 18782
16860 20107
16861 22227
16862 16864
16862 23141
16863 19499
16863 20021
16863 20866
16864 23141
16865 17830
16865 18199
16865 21569
16865 23602
16866 17494
16866 23653
16868 18526
16869 17153
16870 17017
16870 22330
16871 21918
16872 18659
16873 17837
16873 18866
16873 19858
16873 20581
16874 18146
16877 19942
16877 22685
16878 22984
16878 23093
16882 21010
16883 19824
16883 22592
16884 19806
16884 19807
16884 21494
16885 19663
16886 16889
16886 19663
16887 19663
16888 21505
16889 19663
16889 23642
16890 19663
16891 24350
16893 18512
16894 22621
16896 22824
16897 18594
16897 19554
16898 19944
16898 21905
16900 23608
16901 21593
16902 18970
16902 18999
16903 23910
16903 24398
16905 22156
16906 18900
16906 22053
16907 21173
16908 19755
16909 18087
16909 23146
16911 17523
16913 17938
16916 20760
16916 22125
16917 19729
16918 24384
16919 22307
16920 23668
16920 23935
16921 17101
16921 17953
16921 18030
16921 18899
16921 20919
16921 21615
16921 21852
16921 22311
16922 18900
16923 18018
16924 21369
16924 22627
16926 19141
16926 19413
16926 21804
16927 17163
16927 20443
16927 22855
16927 23349
16928 18110
16928 19348
16928 21959
16928 22312
16929 19066
16929 21178
16930 21009
16930 22913
16931 17479
16931 21854
16931 23508
16932 17619
16932 17911
16932 20503
16932 21328
16933 22473
16934 20963
16936 22152
16937 17920
16937 20959
16938 17752
16940 19234
16940 21113
16940 23433
16941 23060
16943 17151
16943 21161
16944 18436
16944 20456
16945 22547
16947 20608
16948 17248
16948 20110
16948 21279
16949 17935
16950 19962
16951 18568
16952 22747
16953 23621
16954 17548
16956 18345
16956 20394
16956 21563
16957 18631
16957 20718
16958 22685
16959 16963
16961 17698
16961 20537
16963 23078
16964 23369
16966 20179
16967 23459
16970 22202
16971 19506
16972 21152
16972 21719
16973 18297
16974 18271
16975 18141
16976 20123
16976 20652
16977 19028
16977 20549
16978 17865
16978 17891
16978 18176
16978 20099
16978 20314
16978 21271
16978 21798
16979 21062
16979 22034
16980 22691
16981 19293
16981 19722
16982 18712
16983 18469
16983 22552
16984 24142
16984 24347
16984 24456
16985 17856
16985 19114
16986 21134
16991 17948
16991 19005
16992 19371
16993 19887
16993 22805
16994 17177
16994 20579
16994 21227
16994 21420
16994 21946
16994 22459
16995 18841
16995 18948
16995 21460
16995 21574
16996 18048
16996 22627
16997 21283
16999 19202
16999 20913
16999 21455
17000 18902
17002 19318
17002 22025
17003 19604
17004 21595
17005 19447
17005 21081
17005 21964
17006 17116
17006 17168
17006 17657
17006 18266
17006 21263
17007 20038
17007 23786
17008 18256
17008 20060
17008 23720
17010 18202
17010 20634
17010 23412
17011 20040
17013 21256
17014 18580
17014 23096
17015 21666
17016 18601
17018 23022
17018 23304
17018 23429
17020 17212
17020 21690
17021 17854
17021 21744
17021 22639
17023 18846
17024 20319
17025 18567
17025 21226
17025 21732
17025 23574
17029 20576
17029 21251
17030 19563
17030 21926
17032 22117
17033 21242
17034 19367
17034 20241
17035 17657
17036 18884
17037 19868
17037 20888
17039 22741
17039 23961
17040 19161
17040 19976
17041 18432
17042 20985
17042 22193
17043 20009
17043 21121
17043 22580
17044 20452
17045 18371
17047 17157
17047 21193
17047 22548
17047 23428
17048 18262
17049 19579
17049 20350
17049 21234
17049 22353
17049 23138
17050 20819
17050 20885
17050 23263
17053 20265
17056 18059
17056 18485
17056 23224
17057 18059
17057 23226
17058 19821
17059 17656
17060 23079
17061 18912
17061 21012
17062 18631
17062 22561
17064 17706
17064 20156
17065 21834
17066 22436
17067 20836
17068 21222
17069 24182
17070 20401
17070 23103
17071 18298
17071 19843
17072 20451
17072 23513
17073 23735
17074 20592
17074 21434
17074 21863
17075 18111
17075 23335
17076 23765
17076 24374
17077 17669
17077 20352
17077 20772
17079 21083
17080 18328
17082 20980
17083 17992
17083 19318
17084 18681
17084 20378
17088 18782
17089 20553
17090 20114
17090 20271
17091 20284
17091 21375
17092 19659
17094 18605
17094 22857
17094 23032
17095 18775
17095 19962
17095 19963
17096 18064
17096 18631
17096 18765
17096 19890
17096 21311
17096 22365
17097 18631
17098 17264
17099 21556
17099 22156
17100 19613
17104 18580
17108 24436
17109 21981
17110 23599
17111 17643
17111 19518
17111 22908
17113 19660
17114 22744
17115 21419
17116 17657
17118 22364
17118 23371
17120 22840
17121 17883
17122 22984
17124 21512
17128 18465
17128 20608
17128 23402
17129 17139
17129 18294
17129 20821
17130 20391
17132 19554
17132 20037
17133 17635
17135 20376
17135 22287
17136 20536
17137 17353
17137 17860
17137 19933
17137 21431
17137 23003
17138 23200
17139 20821
17140 17973
17140 22293
17140 22515
17141 18307
17141 20161
17141 21184
17142 22861
17143 18900
17143 22053
17144 22053
17145 19084
17145 20925
17145 22868
17145 23028
17146 21635
17146 22315
17147 21505
17149 19063
17150 19317
17151 19271
17152 18032
17152 18250
17152 19255
17154 20866
17156 22835
17156 22994
17156 23763
17158 23354
17159 22609
17160 23036
17160 23705
17161 20062
17161 22352
17162 17562
17162 18013
17162 20444
17162 21881
17163 17371
17163 18166
17163 19527
17163 20377
17163 20714
17163 23232
17163 23349
17163 23492
17164 21556
17165 22179
17166 19318
17167 19308
17169 17771
17172 18467
17175 19378
17177 17511
17180 19209
17180 19991
17180 22389
17180 22863
17180 22997
17180 23118
17181 23647
17182 20679
17183 17858
17183 18025
17185 17216
17186 22955
17187 17188
17187 19455
17188 20573
17192 19235
17192 24008
17193 19318
17194 18195
17194 18770
17194 23182
17195 19125
17196 23451
17197 18935
17199 19318
17200 23571
17202 17491
17204 19227
17206 22003
17207 17407
17207 23544
17208 19964
17210 21256
17211 20361
17212 20086
17212 21766
17213 20683
17213 23201
17214 17965
17214 19994
17214 22709
17215 19677
17215 21198
17216 21962
17216 22087
17216 22397
17216 23645
17218 24273
17222 23800
17222 24100
17222 24187
17223 24302
17223 24409
17224 17721
17224 21846
17224 22072
17224 22565
17225 18545
17225 20816
17225 24315
17226 19029
17226 20992
17226 21044
17226 22024
17227 17592
17227 21141
17227 21616
17228 21636
17229 19148
17229 23369
17230 18917
17231 20669
17233 23466
17234 21398
17235 23345
17236 20301
17237 23098
17238 18265
17238 21462
17239 20718
17239 22667
17240 19247
17240 19478
17242 17509
17242 19774
17242 23154
17243 22821
17244 17523
17247 24140
17248 17495
17248 18076
17248 19293
17248 19377
17248 19722
17248 20110
17248 21279
17248 23157
17248 23457
17249 18369
17250 19194
17250 19472
17251 21817
17253 19588
17257 19333
17258 21133
17258 23622
17258 23932
17259 18236
17260 17617
17262 18846
17262 19973
17262 21594
17262 21655
17264 18068
17265 23135
17265 24006
17265 24275
17267 20344
17268 22535
17270 20649
17270 22465
17272 21770
17273 21326
17274 17861
17274 18754
17274 21350
17274 22218
17274 23163
17276 19570
17276 22292
17277 21702
17277 22724
17278 17475
17278 17514
17278 17902
17278 18817
17278 20455
17278 20473
17278 20511
17278 22113
17278 22976
17278 23614
17279 21740
17280 17531
17281 21379
17282 18641
17282 19910
17282 20191
17283 18918
17283 23153
17284 19279
17284 20756
17285 19198
17285 21225
17287 18581
17287 20209
17287 20860
17288 17289
17288 23165
17289 19871
17289 23159
17291 21029
17292 19181
17293 21711
17294 19260
17295 23970
17296 17440
17296 18162
17297 18031
17297 18516
17297 20510
17300 18114
17300 22188
17301 17419
17301 21673
17301 22006
17302 23513
17303 22143
17305 17586
17305 17645
17305 18015
17305 18112
17305 18252
17305 18546
17305 18782
17305 19116
17305 19187
17305 19349
17305 19734
17305 19900
17305 19923
17305 20107
17305 20212
17305 20863
17305 21028
17305 21539
17305 21597
17305 21945
17305 22065
17305 22640
17305 22856
17305 23249
17305 23275
17305 23554
17306 18800
17307 17884
17308 17943
17309 17936
17309 17943
17310 17936
17310 17943
17310 23114
17311 17935
17312 22505
17312 23114
17314 17317
17314 17979
17314 20325
17314 20326
17315 17319
17317 17318
17317 20323
17317 20325
17317 20326
17318 17979
17318 20325
17318 20326
17320 18072
17320 23052
17321 20376
17321 22287
17322 17773
17322 17961
17322 21786
17322 22066
17322 22787
17322 23167
17323 20328
17324 20431
17324 21443
17325 18844
17326 18500
17326 21072
17327 19716
17327 22760
17331 20845
17331 21814
17332 21170
17333 18852
17333 22222
17333 23826
17334 19239
17334 20210
17334 20916
17334 21368
17335 18058
17335 18846
17335 19973
17338 20216
17338 21624
17340 18331
17340 19487
17340 22092
17341 19272
17345 18245
17345 18795
17347 19513
17347 19623
17347 20684
17347 21622
17348 20870
17348 23638
17348 24164
17349 20711
17349 22866
17351 19808
17351 22232
17351 23166
17352 18158
17352 19808
17352 23166
17353 17860
17353 19369
17353 19933
17353 20384
17353 21431
17353 23003
17355 17356
17355 17357
17355 21783
17356 17357
17357 22628
17359 21401
17359 23126
17361 18113
17361 21438
17364 18662
17367 21009
17367 22913
17368 18967
17368 19629
17368 23755
17369 17542
17369 20789
17369 21088
17369 23460
17370 23515
17371 23492
17372 18311
17372 19518
17372 22908
17373 17482
17373 18500
17373 21072
17374 18386
17374 20117
17375 20101
17375 20717
17376 18631
17379 21787
17380 23282
17381 19181
17382 20504
17382 20637
17384 21061
17384 21474
17384 21985
17384 22675
17385 21686
17386 18632
17386 19364
17387 17740
17387 21890
17388 18917
17389 22953
17389 23420
17389 24159
17390 17411
17391 19536
17391 21577
17391 22417
17392 21402
17393 20394
17393 21560
17393 21561
17393 21562
17393 21563
17394 21842
17394 23665
17394 24414
17395 20331
17395 20885
17395 21530
17396 24208
17396 24263
17397 23083
17399 18844
17399 18866
17400 20239
17400 20763
17402 17763
17402 17918
17404 17926
17405 22958
17407 18677
17408 19742
17408 20473
17409 21721
17409 22499
17411 17627
17411 19101
17411 19589
17411 20144
17411 20170
17411 21640
17411 22203
17411 22361
17411 23236
17412 22761
17412 22831
17413 18388
17413 19252
17413 22415
17415 22941
17416 20349
17416 20802
17417 23544
17418 23136
17419 19913
17419 21673
17420 17598
17423 24053
17424 18214
17424 21527
17425 23160
17427 21384
17428 19174
17431 24008
17432 23092
17436 23328
17437 17884
17437 17958
17438 22385
17438 22713
17438 22838
17439 20851
17439 21817
17440 18162
17441 18631
17441 21029
17442 20771
17444 17445
17444 17446
17444 17448
17445 17446
17446 17448
17447 18632
17447 19364
17447 20125
17447 20211
17447 20973
17449 18975
17449 20364
17449 21464
17450 20279
17451 17729
17451 18641
17451 20191
17451 21882
17452 17454
17453 17454
17453 20583
17453 23278
17453 23527
17457 18750
17457 21073
17459 20349
17460 23214
17461 17462
17462 17659
17462 17660
17462 21755
17462 21756
17465 17466
17465 17467
17466 17467
17467 17468
17470 19797
17472 21635
17472 22315
17473 22037
17474 18059
17474 18485
17475 17902
17475 19362
17475 20473
17475 22113
17476 18059
17476 18485
17477 17807
17479 23508
17480 22909
17480 23943
17482 18500
17482 21072
17482 22655
17484 20925
17485 19318
17486 21008
17487 19050
17487 21723
17488 20296
17489 22904
17490 23193
17490 23748
17492 23506
17494 21587
17495 23551
17496 18846
17498 20568
17498 20700
17498 22868
17500 21257
17501 19484
17502 17605
17503 19371
17503 23369
17504 22461
17507 20272
17508 17985
17511 20379
17511 20579
17512 21787
17514 20511
17514 22113
17514 22976
17516 17518
17517 19500
17517 22927
17518 18536
17518 22860
17519 19931
17520 19498
17520 22223
17520 23245
17522 23388
17525 17790
17525 17896
17525 18008
17525 21982
17527 18955
17527 22740
17529 19912
17529 21049
17530 17713
17530 17846
17532 21072
17533 23802
17533 24309
17535 20878
17536 20617
17537 22053
17538 17759
17538 18133
17538 21370
17540 18262
17540 21527
17541 17626
17541 19772
17541 22398
17541 22746
17543 24321
17544 18281
17545 18388
17545 19252
17545 19610
17545 22415
17546 19736
17546 20157
17546 23238
17547 17912
17547 21061
17548 21362
17549 21944
17550 21858
17551 20585
17552 20123
17552 20652
17553 18631
17555 19583
17556 21468
17560 22555
17561 18193
17561 19191
17563 18690
17563 23337
17564 23138
17565 19554
17566 18896
17566 19506
17566 20816
17566 24315
17567 21358
17569 23326
17570 17669
17571 22287
17573 19661
17574 24213
17574 24347
17574 24456
17576 17621
17576 18148
17576 19620
17577 22768
17577 23133
17578 20925
17579 18703
17581 18914
17581 22344
17582 20827
17583 20485
17583 22890
17584 18001
17584 23072
17590 23030
17591 22537
17592 20081
17592 21141
17593 20534
17593 21737
17594 18622
17594 19580
17594 22834
17598 18041
17598 23210
17599 19171
17599 19172
17599 19174
17601 21711
17602 22087
17603 20928
17606 18648
17606 20653
17608 21011
17610 22893
17610 23417
17610 24024
17611 18057
17611 20847
17613 19194
17613 23082
17614 21257
17614 21660
17616 18710
17616 21966
17617 19182
17617 23319
17618 19344
17618 21046
17618 22361
17619 20570
17619 21328
17620 18097
17621 19620
17621 23461
17624 18908
17624 19590
17625 17855
17625 19009
17625 19811
17625 21886
17626 22746
17627 23236
17629 21339
17629 22719
17630 19302
17630 20371
17630 21681
17630 21820
17631 19355
17631 21139
17631 23745
17633 18675
17633 21974
17634 17709
17634 23596
17635 17935
17636 17741
17636 18663
17636 23223
17637 18455
17637 22231
17637 23038
17638 18631
17638 20718
17639 18692
17641 21049
17642 18936
17642 22130
17642 22208
17643 20204
17643 22939
17644 24200
17644 24246
17645 22856
17646 18046
17646 18637
17646 19100
17646 19653
17647 17763
17647 17796
17648 20096
17648 23539
17649 22376
17650 19367
17650 20241
17650 20869
17651 18938
17652 19287
17654 22152
17657 19088
17657 20541
17657 21263
17659 17660
17663 19553
17663 23248
17664 20503
17665 19340
17665 20691
17665 23111
17665 23188
17665 23311
17665 24349
17666 18870
17666 22913
17667 19874
17668 19318
17669 17846
17669 24000
17669 24184
17669 24431
17669 24437
17670 17671
17670 19578
17671 17672
17671 19578
17672 23649
17673 21256
17674 17746
17675 18573
17678 20572
17679 19124
17681 21014
17682 22514
17683 21367
17684 19694
17684 21882
17685 19063
17687 17853
17687 18560
17687 18997
17687 19198
17687 19565
17687 19572
17687 19802
17687 19905
17687 20487
17687 20567
17687 22004
17687 22370
17689 21332
17689 23429
17691 24206
17692 19062
17693 19886
17693 20717
17694 18093
17694 20788
17695 18355
17695 19040
17695 20554
17696 19314
17696 19954
17696 23028
17697 18518
17697 20869
17697 21356
17697 23475
17698 20537
17698 20868
17699 19766
17700 21875
17703 18543
17704 18574
17704 21918
17705 18593
17705 23248
17707 23255
17708 23380
17709 20220
17709 22294
17709 23596
17710 21793
17711 20722
17712 18735
17712 19681
17712 20854
17712 22338
17712 22981
17714 19337
17716 19124
17716 23464
17719 20905
17719 21441
17719 22500
17719 22728
17720 20155
17721 22072
17721 22565
17722 18114
17722 18551
17722 20474
17723 17857
17723 21455
17724 18699
17725 23921
17725 24197
17727 19191
17728 20835
17728 21875
17729 19910
17730 18452
17730 19421
17730 19450
17730 21742
17731 23542
17732 19186
17733 19502
17733 21397
17734 17736
17734 17737
17734 20932
17735 19708
17735 19744
17735 20390
17735 21156
17736 21496
17736 22098
17737 20932
17737 21496
17737 21877
17737 22098
17738 20157
17738 21360
17738 23441
17740 21785
17740 21890
17741 18663
17741 23223
17745 18900
17746 17966
17748 20544
17749 18353
17749 18698
17749 19625
17749 19794
17749 19892
17750 19971
17750 23000
17751 19353
17751 21344
17752 18216
17752 18910
17752 20556
17752 21598
17754 18061
17754 21234
17754 22353
17755 21863
17756 22641
17758 19620
17758 21110
17758 21248
17758 22187
17758 23461
17760 23772
17760 23797
17763 17810
17765 18682
17765 18846
17765 19309
17765 19351
17765 20733
17765 21160
17765 21475
17765 21655
17766 19549
17767 21891
17767 22752
17767 23366
17770 21603
17770 22033
17770 22035
17771 18240
17771 19919
17773 19732
17773 21165
17773 21437
17773 22153
17773 23259
17775 18789
17776 18892
17776 19804
17777 17786
17777 22334
17780 21409
17781 18245
17781 19945
17781 20921
17781 21752
17781 22516
17783 19258
17783 19669
17784 23098
17785 19371
17786 21350
17787 22662
17788 19739
17788 22994
17789 18781
17790 17896
17792 19415
17792 23504
17799 18311
17799 19518
17800 21520
17800 23298
17802 19997
17804 18834
17805 22005
17805 22116
17806 20558
17807 19343
17807 21984
17807 22715
17808 24071
17811 23813
17811 23833
17811 24078
17812 18366
17814 21470
17815 22127
17815 23392
17815 23492
17815 23900
17816 20855
17817 18844
17817 23437
17818 21714
17818 21722
17820 19564
17820 22292
17821 19016
17821 20023
17821 22255
17822 18302
17823 23970
17823 24434
17823 24460
17824 18005
17824 20751
17824 21765
17824 22217
17825 19123
17826 24083
17827 20763
17828 21640
17829 19066
17830 18199
17830 18856
17830 21915
17830 22140
17830 23651
17831 24176
17831 24196
17831 24225
17832 22270
17834 21384
17835 19714
17837 18844
17839 18156
17839 19864
17840 17841
17841 19710
17842 23195
17844 17871
17845 18774
17845 20142
17845 22686
17846 20282
17847 18590
17847 20492
17847 20504
17848 21710
17848 23519
17849 18238
17850 20647
17850 23450
17851 17951
17854 22063
17854 22639
17856 19114
17856 21715
17857 21087
17858 18025
17858 20673
17860 18943
17860 19369
17860 19927
17860 19933
17860 20384
17860 21431
17861 19310
17861 23215
17862 19708
17862 19744
17863 19787
17864 19462
17864 19757
17864 23019
17865 17891
17865 18176
17865 20314
17865 20381
17865 21271
17866 19932
17866 21410
17866 22692
17867 18908
17868 21953
17869 22386
17870 19296
17870 20303
17871 17878
17871 18930
17872 20249
17872 21269
17874 19897
17875 21740
17876 20152
17876 20202
17876 23407
17877 18364
17877 21449
17879 20660
17880 19988
17883 19874
17883 20678
17883 21999
17883 22068
17883 22231
17883 23050
17883 23370
17884 17958
17886 22323
17887 21288
17889 23652
17889 24363
17890 22173
17891 19118
17892 24016
17892 24043
17892 24217
17892 24452
17893 19788
17895 20931
17895 22498
17895 23747
17896 18008
17896 21982
17897 18889
17897 20476
17898 20069
17899 18241
17902 19362
17902 20473
17902 22113
17902 23614
17903 18708
17904 19910
17905 20814
17905 23307
17906 20160
17906 20788
17906 22274
17907 24340
17909 21181
17912 22675
17913 18935
17913 20957
17914 24169
17915 19294
17916 18859
17917 22860
17919 18174
17919 20761
17919 21631
17921 18106
17921 18529
17921 22030
17921 22031
17922 21239
17922 22078
17922 22690
17923 18515
17924 19733
17924 20976
17925 18179
17925 18857
17927 23230
17928 18129
17929 22707
17932 24386
17933 23705
17935 17941
17936 22505
17937 20651
17942 18194
17943 20324
17945 19035
17945 19969
17946 20996
17949 18631
17949 19865
17949 22561
17950 20409
17951 23189
17952 23945
17952 24276
17955 21614
17956 22630
17957 22281
17958 22358
17959 22069
17960 20067
17960 23204
17961 19945
17961 21752
17961 22066
17962 22159
17964 18107
17964 20067
17965 22709
17966 21834
17968 19121
17968 20480
17970 23284
17972 18828
17974 19515
17975 19063
17975 20049
17977 20795
17978 19284
17978 21005
17978 21330
17978 22780
17978 22806
17978 22951
17979 20325
17979 20326
17980 20180
17980 21556
17980 21614
17981 19052
17981 19418
17981 19834
17981 21408
17982 23235
17982 23409
17982 24154
17983 19208
17983 19910
17983 20191
17984 20594
17984 20852
17984 23253
17986 19198
17988 21000
17989 20650
17990 18045
17990 19568
17990 19805
17991 19935
17991 20533
17992 18144
17992 19187
17992 20202
17992 20443
17992 20472
17992 20863
17992 21028
17992 22654
17992 23407
17994 18856
17995 19224
17996 20771
17997 19005
18000 18338
18000 21620
18001 18170
18001 22320
18001 23031
18001 23214
18002 23372
18003 18426
18003 20289
18004 18534
18006 21731
18010 22053
18011 18822
18011 20984
18013 21881
18017 23345
18019 21614
18020 19695
18020 23598
18022 19380
18022 23515
18022 23851
18022 23934
18023 22436
18026 18345
18026 21560
18026 21563
18028 20500
18030 21852
18031 18439
18031 18516
18031 19033
18031 20510
18033 19348
18035 23730
18038 20210
18038 22728
18039 19539
18040 19283
18040 20486
18041 22729
18042 23358
18047 22621
18048 20301
18050 20717
18050 20732
18050 20817
18050 22391
18053 18506
18053 22179
18053 22228
18054 22044
18054 23497
18056 20660
18058 19361
18058 21935
18058 22804
18058 23225
18058 23302
18059 18483
18059 18485
18059 18486
18059 23224
18059 23226
18061 18562
18061 18934
18061 21234
18061 21463
18061 22353
18061 23138
18062 22381
18064 18391
18064 18631
18064 21311
18065 21582
18065 22063
18065 23360
18067 23955
18069 23912
18069 23961
18070 23312
18071 21324
18072 21112
18073 18675
18074 21637
18077 19731
18077 21116
18077 21923
18077 23373
18079 21419
18081 19432
18083 19974
18083 20954
18084 18827
18085 18261
18085 20718
18085 21894
18087 23146
18088 20157
18091 19010
18092 18139
18092 24137
18093 20160
18093 22274
18094 18548
18094 22683
18094 23123
18096 18248
18096 18759
18097 18659
18099 21234
18099 21612
18100 18168
18100 19600
18102 18453
18103 19728
18104 19238
18104 20425
18104 23308
18105 23204
18106 22030
18106 22031
18107 20067
18107 22505
18108 18782
18108 19923
18109 20509
18111 21207
18111 23229
18113 21438
18114 18551
18114 21501
18114 22188
18115 18425
18116 19126
18116 21954
18118 21893
18119 19554
18119 21380
18120 18714
18120 22212
18123 20845
18125 19317
18127 21640
18128 18263
18128 20586
18130 20533
18132 21724
18132 22966
18133 21370
18133 24066
18134 18166
18136 19809
18136 20481
18137 18859
18137 20536
18140 18678
18140 21868
18141 21211
18142 20879
18142 22079
18142 22096
18142 22101
18143 19981
18144 19318
18148 23461
18150 22481
18151 20161
18151 21184
18153 19867
18156 19864
18156 23263
18156 23276
18157 20219
18158 18656
18159 23912
18160 23542
18161 19879
18161 20545
18161 22998
18164 19584
18165 18840
18166 19336
18166 20202
18166 20714
18166 21937
18166 22052
18166 23200
18167 24225
18168 19513
18168 20768
18172 20516
18173 19645
18174 20761
18178 19497
18178 20375
18178 20397
18178 23541
18179 21008
18180 24286
18181 19404
18181 22637
18181 23606
18184 23765
18184 24007
18185 23896
18185 24148
18186 22095
18187 23729
18187 24032
18188 23692
18188 24483
18189 20404
18189 23430
18191 21585
18191 23006
18192 18901
18193 19151
18193 19191
18193 19345
18193 19980
18193 20373
18193 20389
18193 20965
18193 21084
18193 21094
18195 18770
18195 19243
18195 23182
18196 21201
18198 19034
18199 23602
18200 20505
18201 21814
18202 20116
18202 20198
18202 20634
18202 21901
18203 20634
18205 18208
18205 20174
18205 22632
18205 23347
18206 18916
18206 19931
18207 18275
18207 19278
18207 21320
18208 20174
18208 22632
18208 23347
18209 22948
18210 19732
18212 20304
18213 22771
18214 21527
18214 22708
18217 19346
18217 23234
18218 24400
18219 22543
18220 18630
18220 21346
18220 22931
18221 19554
18221 20037
18221 20235
18222 19575
18223 19597
18223 20111
18223 20343
18223 21290
18224 18225
18225 18226
18227 18750
18227 21073
18232 18777
18232 21426
18233 18984
18233 19711
18234 22527
18235 21132
18235 23172
18237 19318
18237 22025
18239 21681
18241 20057
18241 23929
18243 19247
18243 19478
18244 19084
18244 20925
18245 20921
18246 18724
18246 19254
18246 20272
18246 22163
18247 19447
18247 21964
18247 22755
18248 19080
18248 21748
18249 21792
18251 19169
18256 20060
18256 23621
18257 19642
18257 21575
18257 22143
18258 20717
18259 22344
18260 19294
18261 20850
18261 21442
18261 21894
18261 23549
18263 20586
18264 20573
18268 24012
18268 24225
18270 22710
18273 19255
18275 19278
18276 19968
18276 23356
18276 23711
18279 24172
18280 19780
18281 18412
18282 19930
18282 20896
18283 18299
18283 18771
18283 22622
18284 22748
18284 24220
18286 18375
18286 18928
18286 18998
18286 22060
18286 22116
18286 22177
18286 22423
18287 19564
18287 22365
18289 19659
18291 18861
18292 19198
18293 21649
18294 18296
18295 18296
18296 20821
18298 18854
18298 19843
18299 18771
18299 21663
18299 22123
18300 22836
18304 22048
18305 21240
18309 22335
18310 19554
18311 19203
18311 19518
18311 19998
18311 22908
18313 23813
18313 23947
18314 19748
18316 23266
18319 19318
18320 19966
18320 22501
18321 24016
18321 24043
18321 24217
18321 24452
18322 21491
18323 18519
18324 19561
18325 18993
18326 23217
18326 24407
18328 21456
18330 23962
18332 20245
18332 21556
18332 21640
18333 20702
18333 23400
18333 23887
18333 24038
18333 24087
18334 19390
18334 19479
18334 19957
18334 20013
18334 23242
18335 20462
18336 20790
18336 22513
18337 22879
18339 18608
18339 23582
18340 18341
18340 18343
18340 22880
18341 18343
18341 20131
18341 21729
18341 22760
18341 22880
18342 19198
18342 21725
18342 22156
18343 20130
18343 21125
18343 22880
18344 18737
18344 20213
18345 21561
18345 21563
18346 23276
18348 21544
18348 21642
18349 18603
18349 22464
18351 23725
18351 24261
18352 18708
18354 21700
18354 21891
18355 18609
18355 19040
18355 20356
18355 20357
18355 20554
18355 20857
18356 19038
18356 20356
18356 23498
18357 18358
18357 19038
18357 19040
18357 20355
18357 20356
18357 21583
18357 23036
18359 22081
18359 22938
18359 23327
18359 23524
18361 22701
18362 21180
18364 18909
18364 20540
18364 21449
18368 20309
18369 20573
18371 18744
18371 19825
18371 20737
18371 22070
18371 23431
18372 19869
18372 19881
18372 20499
18372 21988
18372 22531
18372 22995
18373 23515
18374 20847
18374 23515
18375 18928
18375 18979
18375 18998
18375 21873
18375 21932
18375 23100
18376 19438
18376 21907
18379 22943
18380 20177
18380 20884
18380 22571
18381 21413
18381 21911
18382 20941
18383 21702
18385 18732
18386 20117
18387 20165
18388 18429
18388 19252
18388 19372
18388 21422
18388 22415
18392 20503
18393 21798
18394 24201
18394 24341
18394 24464
18396 24458
18397 22622
18399 18494
18400 20928
18400 22318
18401 18732
18401 20107
18401 21658
18402 18991
18404 22848
18405 19198
18405 21225
18408 24102
18408 24344
18408 24434
18409 18410
18409 18411
18410 18411
18414 21100
18414 21317
18414 23529
18414 24407
18417 19647
18420 18820
18421 18938
18421 22289
18421 23212
18422 18962
18423 19436
18423 20502
18424 18485
18424 23226
18427 18967
18427 19629
18427 23561
18429 22415
18430 19193
18430 19463
18430 19554
18430 20104
18431 20589
18432 19157
18432 23343
18434 20591
18434 22777
18435 21673
18435 21913
18438 24283
18438 24485
18440 18689
18442 20914
18442 22844
18445 22382
18445 23925
18446 20455
18447 20900
18447 23631
18447 24100
18449 24014
18450 22574
18451 19893
18451 23652
18452 19421
18453 20199
18453 22167
18454 19735
18455 19140
18455 22231
18455 23038
18456 19010
18458 22216
18459 23369
18459 24109
18461 20898
18461 24344
18462 23729
18462 24446
18463 22670
18465 20608
18465 23402
18466 20290
18466 20459
18466 23200
18469 22552
18471 22154
18472 18485
18473 21525
18474 19127
18474 19850
18476 23025
18477 21683
18477 22832
18479 21045
18480 18501
18480 19594
18481 20493
18481 20663
18482 21635
18482 22071
18483 18484
18483 23224
18484 23226
18487 18760
18487 22730
18489 19411
18490 19381
18491 18617
18491 19301
18491 21013
18492 23431
18493 20378
18493 21130
18494 20564
18495 23116
18496 24129
18496 24173
18496 24458
18497 19490
18498 20798
18500 20042
18501 21162
18502 23784
18502 24223
18502 24285
18503 19558
18503 20604
18504 20694
18504 21698
18505 21107
18508 20415
18508 22170
18510 22329
18511 19283
18514 19484
18515 21190
18515 22485
18516 18875
18516 20510
18517 22025
18518 21404
18519 22141
18521 23784
18521 24285
18525 20869
18525 23475
18527 21700
18527 21917
18527 22501
18529 22030
18529 22032
18532 23655
18533 24213
18533 24347
18534 19674
18534 22154
18536 19820
18538 20370
18540 24306
18541 23886
18541 24019
18542 18964
18543 21306
18544 18706
18544 21949
18545 19506
18548 22403
18548 22683
18548 22852
18550 21556
18551 20858
18551 21501
18551 22188
18552 20379
18553 23802
18553 23955
18553 24309
18555 18852
18557 18656
18558 19129
18559 20189
18559 20771
18561 18733
18563 20575
18565 18926
18565 21609
18565 22196
18567 21226
18567 22716
18569 20434
18569 21241
18569 22002
18571 20584
18571 23131
18572 23546
18574 21918
18575 20272
18575 22163
18578 24412
18579 18900
18579 21230
18580 19646
18580 21565
18580 23024
18580 23096
18581 20209
18583 21603
18583 22035
18584 19483
18584 20079
18584 22369
18587 23888
18588 21386
18588 23183
18590 20492
18591 19171
18591 19173
18591 19174
18592 23689
18592 24270
18592 24378
18593 19617
18593 21286
18594 21137
18595 18902
18595 19859
18596 18985
18596 20614
18599 22344
18600 19179
18602 20220
18602 23596
18603 22355
18604 22078
18604 22690
18605 21102
18605 22778
18607 18824
18608 23582
18609 20356
18609 20554
18610 18768
18610 19094
18610 19154
18611 20134
18611 23308
18613 21169
18613 22833
18615 23940
18615 24422
18616 18955
18616 20259
18617 21013
18618 23862
18620 19171
18621 19196
18621 20517
18622 19580
18623 19069
18626 19806
18626 21936
18626 23199
18627 19725
18629 20997
18630 21346
18630 22931
18631 18721
18631 18765
18631 19001
18631 19002
18631 19018
18631 19846
18631 19865
18631 20892
18631 20901
18631 21270
18631 21287
18631 21311
18631 21803
18631 21822
18631 21956
18631 22292
18631 22365
18631 22437
18631 22801
18631 23344
18631 23549
18632 19364
18632 20125
18632 20211
18632 20973
18636 23354
18636 24012
18636 24312
18638 19196
18638 19956
18638 20517
18641 19910
18642 22329
18644 20759
18644 20805
18646 19687
18647 19979
18647 22648
18648 21671
18649 21672
18650 20900
18650 24100
18651 22696
18652 23721
18653 19138
18654 18837
18654 19291
18654 21925
18655 23668
18656 18834
18659 20346
18660 20207
18661 22365
18663 23223
18665 18689
18665 19475
18667 22885
18668 24053
18670 22844
18673 19318
18673 22025
18674 20404
18677 21029
18678 19995
18678 21773
18678 24250
18680 18936
18680 19145
18680 19280
18681 21130
18682 18846
18684 23925
18686 19648
18686 23136
18688 21507
18689 19224
18689 21118
18690 23337
18691 23922
18691 24164
18691 24427
18692 20677
18692 21231
18692 23754
18692 24295
18693 21658
18694 22157
18695 20402
18696 21242
18700 23328
18700 23693
18702 20006
18702 20680
18704 22993
18705 18720
18705 21832
18706 21949
18709 19085
18711 20921
18712 22335
18714 22212
18716 20100
18716 22392
18716 24061
18717 22469
18717 23210
18718 22597
18719 21614
18721 23413
18722 21933
18722 22905
18723 21268
18723 22906
18726 19988
18726 22913
18727 20732
18727 22391
18728 19706
18728 20361
18729 23507
18732 20201
18732 20753
18734 22053
18735 23730
18736 20787
18738 19227
18741 19653
18742 20261
18742 23146
18743 22138
18745 19603
18745 21097
18746 21620
18747 22138
18750 21073
18751 22454
18754 19310
18754 23215
18756 18908
18758 20492
18759 21364
18759 21748
18760 20233
18760 21745
18761 19917
18761 20225
18762 23731
18762 23798
18762 24416
18763 21553
18764 20764
18764 22007
18765 19564
18765 22365
18766 21002
18767 24473
18768 19094
18770 23182
18771 20215
18771 21282
18771 22123
18771 22613
18771 22622
18772 19438
18773 23427
18774 22834
18775 22225
18776 21203
18777 21426
18778 20056
18778 23166
18779 21526
18780 22701
18781 21159
18781 21866
18781 22012
18781 22413
18781 22978
18782 19511
18782 20212
18782 20750
18782 22862
18782 23554
18783 19175
18783 20337
18784 21834
18785 21595
18790 20465
18790 21465
18791 21379
18792 19348
18793 19452
18794 23735
18794 23978
18794 24238
18795 20921
18799 19480
18799 21354
18799 23247
18799 23418
18800 21953
18801 22695
18802 22848
18804 22357
18805 19062
18805 22293
18805 22515
18809 22925
18811 19988
18812 19334
18813 19066
18813 20417
18813 20450
18815 22120
18816 20541
18817 23614
18818 22400
18820 18827
18821 19009
18821 19089
18821 23309
18822 18824
18823 22133
18827 19806
18827 19807
18827 22146
18829 19943
18829 21643
18829 21916
18830 22799
18831 21109
18831 21427
18833 23663
18836 22948
18837 19291
18837 21925
18838 20096
18839 19824
18839 22592
18841 18948
18841 21417
18842 21637
18843 22816
18843 24468
18844 19858
18844 20329
18844 22147
18844 22402
18844 23437
18844 23444
18846 19351
18846 19586
18846 20630
18846 20733
18846 21160
18846 21187
18846 21655
18846 21807
18846 21935
18846 22804
18846 24381
18850 22915
18851 19163
18851 19164
18852 20281
18852 20589
18852 22222
18852 23326
18857 20576
18857 21008
18857 21251
18857 22095
18859 22840
18860 22270
18861 20338
18861 22012
18861 23149
18862 23270
18863 23713
18863 23938
18863 24016
18863 24050
18863 24217
18864 19546
18864 20548
18864 22272
18864 23761
18866 19858
18866 22147
18866 23437
18869 18967
18869 22610
18870 19988
18870 22248
18870 22913
18871 22948
18873 21062
18873 22034
18873 22620
18877 24166
18878 23346
18878 24447
18878 24449
18879 21724
18880 20065
18880 20208
18880 22502
18880 23396
18881 20180
18881 20647
18884 22244
18886 19290
18886 21942
18886 24453
18887 19929
18888 22734
18888 22957
18889 20795
18890 21010
18890 24232
18891 23486
18893 19373
18893 22191
18894 19814
18895 23358
18897 21194
18898 21556
18898 21781
18898 22254
18899 21615
18900 19461
18900 20064
18900 20307
18900 21024
18900 22083
18900 22506
18900 22714
18901 22174
18902 19219
18902 19859
18902 21182
18902 22267
18902 23650
18903 20143
18904 20058
18906 23063
18907 19812
18907 19817
18909 20540
18910 20556
18910 21598
18910 22661
18913 20468
18914 22344
18914 23465
18915 23881
18916 19781
18916 20292
18918 20203
18918 21015
18918 21206
18918 22291
18918 23531
18920 24446
18921 22409
18925 19866
18926 21609
18926 22196
18927 22730
18928 18998
18931 22668
18931 22740
18931 22843
18933 19800
18933 21166
18937 20163
18938 21307
18940 19026
18940 19633
18940 22196
18943 19369
18943 19927
18943 20384
18943 23003
18944 19611
18945 22049
18946 19937
18946 20959
18946 21997
18947 21727
18947 22495
18948 21460
18948 22912
18950 21679
18951 21872
18952 19446
18954 19849
18954 20838
18954 21910
18954 22689
18954 22694
18954 22984
18956 23812
18961 23254
18962 21276
18962 21809
18962 22418
18962 23858
18965 22053
18966 19812
18966 20602
18967 19286
18967 19629
18967 21274
18967 21718
18967 21869
18967 22001
18967 22539
18967 22610
18967 23561
18967 23580
18967 23860
18968 20685
18968 22819
18970 18999
18971 24457
18972 19058
18972 20133
18973 19081
18973 23164
18973 23184
18974 23303
18975 19091
18975 20364
18976 20408
18977 24060
18979 18998
18983 19407
18983 21411
18987 19258
18987 19669
18988 18989
18988 21715
18989 19996
18990 23732
18990 23921
18991 21992
18993 23712
18994 20124
18995 23952
18996 19318
18998 21873
18998 21932
18998 22039
18998 22060
18998 22084
18998 22116
18998 22177
18998 22423
18998 22471
18998 23100
18998 23517
19000 20818
19002 22365
19003 22885
19004 23615
19004 24056
19007 19828
19007 21005
19007 22962
19008 22287
19008 23552
19009 21886
19011 21564
19011 23542
19012 21681
19016 19045
19017 22356
19017 23065
19019 21826
19021 19668
19021 23690
19022 20268
19022 20891
19022 20945
19022 21685
19022 21753
19022 21834
19022 22329
19023 23912
19023 23961
19025 19441
19026 19633
19026 22680
19027 20047
19027 21503
19027 23455
19028 22426
19029 20992
19029 22178
19030 21980
19031 23917
19031 23939
19032 20902
19033 20510
19035 19969
19036 22293
19036 23447
19037 21003
19037 22429
19038 19040
19038 21583
19038 23498
19040 20356
19040 20357
19040 20554
19040 20857
19040 21583
19040 21584
19040 22671
19041 20734
19041 23398
19043 19712
19043 21220
19044 19581
19044 20208
19046 19275
19046 22648
19047 22003
19049 22005
19050 20952
19050 21340
19050 21723
19051 20528
19051 20871
19052 19418
19052 19834
19052 19926
19052 21086
19052 21811
19052 23339
19053 23289
19058 20133
19059 24476
19060 21337
19061 19361
19062 20529
19063 21917
19066 20012
19066 20417
19066 20450
19066 21058
19066 21305
19066 21898
19067 20814
19068 21402
19075 19572
19076 19078
19077 22882
19079 19942
19082 21291
19083 23200
19084 21758
19084 22345
19090 19578
19091 20364
19091 21464
19095 19523
19095 20588
19098 19643
19098 20489
19102 21363
19103 22532
19105 19371
19107 24484
19109 19382
19109 22544
19112 19842
19112 20066
19112 22253
19115 19256
19115 20068
19115 21397
19115 21586
19115 21924
19115 22440
19117 19341
19117 20711
19119 20866
19121 20709
19121 22619
19122 22297
19123 23047
19124 23464
19125 19202
19127 19587
19128 22286
19128 22964
19130 19318
19133 23425
19134 22332
19134 22784
19135 24189
19135 24219
19136 20035
19136 23207
19136 23691
19137 24078
19137 24325
19139 21147
19140 23038
19141 22017
19142 20379
19142 22799
19143 22972
19148 19697
19148 19983
19151 19686
19151 20139
19151 22301
19155 22390
19156 19854
19156 23705
19158 19631
19158 19877
19158 21867
19158 22412
19158 23020
19159 19318
19159 19682
19160 22829
19163 22774
19164 22774
19165 23465
19166 19964
19166 20369
19171 19174
19171 19556
19172 19173
19173 19174
19174 19556
19174 20140
19176 21171
19177 20376
19177 22287
19180 19370
19184 23513
19186 21673
19188 19502
19189 23298
19191 19686
19191 20341
19191 20373
19191 20846
19191 20965
19191 21084
19191 21094
19191 21205
19191 21513
19191 22085
19191 22246
19191 22301
19191 23834
19192 19329
19193 19554
19196 20517
19196 20779
19197 19611
19198 19491
19198 20618
19198 21225
19198 21504
19198 22156
19198 22444
19198 22656
19198 22950
19198 23087
19198 23569
19200 21585
19201 20002
19202 20913
19202 21455
19202 22073
19203 19998
19205 21961
19206 22678
19208 19910
19210 19824
19210 22904
19211 21725
19213 20210
19213 20916
19213 21069
19218 19236
19220 21257
19221 19904
19222 20260
19224 21118
19224 23394
19225 22749
19227 19922
19227 20790
19227 21991
19228 20718
19229 20266
19229 22589
19230 22138
19232 20092
19232 22033
19233 21021
19235 24008
19237 19595
19237 23761
19238 20425
19238 23308
19243 23182
19244 22766
19244 23869
19245 19246
19245 22687
19245 23445
19246 23445
19248 19281
19248 22815
19249 19450
19250 21789
19251 21083
19251 21378
19251 22317
19252 22276
19252 22415
19252 23062
19253 20714
19253 23369
19254 20272
19257 21352
19259 19878
19262 21533
19263 23090
19264 21533
19265 21894
19266 22076
19269 20258
19269 21132
19271 22037
19274 22076
19276 24262
19277 21257
19277 21660
19278 21320
19279 20756
19283 20486
19287 20180
19288 23369
19290 21942
19291 19367
19292 21614
19295 19639
19296 20303
19296 21342
19298 22051
19299 20052
19299 22243
19302 21047
19304 19305
19304 19307
19304 19368
19304 20316
19304 20317
19304 21761
19304 23535
19305 19306
19305 19307
19305 20316
19305 20317
19305 22324
19306 19307
19306 20317
19306 22324
19307 20316
19307 22324
19307 23535
19310 21350
19310 22218
19311 19703
19312 20499
19313 20767
19314 19954
19316 19757
19316 20996
19317 20015
19318 19412
19318 19474
19318 19684
19318 19918
19318 20310
19318 20387
19318 21185
19318 21304
19318 22025
19318 22039
19318 22064
19318 22104
19318 22420
19318 22471
19318 22507
19318 23122
19318 23463
19320 20107
19322 19688
19323 20789
19323 23460
19323 23832
19328 20263
19328 21298
19328 23071
19329 23041
19330 23589
19331 21035
19332 23088
19332 23683
19334 21054
19334 21600
19335 19502
19335 21397
19336 19923
19337 19504
19339 19486
19341 20711
19343 21984
19344 20144
19344 21393
19346 21518
19346 22467
19346 23234
19346 23246
19348 20353
19348 21959
19348 23218
19350 20404
19350 22551
19351 19973
19352 19692
19353 19672
19353 21175
19353 21344
19353 22798
19355 20765
19355 23745
19356 21264
19362 20455
19367 20241
19367 21925
19371 20656
19371 21237
19371 22199
19371 22354
19371 22490
19371 22594
19371 22606
19371 22725
19371 22901
19371 22926
19371 23143
19372 21422
19373 22409
19374 21272
19374 22789
19374 23597
19375 23921
19375 24204
19377 20110
19379 19613
19380 20847
19380 23515
19381 19745
19381 20063
19381 21437
19381 22290
19381 22932
19381 23586
19382 20731
19382 22657
19382 23760
19383 21646
19383 21647
19383 21648
19384 19954
19384 23028
19387 23200
19387 23492
19389 23637
19389 24042
19389 24189
19390 20565
19393 21269
19394 22162
19395 23258
19396 21428
19399 22411
19400 22553
19401 23047
19402 24070
19402 24477
19403 21454
19404 22635
19404 22637
19405 22741
19408 24225
19409 23671
19409 23765
19410 20370
19410 23047
19411 21372
19411 21827
19411 22047
19411 23611
19413 21804
19413 22017
19417 21509
19417 22882
19418 19834
19419 24316
19419 24317
19420 23213
19421 19450
19421 21742
19422 22622
19423 20619
19425 22349
19428 20683
19428 23201
19430 19721
19431 22011
19432 20346
19433 22670
19434 20356
19434 20866
19435 22827
19437 23189
19438 21907
19439 21197
19440 20041
19442 20531
19443 22027
19443 23126
19444 24480
19446 19995
19446 23073
19447 20429
19447 21081
19447 21964
19448 21378
19450 21742
19452 21514
19452 21847
19453 21498
19454 20862
19455 20262
19455 20573
19456 23196
19456 23266
19457 24164
19458 20411
19458 21407
19462 19757
19463 19554
19463 20037
19464 20564
19470 20777
19470 23181
19473 23201
19475 22079
19476 19491
19477 21224
19477 22209
19477 23511
19478 24432
19479 20565
19480 23247
19482 21217
19483 22674
19488 23912
19488 23992
19491 21552
19492 20112
19493 22122
19493 23874
19493 24071
19494 20210
19495 20591
19495 22777
19497 21969
19497 23541
19498 22223
19499 20554
19499 22671
19500 22927
19502 20257
19502 20529
19502 21805
19503 20896
19504 19978
19504 23095
19505 20771
19505 21721
19505 22894
19506 20071
19506 22482
19506 22596
19507 19635
19508 21419
19509 19740
19509 20657
19514 19855
19515 20103
19515 23045
19516 21288
19518 19998
19518 21389
19520 21620
19521 22558
19524 19824
19524 21129
19525 22952
19527 23200
19528 22053
19531 19532
19534 20009
19535 22881
19536 21577
19537 20037
19537 21341
19537 21380
19537 22936
19538 21713
19539 20954
19541 20640
19543 20242
19543 21604
19544 23413
19546 20548
19547 21556
19548 20492
19551 19912
19553 19617
19553 21286
19553 23248
19554 20037
19554 20235
19554 21137
19554 21380
19554 21837
19554 22935
19557 23441
19558 20295
19559 24031
19559 24439
19560 21626
19562 23749
19563 21926
19564 19890
19564 21270
19564 22292
19564 22365
19564 22530
19569 20836
19569 21647
19570 21142
19570 22472
19574 20424
19574 22529
19576 21614
19576 22737
19576 23495
19579 23138
19580 22834
19584 22137
19585 20568
19585 22053
19586 20733
19586 23080
19587 21659
19587 21909
19587 22466
19588 20886
19592 23615
19592 24451
19593 23063
19594 21162
19596 20048
19596 20719
19596 21905
19597 20111
19597 20343
19597 21290
19597 23106
19599 19811
19600 19623
19600 20059
19600 20684
19600 22718
19600 23744
19601 20093
19602 21673
19603 21402
19605 19611
19606 20966
19607 20649
19607 23067
19611 20199
19611 20461
19611 20653
19611 22167
19611 22677
19611 23125
19612 22212
19614 20370
19614 22563
19614 23047
19616 22203
19621 21795
19623 20674
19623 20768
19626 21619
19626 22156
19627 23023
19628 20506
19628 22921
19629 23561
19629 23580
19629 23755
19630 21486
19631 20175
19631 20447
19632 20771
19633 22680
19634 23136
19635 21105
19638 20454
19638 21266
19639 21626
19641 23146
19642 22488
19642 22970
19643 20113
19643 20489
19643 21564
19643 23542
19645 21890
19646 20197
19646 23096
19647 22850
19650 20107
19650 20376
19650 22287
19651 22748
19651 24220
19652 22961
19652 22980
19653 22754
19661 21870
19661 23186
19662 21864
19662 22572
19663 22117
19663 23642
19665 23027
19668 22439
19671 23647
19672 21175
19674 22224
19675 23706
19675 23909
19675 24070
19676 22691
19678 19950
19678 20530
19678 21045
19679 21045
19684 22025
19685 23443
19687 19836
19687 20741
19687 21902
19687 22608
19691 20717
19691 20732
19691 22391
19692 20562
19692 22365
19693 22206
19693 22510
19694 21882
19694 23010
19695 21657
19696 20275
19696 21235
19697 23369
19697 24479
19699 20349
19699 20802
19701 22419
19701 23929
19705 22638
19705 23817
19705 24221
19705 24222
19705 24224
19706 20361
19708 19744
19708 21156
19709 22000
19710 23109
19712 22810
19713 23513
19717 23242
19718 23262
19727 21799
19727 22791
19729 22125
19731 19770
19733 20433
19734 22856
19735 20849
19736 21014
19736 23238
19737 21016
19737 21702
19737 22792
19737 23683
19738 23059
19739 22994
19742 21195
19743 24390
19743 24391
19744 20390
19744 21156
19744 21439
19746 22341
19747 23468
19748 23174
19750 22290
19751 22447
19752 21593
19752 21614
19753 22452
19754 20898
19754 23472
19757 20166
19757 21089
19757 22983
19757 23019
19760 22025
19762 24443
19767 21102
19768 23729
19768 24446
19769 23065
19771 22168
19772 22746
19773 23435
19774 23154
19775 20717
19776 21856
19776 24090
19777 20577
19778 20371
19778 21345
19778 21820
19780 20859
19780 21571
19781 19931
19782 19974
19782 20954
19784 21679
19784 22726
19784 22727
19784 23971
19785 21614
19785 23070
19787 20909
19789 21708
19789 23092
19791 20232
19791 21695
19791 21895
19792 22553
19793 20727
19793 20951
19795 20835
19797 22796
19803 20238
19806 19807
19806 23199
19807 22146
19807 23199
19810 23994
19811 23309
19812 19817
19812 19818
19812 20602
19815 20428
19815 21888
19816 19817
19816 19818
19816 20602
19817 19818
19820 21636
19823 20261
19823 23146
19824 20806
19824 21129
19824 22735
19824 22904
19828 21157
19828 22780
19828 23473
19830 22876
19833 23314
19834 19926
19834 21408
19834 22221
19834 23424
19834 23553
19835 20148
19835 20722
19836 20087
19837 19954
19837 23028
19840 21529
19840 22082
19841 22377
19842 20066
19848 21011
19849 20377
19851 19976
19852 22739
19852 23369
19854 23705
19855 20949
19857 23135
19857 24275
19857 24430
19858 23437
19859 21550
19864 23276
19865 22365
19871 23159
19873 23833
19875 21181
19879 22998
19880 22053
19882 21556
19883 19885
19883 20614
19883 22194
19883 22438
19884 19885
19884 22194
19887 22805
19891 22154
19893 23652
19893 24316
19894 21402
19896 20209
19896 21415
19899 21206
19900 22856
19901 23922
19905 20638
19907 20693
19908 20924
19908 21256
19908 23352
19910 20191
19912 20906
19913 21036
19913 22599
19915 22481
19916 23776
19916 23792
19916 23992
19917 21733
19922 20096
19923 19928
19923 22399
19923 23200
19923 23275
19923 23507
19927 19933
19927 20384
19928 20107
19929 20470
19929 20829
19931 20098
19931 22252
19931 23076
19935 20306
19936 23985
19936 24041
19937 20959
19937 21997
19943 20412
19943 22803
19945 23167
19946 22048
19947 21360
19948 21711
19949 22832
19950 20530
19950 21045
19951 23056
19952 22386
19954 22053
19955 20572
19955 21074
19956 21079
19956 23530
19957 23242
19960 22281
19960 23284
19962 22225
19963 21400
19963 22225
19964 20369
19965 23012
19966 21917
19968 21457
19968 23356
19968 23364
19968 23711
19970 22288
19973 20630
19973 21160
19973 21807
19973 21935
19973 23225
19974 20954
19978 20414
19978 21918
19978 23095
19980 20139
19980 22246
19982 21614
19983 23369
19984 24017
19984 24446
19985 22668
19985 22843
19987 20185
19987 21467
19988 21323
19988 21790
19988 22040
19988 23121
19989 20256
19990 24099
19992 22848
19992 23350
19993 23166
19994 22056
19995 21773
19997 21199
19997 22005
19997 22313
19997 22575
19997 22598
19999 20771
20002 23212
20004 23395
20007 22583
20008 20650
20008 21681
20009 21121
20009 22580
20010 24129
20011 24010
20012 20417
20014 21604
20018 21547
20019 20021
20020 20021
20021 20866
20022 20025
20022 20026
20022 20027
20022 20028
20025 20028
20025 20031
20025 20033
20026 20027
20026 20030
20026 20031
20027 20028
20027 20031
20027 21547
20028 20029
20028 20031
20028 20032
20028 20033
20028 21547
20029 20031
20029 20032
20030 20031
20030 20033
20031 20032
20031 20033
20032 21547
20036 24225
20038 23786
20038 24369
20039 20696
20040 21461
20042 21072
20043 20179
20043 22732
20045 20216
20047 21503
20047 23455
20053 20075
20058 21788
20062 21334
20062 22544
20063 21437
20063 22290
20065 21365
20065 23396
20067 21347
20067 22505
20067 23204
20068 21397
20069 21773
20073 22273
20074 21766
20076 20289
20076 20393
20079 23245
20081 21141
20081 21616
20084 24172
20084 24326
20085 22169
20086 21767
20089 24066
20092 22033
20092 22035
20093 21514
20093 22712
20095 22151
20096 23539
20096 23759
20097 21613
20097 23435
20098 23076
20099 21435
20101 21148
20102 21959
20103 23045
20105 21655
20105 22592
20105 23431
20107 20141
20107 20201
20107 20459
20107 20508
20107 20947
20107 21597
20107 22383
20107 22947
20107 23249
20108 21076
20110 21279
20110 22742
20110 23157
20110 23457
20113 20489
20118 21103
20118 21104
20119 21137
20120 23219
20122 21645
20122 22464
20123 20652
20123 22189
20128 23378
20129 21455
20131 21730
20131 22880
20133 20713
20134 21267
20134 22173
20134 22658
20134 23308
20137 22584
20137 22993
20139 22246
20141 20376
20141 22287
20144 21046
20146 20766
20146 21048
20146 21589
20146 23094
20146 23697
20148 20722
20152 23407
20152 23562
20154 21170
20162 20513
20163 20933
20164 20780
20164 20956
20165 22559
20166 23019
20167 21366
20167 22230
20167 23460
20167 23832
20168 20431
20168 21443
20169 23551
20171 24221
20171 24222
20173 24302
20173 24383
20174 22632
20176 22184
20177 22571
20178 22182
20179 20193
20179 20926
20180 21424
20180 23299
20183 22116
20184 22287
20184 23552
20187 21437
20188 20667
20189 20441
20189 21796
20190 22938
20192 21903
20195 22740
20198 20634
20198 23412
20199 20653
20199 22677
20199 24165
20201 21658
20203 21719
20204 22939
20205 23542
20206 23200
20207 22712
20208 21365
20209 21797
20209 23368
20214 23774
20214 24227
20214 24242
20215 21282
20215 21663
20216 21497
20216 21624
20216 22782
20217 20218
20218 20708
20219 23759
20220 22294
20221 24201
20221 24202
20221 24340
20227 23678
20228 21198
20229 21652
20229 22112
20230 22341
20232 21895
20234 21556
20237 20266
20239 20763
20239 21296
20240 20483
20241 22639
20244 21280
20247 21181
20248 21095
20249 21269
20250 22748
20251 21455
20251 21489
20255 21666
20255 23521
20257 20529
20257 21397
20258 20593
20258 22336
20261 22931
20261 23146
20262 20573
20265 20406
20266 22589
20267 20276
20267 21283
20267 21550
20270 20957
20270 21786
20272 20929
20272 22163
20274 23663
20275 21235
20279 21180
20280 20345
20280 23178
20281 23326
20283 22334
20287 22359
20288 22991
20293 22675
20294 21080
20294 21855
20294 23132
20295 21931
20296 21333
20296 21770
20302 22069
20304 22365
20306 20533
20311 22962
20316 22324
20319 20612
20320 22298
20322 20325
20323 20325
20323 20326
20325 20326
20327 21137
20328 22532
20329 20581
20330 24256
20330 24300
20331 21530
20331 23276
20334 23384
20335 21551
20338 21434
20338 23149
20339 24215
20341 21094
20341 22085
20341 22301
20341 23834
20342 21601
20343 20987
20343 21290
20345 23178
20348 21003
20348 23478
20349 20802
20350 23138
20352 24000
20355 20357
20356 20357
20356 21583
20358 20775
20361 21791
20365 24014
20365 24221
20365 24468
20366 22721
20367 22998
20368 21445
20368 23046
20370 21565
20370 22528
20370 23047
20371 21820
20371 22494
20372 21754
20373 21513
20374 21834
20376 22287
20377 22052
20377 23359
20377 23492
20378 21130
20379 21946
20379 22459
20388 22362
20389 22246
20392 22201
20392 22441
20392 23854
20394 21560
20394 21562
20394 21563
20399 20704
20400 21486
20400 23056
20401 23103
20403 21719
20404 22551
20407 23921
20407 24204
20408 21155
20409 22646
20410 22696
20411 21407
20412 22328
20412 22803
20414 23095
20417 21898
20418 21443
20419 20985
20419 23098
20423 22244
20424 22529
20425 23308
20429 21964
20431 21443
20432 23340
20434 21241
20437 23410
20441 20771
20441 22894
20442 24225
20445 21381
20445 24215
20448 20989
20450 21058
20451 22102
20451 23513
20455 20473
20457 21257
20462 21673
20464 23369
20466 22741
20468 22479
20468 22750
20469 21083
20469 21378
20469 23385
20473 20838
20473 22689
20473 22694
20473 22976
20474 21501
20475 24094
20475 24439
20477 21885
20477 22830
20478 23601
20483 24087
20485 23002
20489 21545
20489 21564
20492 20504
20492 20637
20496 21137
20501 23742
20503 21512
20503 23485
20506 21150
20506 23466
20511 22976
20511 23614
20513 22905
20514 20889
20515 23266
20515 23699
20517 21676
20518 23004
20522 22627
20522 23567
20524 23986
20528 20871
20529 22440
20530 21045
20531 22344
20532 24089
20534 21737
20537 21673
20538 22696
20540 21449
20543 21995
20544 21076
20545 21847
20545 22156
20549 20599
20549 22426
20550 20716
20551 24279
20551 24423
20552 21893
20553 21828
20554 21502
20554 22671
20554 23382
20562 21491
20563 21009
20565 23662
20566 21807
20566 22804
20566 23225
20568 21979
20568 23104
20569 23330
20569 23523
20572 21074
20572 22102
20573 21941
20582 21711
20583 23527
20584 23131
20587 24057
20591 22777
20594 20852
20594 22062
20595 22281
20596 22119
20596 22368
20597 23162
20598 22138
20600 21312
20600 21506
20601 20771
20604 21931
20607 21593
20608 23402
20610 22281
20611 21171
20617 20770
20618 21332
20621 20746
20623 22867
20624 23589
20625 20910
20625 21529
20625 22731
20626 20771
20628 22758
20629 22371
20631 22188
20634 22378
20634 23412
20635 20997
20637 21743
20638 21579
20639 21013
20640 21052
20640 23888
20641 23729
20641 23993
20641 24328
20641 24446
20642 20840
20642 20950
20645 22055
20646 20843
20647 21848
20647 23495
20648 21172
20648 23297
20650 21681
20650 22489
20652 22189
20653 21488
20653 21671
20653 22167
20655 21614
20656 22281
20658 21107
20659 20673
20660 20759
20660 20805
20660 21876
20660 23764
20661 21020
20662 23027
20663 21059
20667 23469
20668 21556
20671 21181
20672 20877
20674 21181
20676 20878
20678 22231
20681 23492
20684 21622
20686 21038
20687 20688
20687 20689
20688 20689
20691 23188
20692 21537
20693 21685
20694 21698
20695 21115
20696 21391
20697 21840
20697 22651
20698 23938
20698 24101
20699 23784
20699 24285
20700 21731
20701 23312
20704 21712
20705 21114
20705 22138
20707 21097
20710 23616
20714 23349
20714 23492
20717 20732
20717 20817
20717 21148
20717 22121
20718 20850
20718 21287
20718 21442
20718 21675
20718 21822
20718 21894
20718 22826
20720 22627
20721 21430
20722 20815
20724 21556
20725 24253
20726 21725
20729 20776
20729 20964
20732 21668
20732 22121
20735 21556
20736 23854
20736 23856
20739 24321
20741 21902
20742 21618
20745 23135
20745 24058
20747 21949
20749 20895
20749 23439
20752 23827
20755 22724
20755 22792
20755 23683
20762 21826
20763 22431
20769 23178
20771 21796
20771 22894
20771 23034
20771 23601
20771 23743
20771 23841
20776 20964
20777 23181
20778 21485
20781 24071
20783 22277
20784 23441
20789 22230
20792 21735
20799 23404
20804 21199
20807 23369
20808 20870
20808 23638
20808 24164
20809 21593
20810 24260
20811 22565
20816 24315
20819 23230
20822 24049
20822 24354
20822 24445
20822 24448
20824 21654
20824 22913
20828 23991
20829 22321
20830 24303
20834 24057
20836 21647
20837 23449
20839 20911
20839 21930
20841 21937
20841 22622
20842 22881
20845 21580
20846 21205
20847 23851
20847 23934
20848 22118
20849 21138
20850 23532
20856 21667
20857 20866
20860 21415
20861 21556
20864 22079
20864 22996
20866 21143
20866 21319
20867 24284
20868 23404
20869 23475
20870 21794
20870 22900
20870 23710
20870 24075
20870 24164
20871 22391
20872 22474
20877 22717
20881 23531
20887 24090
20888 22604
20892 22365
20893 23955
20895 23439
20896 21860
20897 23274
20898 23472
20899 23911
20899 23965
20900 24007
20901 21311
20903 21951
20903 24178
20905 22742
20910 22082
20913 21455
20915 21556
20916 21069
20917 21786
20920 23067
20925 21758
20928 22318
20930 23681
20930 23682
20934 22828
20935 22885
20937 23258
20940 21327
20942 24304
20942 24425
20943 21983
20944 24049
20944 24337
20945 21834
20946 22026
20949 22365
20952 21723
20969 20977
20971 21341
20971 22936
20972 21053
20972 22676
20972 22919
20974 22344
20974 22984
20975 23757
20976 21101
20976 22236
20978 23967
20978 24169
20981 23706
20981 23868
20981 24330
20983 23028
20985 22041
20990 22597
20991 23054
20992 22024
20992 22178
20995 22761
20996 21089
20996 22983
20996 23019
21002 23105
21003 22429
21008 21251
21009 22040
21009 23121
21009 23840
21013 23500
21014 22214
21015 23153
21017 23959
21017 24044
21021 22623
21022 24225
21026 21067
21027 22666
21029 21822
21029 22365
21029 23502
21030 22733
21031 23458
21032 23823
21034 23138
21037 24345
21037 24367
21039 22894
21044 22024
21046 21640
21046 22203
21047 21681
21047 21820
21048 23094
21049 21163
21051 21661
21051 22315
21052 23888
21053 22676
21053 22919
21057 22841
21059 22738
21061 21985
21062 22620
21068 22969
21069 21368
21070 22818
21071 23802
21071 24309
21072 22655
21072 23436
21077 21308
21081 21964
21083 21378
21083 22241
21083 23385
21085 21421
21085 23200
21089 23019
21091 22969
21093 23931
21096 21378
21098 22913
21100 21317
21100 24407
21102 22778
21105 23073
21106 22091
21106 23294
21110 23461
21113 23433
21114 22103
21115 21938
21115 21939
21115 21940
21120 23156
21122 22457
21125 21729
21127 22026
21131 22859
21133 24091
21137 21590
21137 21957
21137 22149
21141 21616
21142 22472
21144 22036
21144 22786
21145 22562
21147 23326
21150 22921
21152 21719
21152 22233
21157 21330
21158 21357
21159 22818
21162 23509
21165 21437
21167 22886
21169 22833
21169 23343
21172 23297
21174 22156
21174 22820
21175 21344
21177 21505
21177 21614
21178 21305
21178 23507
21180 21384
21181 21450
21181 22756
21181 22885
21181 23355
21181 24140
21183 24232
21186 22972
21190 22485
21190 23179
21191 23755
21193 22971
21194 22773
21196 22923
21198 21928
21200 21201
21200 22114
21200 22374
21200 22375
21200 22703
21201 22114
21202 22650
21204 23871
21204 23977
21204 24287
21204 24398
21205 21513
21205 22246
21206 22663
21209 22071
21209 22315
21210 21832
21211 24491
21213 23940
21213 24422
21216 21735
21217 21478
21221 23827
21227 22799
21228 21254
21231 23038
21234 21612
21234 23598
21236 21238
21236 22481
21237 22281
21238 22481
21240 22547
21243 24279
21244 21766
21244 21767
21244 21768
21246 23318
21248 23461
21249 21250
21249 21540
21249 21541
21251 22095
21253 23753
21257 21660
21258 22864
21259 22045
21261 23680
21262 23467
21267 22173
21270 22308
21270 22530
21271 23374
21272 23597
21280 23369
21281 21624
21283 21550
21286 23248
21290 21490
21294 22364
21294 22366
21294 23371
21299 21300
21303 23168
21304 22025
21306 22193
21306 23098
21311 22365
21312 21506
21312 22362
21313 21556
21313 22156
21314 22564
21314 23140
21315 22151
21317 24407
21322 22525
21323 22913
21333 21770
21334 22352
21334 22544
21339 22719
21339 23470
21339 23743
21340 21723
21343 22128
21344 22798
21346 22931
21349 23551
21353 23333
21354 24198
21355 21724
21356 23475
21357 22942
21359 21447
21359 22631
21359 23558
21360 22009
21371 23987
21372 22047
21372 23611
21373 21374
21377 24187
21379 21388
21379 22018
21380 22251
21381 24131
21381 24215
21388 22018
21389 22653
21394 22287
21394 23552
21396 22043
21396 22816
21399 22993
21401 23126
21402 21590
21402 22149
21403 22768
21408 22221
21410 22692
21411 21911
21413 21911
21414 23329
21415 23368
21416 23630
21416 24192
21418 21593
21424 21614
21426 22866
21429 21736
21430 21776
21432 23857
21432 24098
21434 22220
21434 23379
21436 23765
21436 24017
21436 24161
21437 22550
21437 22932
21437 23239
21437 23586
21441 21889
21442 22826
21444 23889
21444 23890
21444 24323
21444 24405
21446 22928
21446 23500
21447 23558
21451 22153
21451 22767
21453 22486
21455 21489
21455 22073
21456 21699
21457 23711
21459 23593
21460 22912
21463 23138
21469 23160
21471 22949
21475 21655
21478 22063
21479 22732
21480 23435
21482 22922
21486 22545
21486 23056
21487 22948
21489 21802
21491 22365
21493 22480
21493 23026
21496 22098
21496 23564
21503 23455
21505 21614
21505 23381
21506 22362
21507 21696
21507 21944
21507 21965
21508 21721
21508 21810
21508 23555
21509 21776
21509 22882
21513 22404
21515 21969
21517 22473
21518 22467
21518 23234
21520 23298
21523 22817
21527 22708
21529 22731
21530 23230
21532 24154
21535 22685
21536 22719
21538 22662
21540 22600
21541 22600
21544 21642
21545 21564
21545 23542
21548 22467
21548 23246
21549 22349
21556 21570
21556 21614
21556 21972
21556 22737
21556 23299
21556 23489
21558 22672
21560 21561
21561 21563
21566 23169
21570 21697
21570 22254
21572 23536
21573 23821
21573 24456
21577 22417
21578 22281
21581 21591
21583 21584
21586 22440
21589 23895
21592 23520
21593 21614
21593 21878
21593 22020
21593 22280
21593 22302
21593 22445
21593 23185
21593 23250
21593 23583
21594 23369
21595 23040
21596 22046
21601 23440
21603 22033
21603 22035
21603 22279
21603 22304
21603 22673
21604 23505
21605 21707
21606 22795
21608 21750
21608 23079
21611 22284
21611 22716
21612 22353
21612 23138
21614 21878
21614 22020
21614 22094
21614 22302
21614 22445
21614 22737
21614 22959
21614 22982
21614 23185
21614 23250
21614 23393
21614 23456
21614 23583
21615 21852
21619 22156
21619 22421
21623 22941
21627 23380
21629 22164
21630 23277
21631 21649
21633 22171
21636 22895
21641 23772
21644 21948
21647 21648
21650 22049
21651 23784
21651 24135
21651 24436
21654 21927
21655 24381
21656 23465
21657 22775
21659 21909
21661 22071
21661 22315
21663 22622
21666 23521
21668 22391
21672 23375
21673 22052
21673 22077
21673 22599
21682 21690
21683 22260
21687 24237
21687 24301
21691 23426
21692 22053
21694 21955
21695 21895
21695 23341
21697 21781
21698 22732
21700 21891
21700 23366
21701 21943
21702 22792
21702 23683
21705 23731
21705 24416
21709 22025
21710 23468
21710 23519
21711 21908
21714 21722
21719 22233
21719 22291
21719 23051
21721 22499
21721 23555
21724 23233
21725 23087
21731 22868
21732 22716
21735 23083
21744 22063
21745 22730
21746 21840
21746 22651
21747 23369
21750 23079
21751 23328
21752 22787
21752 23584
21753 21834
21758 22868
21758 23028
21759 24476
21762 22143
21767 21768
21778 23857
21780 22996
21785 21890
21786 21996
21787 22759
21790 22913
21794 22900
21794 24075
21794 24164
21795 22307
21799 22791
21800 22521
21800 22607
21804 22017
21805 21924
21806 22163
21808 23784
21808 24068
21811 23339
21818 23984
21820 22494
21821 22097
21821 22914
21825 22067
21827 22047
21829 24094
21829 24439
21830 23739
21830 24031
21830 24439
21831 23739
21831 24031
21831 24439
21835 23435
21836 22674
21838 22999
21840 22064
21843 22986
21844 24157
21845 22168
21851 23731
21854 23508
21859 22056
21862 23774
21862 23886
21862 24227
21862 24242
21863 23641
21868 24250
21869 22610
21869 23860
21872 23744
21873 23100
21874 22597
21875 22029
21881 22207
21891 22752
21891 23366
21894 23074
21895 23341
21895 23389
21897 22876
21899 22597
21903 23767
21904 23912
21909 22466
21912 22353
21912 23138
21913 22006
21913 22077
21915 22140
21916 22803
21917 22501
21919 23960
21920 24043
21920 24050
21920 24452
21921 23351
21925 22943
21927 22913
21932 23100
21944 21989
21945 24005
21946 22799
21948 22115
21950 21951
21950 21952
21951 21952
21958 22195
21968 24173
21968 24458
21971 22654
21971 23407
21976 21977
21976 22570
21979 22053
21986 22965
21990 22281
21993 23475
21994 24201
21994 24202
21994 24341
21995 22805
21999 22231
22010 23510
22013 24284
22013 24365
22014 24284
22014 24365
22015 24284
22015 24365
22016 23158
22022 22706
22023 23591
22025 23405
22028 23067
22028 23302
22030 22031
22033 22035
22033 22304
22033 22673
22034 22428
22035 22304
22035 22673
22036 22786
22040 22913
22040 23121
22041 22193
22047 23611
22052 23492
22053 23272
22053 23831
22054 22387
22054 23533
22058 22107
22059 23628
22064 22651
22064 23438
22065 22856
22066 23167
22071 22315
22072 22565
22078 23279
22079 22101
22082 22731
22085 22246
22087 22397
22088 22692
22096 22101
22097 23161
22105 22481
22106 23911
22108 23987
22108 24443
22111 23678
22116 22339
22116 23320
22116 23517
22119 22368
22121 22391
22122 23915
22122 24071
22124 23198
22131 22156
22134 22154
22135 22732
22136 23735
22136 23824
22136 24301
22138 22434
22138 22468
22138 22778
22139 23814
22140 23442
22140 23602
22142 24302
22142 24383
22142 24473
22144 23609
22147 23444
22151 23389
22153 22767
22156 22257
22156 22421
22156 23295
22157 23187
22159 23358
22161 22443
22161 24213
22169 23287
22170 22350
22170 22496
22172 23608
22173 23308
22175 23292
22177 23100
22179 22228
22181 22915
22184 22540
22185 22696
22190 23871
22190 23977
22190 24047
22193 23098
22197 24048
22197 24154
22200 22226
22203 23039
22203 23236
22204 22627
22205 23351
22209 23511
22213 23129
22213 23482
22220 23379
22231 23050
22233 23531
22238 23406
22238 23656
22238 23855
22238 23920
22238 24154
22240 22576
22241 22317
22242 22317
22244 23365
22245 24302
22245 24409
22245 24473
22246 22301
22249 22250
22250 22871
22261 23420
22261 23790
22261 24159
22262 22662
22265 23323
22265 23613
22265 23864
22266 23502
22274 23043
22275 23525
22277 23415
22278 23877
22278 24042
22281 23284
22281 23768
22282 23827
22282 24095
22284 22716
22285 23623
22287 22327
22287 23552
22289 23212
22293 23447
22294 23596
22300 22599
22306 24476
22309 23400
22309 24087
22310 23542
22311 23138
22319 23480
22320 23072
22325 23970
22328 22803
22331 23796
22331 24303
22342 22730
22342 22994
22343 22390
22345 22868
22345 23028
22350 22496
22351 22716
22352 22657
22353 23138
22356 23065
22360 24232
22364 22366
22364 22367
22364 23371
22365 22437
22365 22561
22365 23413
22365 23620
22366 23491
22367 23491
22371 22396
22374 22703
22376 22630
22377 23018
22378 23528
22381 23289
22382 24345
22383 23200
22386 23501
22392 23044
22403 22852
22410 24258
22410 24261
22415 23062
22416 22624
22417 23006
22419 23747
22419 23808
22429 23478
22432 22739
22435 23081
22437 23190
22441 23857
22443 23627
22443 23669
22443 24158
22443 24225
22445 22959
22448 23922
22448 23979
22448 24427
22450 22649
22451 23431
22453 24162
22453 24442
22467 23246
22473 23398
22475 22909
22476 24200
22479 22750
22481 23037
22482 23258
22487 24053
22488 22970
22493 22676
22498 23706
22499 23555
22500 22728
22505 23114
22505 23204
22508 23961
22509 23900
22509 24067
22514 23481
22517 24273
22521 22607
22522 23966
22522 23968
22527 22998
22528 22563
22528 23047
22534 23765
22534 24257
22540 22812
22545 23056
22563 23047
22567 23687
22569 22916
22569 22961
22572 22617
22572 22920
22574 23481
22578 22820
22579 23354
22579 24012
22579 24116
22579 24246
22581 23709
22581 23779
22592 22904
22593 23166
22594 23369
22595 23390
22596 23258
22597 23581
22597 23624
22616 23408
22623 23449
22624 23288
22627 23397
22627 23567
22632 23347
22635 22637
22637 23606
22638 23817
22638 24224
22644 22653
22647 24249
22652 22892
22652 22893
22652 24024
22667 23538
22668 22843
22670 23228
22674 23137
22674 23866
22676 22919
22678 23319
22682 23875
22682 23984
22683 23123
22685 22965
22686 23594
22688 24123
22693 24187
22696 23587
22698 22885
22701 22757
22701 23237
22710 23663
22711 23952
22711 24476
22713 22838
22719 23509
22724 23683
22726 23996
22728 22742
22736 24380
22740 22843
22748 24220
22760 22763
22760 22880
22761 22831
22766 23869
22768 23133
22770 23198
22773 23906
22773 23935
22775 23033
22775 23598
22776 23056
22780 22962
22783 24380
22787 23167
22789 23597
22792 23683
22797 23333
22806 22962
22806 23473
22808 23435
22816 24468
22839 24355
22839 24447
22839 24450
22842 23605
22846 23939
22858 23103
22863 22997
22865 23079
22873 23261
22877 24225
22877 24391
22878 23846
22878 23913
22878 24062
22880 23264
22885 23836
22888 23813
22888 24388
22889 23362
22889 23471
22889 24016
22889 24452
22890 23002
22892 22893
22892 23417
22892 24024
22892 24264
22893 23417
22893 24264
22898 23825
22900 23638
22900 23710
22901 23369
22902 24002
22902 24414
22909 23943
22914 23161
22917 23265
22917 23585
22917 23839
22921 23563
22923 23287
22924 23619
22924 24213
22953 23648
22953 23790
22953 24159
22954 23236
22966 23448
22968 23358
22969 23628
22980 23180
22985 23713
22985 23958
22985 24050
22985 24452
22987 23799
22989 23900
22989 23950
22989 24067
22994 23172
22994 23763
23004 23452
23007 23152
23008 23152
23013 23014
23013 23015
23013 23016
23014 23016
23015 23016
23017 24345
23023 23060
23042 23845
23050 23370
23056 23211
23061 23090
23063 23329
23066 23097
23068 23952
23068 24476
23072 23214
23075 24008
23088 23683
23094 23416
23094 23697
23099 23925
23099 23968
23100 23320
23108 23671
23108 24007
23108 24110
23109 23195
23110 23661
23110 23816
23111 23311
23111 23709
23111 23907
23115 24225
23116 24017
23116 24240
23117 23135
23117 23694
23117 24006
23117 24275
23119 24154
23120 23929
23120 24177
23124 24122
23124 24213
23127 23706
23128 23719
23128 23952
23128 24384
23135 23256
23135 24058
23135 24275
23135 24430
23145 23425
23151 23668
23159 23165
23164 23184
23167 23584
23171 24279
23171 24309
23177 24158
23177 24176
23188 23311
23188 24349
23193 23748
23195 24438
23196 23213
23200 23232
23200 23736
23203 23809
23203 24093
23203 24154
23209 23305
23213 24290
23217 24172
23217 24296
23224 23226
23229 23335
23229 23578
23241 23735
23245 23769
23247 23418
23251 23952
23252 24294
23256 23694
23256 24006
23256 24275
23257 23369
23261 23601
23265 23839
23266 23419
23266 23699
23274 24172
23274 24326
23277 23301
23304 23429
23305 24394
23305 24408
23312 24154
23312 24400
23315 23878
23315 23896
23315 24024
23321 23804
23321 24144
23323 23613
23323 23696
23323 23864
23325 23409
23335 23578
23336 23987
23342 23705
23346 24355
23346 24449
23346 24450
23348 24134
23353 24073
23353 24383
23353 24409
23354 24012
23354 24085
23354 24225
23354 24312
23354 24489
23356 23364
23356 23711
23357 24181
23357 24256
23359 23369
23361 24217
23362 23471
23362 24414
23364 23711
23367 23635
23369 24109
23372 23378
23390 23931
23391 23922
23391 24272
23395 24247
23400 23887
23400 24087
23406 23855
23406 24154
23407 23562
23416 23697
23417 24264
23421 23809
23421 24093
23421 24154
23425 23607
23425 23657
23432 24442
23437 23444
23446 24259
23446 24414
23449 23496
23455 23647
23462 24256
23462 24318
23471 24016
23474 23705
23476 23895
23479 23954
23490 23538
23503 23722
23503 23957
23503 24040
23506 23684
23515 23851
23516 23951
23516 24470
23543 24138
23570 23791
23575 23783
23575 23814
23575 24151
23585 23839
23593 23688
23607 23657
23612 23988
23612 24037
23613 23696
23615 23861
23615 24056
23619 23838
23619 24213
23622 23673
23625 24257
23629 24385
23630 23903
23630 24119
23630 24192
23630 24289
23630 24358
23631 23671
23631 24187
23632 23678
23632 24408
23633 23820
23633 24284
23633 24487
23635 24275
23636 24093
23636 24154
23637 23872
23637 23970
23637 24239
23638 23710
23638 24075
23638 24164
23641 23930
23646 24078
23646 24325
23654 24324
23656 23855
23656 24154
23658 23721
23658 24083
23658 24380
23659 23820
23659 24254
23661 24108
23661 24334
23664 23721
23664 24083
23666 24414
23667 24099
23669 24213
23670 23704
23671 23765
23671 24100
23671 24110
23672 24443
23672 24461
23673 23932
23673 24143
23675 24225
23676 24240
23677 24173
23677 24458
23678 24021
23679 24261
23680 23682
23681 23682
23685 24279
23689 24059
23689 24103
23689 24270
23689 24378
23698 24078
23698 24154
23698 24325
23700 23861
23700 24056
23701 23997
23701 24313
23702 24201
23702 24202
23702 24341
23702 24462
23706 24477
23708 23781
23708 24196
23708 24225
23709 23779
23709 23907
23713 23815
23713 23938
23713 24016
23713 24217
23713 24452
23714 24383
23714 24409
23715 24379
23717 24181
23717 24300
23717 24318
23718 24386
23719 24039
23719 24467
23720 24427
23723 24346
23724 23746
23724 24009
23725 24260
23726 24302
23727 24224
23727 24247
23728 24133
23728 24246
23729 23993
23729 24032
23729 24328
23729 24446
23731 24416
23732 24204
23733 24285
23733 24436
23734 24321
23735 23741
23735 24015
23735 24043
23735 24301
23737 23792
23738 24254
23738 24284
23739 24094
23739 24439
23741 23765
23741 24161
23742 23794
23746 23808
23752 23815
23753 24229
23758 24292
23765 24019
23765 24100
23765 24161
23765 24329
23765 24374
23770 23986
23772 23797
23773 23889
23773 23890
23773 24405
23774 23886
23775 23871
23775 23910
23775 23977
23775 24010
23775 24398
23776 23792
23776 23933
23776 23945
23777 24053
23778 23946
23778 24371
23779 23907
23780 23931
23781 24084
23781 24196
23782 24256
23782 24384
23783 23926
23784 23963
23784 24135
23784 24223
23784 24436
23785 24234
23786 23788
23786 23999
23786 24053
23786 24346
23786 24369
23787 23874
23788 23789
23789 24063
23789 24368
23791 24255
23792 23933
23792 23944
23792 23945
23792 24399
23792 24420
23796 23823
23799 23833
23800 24099
23800 24100
23800 24187
23800 24414
23801 24122
23801 24153
23801 24387
23802 23876
23802 23955
23802 24125
23802 24279
23802 24309
23802 24332
23803 23927
23804 24144
23805 24039
23805 24181
23805 24256
23805 24318
23807 24131
23807 24215
23808 23847
23808 24271
23809 24154
23809 24481
23810 23877
23810 24042
23811 24377
23812 24212
23812 24338
23813 23912
23813 23975
23813 24078
23813 24435
23815 24292
23816 24209
23816 24334
23816 24356
23818 24083
23818 24380
23819 24019
23819 24189
23820 24254
23820 24284
23820 24365
23821 24142
23821 24347
23821 24472
23823 24474
23824 24237
23824 24301
23827 24025
23827 24127
23827 24128
23835 24225
23837 24286
23838 23999
23838 24213
23839 23861
23842 23912
23842 23969
23844 23861
23844 24161
23845 24103
23845 24106
23846 24062
23847 23848
23847 23952
23847 24181
23854 23857
23854 23954
23855 24064
23855 24078
23856 23857
23856 23954
23856 24107
23856 24218
23857 23954
23857 24424
23859 24102
23859 24344
23859 24402
23859 24434
23861 24451
23862 23863
23862 23953
23862 24074
23863 23980
23863 24253
23864 24168
23865 24067
23870 23923
23870 24017
23871 23910
23871 24287
23872 23970
23874 23915
23874 23916
23874 24071
23875 23914
23877 24242
23878 23931
23878 24310
23880 24306
23881 23957
23881 24040
23882 23937
23882 24080
23882 24296
23883 23912
23884 24412
23885 23921
23886 24189
23887 23997
23887 24087
23889 23890
23889 24323
23889 24405
23890 24405
23891 24213
23891 24308
23892 24174
23896 24147
23896 24148
23896 24281
23896 24387
23897 23998
23899 23900
23899 23950
23899 24022
23899 24067
23900 23950
23900 24067
23901 24055
23901 24433
23903 24192
23903 24195
23905 23906
23908 24160
23908 24310
23909 23912
23909 24070
23909 24363
23910 23977
23910 24287
23910 24398
23912 24070
23912 24415
23913 23998
23915 23916
23915 24026
23915 24071
23915 24243
23915 24372
23916 24004
23916 24243
23918 24216
23920 24154
23921 23974
23922 24164
23922 24348
23922 24427
23927 24273
23928 24064
23929 24088
23932 24162
23932 24442
23933 24435
23936 24120
23938 24101
23938 24102
23938 24452
23938 24486
23940 24060
23940 24422
23942 23976
23943 24397
23945 23992
23947 23962
23947 23975
23948 24175
23948 24403
23949 24321
23950 24022
23951 24122
23951 24153
23951 24387
23952 23999
23952 24181
23952 24384
23952 24434
23952 24467
23953 23997
23955 24166
23955 24279
23956 23972
23956 24065
23957 24040
23959 24029
23960 24338
23960 24425
23961 23969
23961 24376
23962 24366
23963 24135
23963 24285
23964 24451
23966 23968
23966 24414
23969 24111
23969 24474
23971 23996
23972 23986
23972 24065
23973 24099
23975 24265
23977 24287
23977 24398
23978 24238
23980 24155
23981 24480
23982 24459
23983 24200
23983 24246
23985 24152
23987 24057
23987 24112
23988 24439
23990 24399
23990 24420
23991 24424
23995 24240
23997 24072
23999 24052
23999 24053
23999 24082
24000 24184
24000 24431
24000 24437
24002 24245
24002 24329
24002 24414
24004 24372
24004 24401
24006 24275
24006 24430
24008 24478
24009 24030
24009 24158
24009 24176
24010 24047
24010 24287
24011 24157
24012 24085
24012 24489
24013 24461
24015 24043
24015 24235
24016 24134
24016 24217
24017 24240
24019 24105
24020 24176
24020 24225
24022 24252
24024 24147
24024 24264
24025 24127
24026 24243
24030 24086
24030 24176
24031 24439
24032 24116
24034 24083
24035 24231
24036 24083
24036 24321
24038 24087
24041 24152
24041 24428
24043 24452
24044 24149
24044 24239
24045 24079
24046 24129
24047 24287
24047 24398
24048 24074
24048 24154
24048 24256
24048 24325
24049 24364
24050 24217
24050 24259
24050 24452
24051 24053
24051 24152
24052 24053
24054 24388
24055 24433
24059 24253
24059 24270
24059 24378
24065 24273
24067 24291
24067 24362
24070 24477
24073 24383
24074 24154
24075 24164
24075 24247
24076 24169
24078 24325
24079 24096
24079 24210
24080 24296
24081 24105
24081 24186
24082 24161
24083 24228
24083 24380
24084 24196
24084 24225
24085 24116
24085 24312
24086 24411
24088 24177
24089 24131
24091 24216
24092 24225
24092 24386
24093 24154
24093 24481
24094 24439
24095 24234
24095 24465
24097 24175
24099 24100
24103 24266
24104 24428
24107 24424
24112 24171
24113 24114
24113 24115
24115 24207
24115 24218
24115 24357
24116 24225
24116 24312
24117 24281
24118 24120
24119 24195
24122 24214
24123 24180
24129 24156
24129 24458
24132 24275
24133 24225
24135 24285
24136 24286
24138 24139
24141 24407
24142 24343
24142 24386
24143 24412
24145 24480
24147 24264
24155 24253
24155 24266
24156 24173
24156 24458
24158 24175
24158 24176
24158 24390
24161 24471
24162 24442
24163 24199
24164 24247
24164 24272
24166 24279
24167 24249
24168 24325
24173 24410
24173 24458
24174 24188
24174 24417
24179 24446
24182 24383
24182 24409
24182 24473
24183 24431
24184 24431
24184 24437
24188 24311
24188 24417
24191 24192
24191 24289
24192 24195
24192 24289
24195 24311
24196 24225
24198 24266
24200 24225
24200 24246
24201 24341
24201 24462
24202 24340
24202 24341
24202 24462
24202 24464
24206 24214
24206 24277
24206 24470
24207 24357
24207 24373
24208 24357
24211 24298
24211 24475
24214 24277
24214 24470
24216 24251
24216 24442
24217 24452
24221 24222
24224 24247
24225 24246
24225 24389
24225 24391
24227 24242
24235 24236
24236 24237
24239 24269
24244 24382
24245 24414
24246 24312
24253 24266
24254 24401
24256 24300
24256 24318
24257 24345
24258 24260
24260 24261
24262 24396
24263 24357
24265 24461
24267 24461
24268 24322
24269 24414
24275 24430
24279 24307
24279 24332
24279 24423
24280 24282
24281 24379
24283 24403
24284 24401
24285 24436
24288 24406
24291 24321
24294 24463
24297 24457
24298 24475
24300 24318
24302 24383
24302 24473
24303 24339
24303 24474
24303 24484
24304 24305
24311 24469
24312 24489
24313 24444
24319 24321
24323 24405
24328 24446
24330 24414
24336 24382
24338 24354
24338 24445
24338 24448
24340 24464
24343 24360
24343 24386
24344 24371
24346 24369
24347 24456
24347 24472
24352 24404
24353 24438
24355 24447
24355 24449
24355 24450
24357 24373
24358 24469
24359 24393
24370 24371
24380 24385
24383 24409
24384 24467
24389 24391
24397 24420
24399 24420
24402 24406
24402 24434
24403 24485
24406 24434
24410 24458
24439 24462
24447 24450
24456 24472
24462 24464
24480 24488
