0 253
0 357
0 384
0 759
0 778
0 841
0 1120
0 1184
0 1307
0 1310
0 1322
0 1328
0 1388
0 1499
0 1514
0 1544
0 1560
0 1612
0 1622
0 1639
0 1834
0 1901
0 2010
0 2029
0 2055
1 2
1 27
1 44
1 47
1 52
1 63
1 69
1 78
1 95
1 152
1 178
1 221
1 252
1 262
1 264
1 326
1 336
1 370
1 384
1 451
1 475
1 596
1 608
1 648
1 694
1 705
1 711
1 844
1 860
1 880
1 914
1 966
1 970
1 1060
1 1153
1 1320
1 1422
1 1556
1 1560
1 1595
1 1599
1 1606
1 1611
1 1618
1 1641
1 1650
1 1664
1 1676
1 1702
1 1721
1 1904
1 1963
1 1996
1 1999
1 2045
1 2076
1 2089
1 2122
1 2175
1 2194
1 2217
2 25
2 45
2 47
2 56
2 63
2 123
2 144
2 198
2 224
2 230
2 239
2 253
2 262
2 264
2 274
2 281
2 295
2 319
2 336
2 359
2 361
2 429
2 441
2 456
2 475
2 493
2 585
2 596
2 605
2 608
2 616
2 617
2 620
2 634
2 653
2 665
2 670
2 671
2 672
2 677
2 678
2 684
2 707
2 711
2 714
2 724
2 744
2 748
2 780
2 781
2 809
2 823
2 840
2 844
2 851
2 860
2 866
2 919
2 925
2 943
2 948
2 952
2 970
2 1015
2 1036
2 1047
2 1052
2 1088
2 1091
2 1107
2 1125
2 1145
2 1151
2 1258
2 1277
2 1291
2 1320
2 1327
2 1341
2 1386
2 1414
2 1464
2 1481
2 1483
2 1484
2 1498
2 1499
2 1506
2 1544
2 1556
2 1561
2 1578
2 1585
2 1602
2 1606
2 1618
2 1622
2 1638
2 1642
2 1666
2 1670
2 1686
2 1696
2 1702
2 1717
2 1731
2 1735
2 1743
2 1754
2 1778
2 1793
2 1797
2 1803
2 1804
2 1816
2 1838
2 1851
2 1902
2 1904
2 1905
2 1929
2 1937
2 1972
2 1981
2 2026
2 2028
2 2094
2 2158
2 2202
2 2204
2 2210
2 2217
2 2220
2 2221
3 7
3 58
3 60
3 124
3 195
3 206
3 214
3 225
3 249
3 310
3 351
3 355
3 418
3 420
3 427
3 429
3 443
3 462
3 476
3 506
3 565
3 586
3 624
3 628
3 633
3 716
3 799
3 873
3 883
3 885
3 892
3 895
3 900
3 931
3 986
3 1055
3 1147
3 1171
3 1309
3 1314
3 1338
3 1371
3 1384
3 1401
3 1438
3 1439
3 1442
3 1445
3 1486
3 1509
3 1552
3 1567
3 1580
3 1609
3 1631
3 1730
3 1784
3 1791
3 1854
3 1861
3 1880
3 1915
3 1930
3 1935
3 1957
3 1966
3 1982
3 2054
3 2072
3 2081
3 2087
3 2113
3 2116
3 2131
3 2215
4 44
4 64
4 93
4 97
4 120
4 191
4 196
4 204
4 221
4 231
4 250
4 253
4 288
4 289
4 292
4 322
4 323
4 324
4 337
4 349
4 355
4 377
4 400
4 414
4 432
4 451
4 460
4 529
4 538
4 540
4 564
4 579
4 589
4 597
4 598
4 612
4 638
4 654
4 664
4 673
4 697
4 707
4 712
4 789
4 806
4 812
4 825
4 836
4 869
4 872
4 876
4 905
4 914
4 924
4 938
4 947
4 984
4 987
4 1003
4 1015
4 1070
4 1072
4 1093
4 1127
4 1149
4 1172
4 1195
4 1196
4 1198
4 1208
4 1219
4 1246
4 1247
4 1310
4 1314
4 1333
4 1335
4 1341
4 1382
4 1406
4 1413
4 1416
4 1425
4 1457
4 1484
4 1487
4 1492
4 1502
4 1519
4 1536
4 1578
4 1591
4 1594
4 1596
4 1609
4 1615
4 1626
4 1638
4 1653
4 1663
4 1679
4 1680
4 1713
4 1716
4 1745
4 1804
4 1830
4 1854
4 1872
4 1886
4 1898
4 1903
4 1905
4 1916
4 1935
4 1944
4 1948
4 1955
4 1965
4 1983
4 1997
4 2011
4 2023
4 2025
4 2034
4 2041
4 2054
4 2061
4 2076
4 2099
4 2122
4 2127
4 2131
4 2139
4 2158
4 2165
4 2174
4 2184
4 2204
4 2206
4 2223
4 2226
4 2228
4 2232
5 333
5 487
5 609
5 755
5 786
5 1638
5 1894
5 2027
5 2157
6 202
6 297
6 318
6 518
6 609
6 1149
6 1458
6 1642
6 2048
6 2089
7 59
7 91
7 136
7 155
7 232
7 258
7 302
7 382
7 409
7 412
7 421
7 426
7 448
7 476
7 565
7 594
7 624
7 633
7 656
7 670
7 716
7 721
7 723
7 855
7 859
7 916
7 971
7 987
7 990
7 1000
7 1005
7 1028
7 1058
7 1072
7 1123
7 1137
7 1171
7 1178
7 1219
7 1259
7 1342
7 1371
7 1438
7 1442
7 1470
7 1509
7 1550
7 1594
7 1596
7 1615
7 1621
7 1646
7 1674
7 1762
7 1811
7 1868
7 1880
7 1915
7 1923
7 1936
7 2075
7 2137
7 2143
7 2164
7 2216
8 74
8 112
8 145
8 178
8 246
8 384
8 441
8 529
8 860
8 907
8 1176
8 1252
8 1264
8 1289
8 1335
8 1532
8 1610
8 1629
8 1679
8 1691
8 1749
8 2005
8 2123
9 13
9 92
9 283
9 313
9 316
9 367
9 378
9 399
9 425
9 470
9 575
9 599
9 703
9 783
9 795
9 805
9 821
9 872
9 905
9 918
9 961
9 964
9 1127
9 1148
9 1215
9 1297
9 1301
9 1356
9 1559
9 1572
9 1625
9 1633
9 1748
9 1786
9 1817
9 2057
9 2060
9 2200
10 43
10 56
10 82
10 154
10 174
10 189
10 198
10 224
10 242
10 262
10 319
10 326
10 333
10 341
10 344
10 438
10 441
10 475
10 508
10 585
10 596
10 612
10 688
10 701
10 759
10 785
10 837
10 851
10 983
10 1057
10 1086
10 1130
10 1151
10 1214
10 1287
10 1299
10 1307
10 1338
10 1357
10 1384
10 1420
10 1483
10 1497
10 1606
10 1607
10 1646
10 1664
10 1673
10 1685
10 1702
10 1771
10 1804
10 1806
10 1814
10 1816
10 1823
10 1899
10 1911
10 2073
10 2125
10 2199
11 27
11 31
11 57
11 62
11 64
11 76
11 80
11 83
11 93
11 157
11 186
11 187
11 219
11 233
11 292
11 293
11 324
11 337
11 351
11 380
11 423
11 447
11 475
11 482
11 488
11 508
11 511
11 535
11 555
11 558
11 579
11 580
11 582
11 593
11 598
11 608
11 613
11 651
11 718
11 720
11 724
11 761
11 763
11 771
11 807
11 823
11 827
11 847
11 863
11 870
11 882
11 893
11 909
11 913
11 955
11 1042
11 1097
11 1100
11 1126
11 1194
11 1226
11 1233
11 1239
11 1303
11 1326
11 1329
11 1366
11 1382
11 1393
11 1394
11 1411
11 1428
11 1439
11 1507
11 1516
11 1539
11 1574
11 1590
11 1606
11 1634
11 1637
11 1659
11 1667
11 1672
11 1700
11 1701
11 1710
11 1727
11 1765
11 1781
11 1799
11 1808
11 1819
11 1836
11 1843
11 1855
11 1881
11 1890
11 1897
11 1903
11 1976
11 1987
11 2026
11 2033
11 2039
11 2046
11 2049
11 2090
11 2132
11 2139
11 2140
11 2145
11 2153
11 2161
11 2168
11 2204
11 2209
12 214
12 401
12 469
12 476
12 490
12 656
12 716
12 769
12 819
12 900
12 924
12 931
12 951
12 966
12 1089
12 1101
12 1121
12 1309
12 1314
12 1387
12 1401
12 1439
12 1442
12 1445
12 1465
12 1631
12 1867
12 1895
12 1900
12 1915
12 2049
12 2054
13 38
13 92
13 159
13 261
13 487
13 902
13 930
13 965
13 1009
13 1241
13 1249
13 1265
13 1441
13 1501
13 1548
13 1770
13 1958
13 2004
13 2082
13 2207
14 114
14 149
14 205
14 584
14 1287
14 1331
14 1962
15 20
15 23
15 72
15 100
15 106
15 112
15 130
15 267
15 381
15 406
15 529
15 546
15 558
15 613
15 616
15 662
15 693
15 696
15 791
15 825
15 919
15 954
15 969
15 979
15 989
15 1079
15 1169
15 1206
15 1229
15 1240
15 1289
15 1336
15 1514
15 1525
15 1554
15 1571
15 1578
15 1687
15 1709
15 1713
15 1717
15 1775
15 1824
15 1826
15 1869
15 1875
15 1912
15 1929
15 1993
15 1996
15 2005
15 2075
15 2167
15 2196
15 2232
16 18
16 67
16 84
16 107
16 159
16 163
16 176
16 183
16 202
16 217
16 279
16 298
16 304
16 310
16 327
16 339
16 378
16 480
16 487
16 491
16 516
16 526
16 551
16 553
16 595
16 609
16 612
16 641
16 679
16 695
16 762
16 784
16 797
16 805
16 847
16 848
16 856
16 872
16 910
16 957
16 965
16 1015
16 1016
16 1067
16 1082
16 1139
16 1154
16 1172
16 1182
16 1207
16 1249
16 1261
16 1278
16 1301
16 1302
16 1313
16 1337
16 1345
16 1355
16 1356
16 1369
16 1422
16 1458
16 1459
16 1505
16 1515
16 1527
16 1528
16 1548
16 1620
16 1635
16 1662
16 1678
16 1720
16 1722
16 1729
16 1746
16 1770
16 1787
16 1788
16 1825
16 1828
16 1839
16 1845
16 1866
16 1908
16 1910
16 1917
16 1925
16 1926
16 1954
16 1960
16 1991
16 2000
16 2058
16 2082
16 2096
16 2105
16 2106
16 2115
16 2130
16 2134
16 2158
16 2176
16 2178
16 2183
16 2186
16 2200
16 2203
16 2224
17 52
17 231
17 421
17 514
17 580
17 741
17 772
17 937
17 1036
17 1040
17 1089
17 1314
17 1333
17 1456
17 1484
17 1523
17 1596
17 1690
17 1716
17 1804
17 1955
17 1956
17 1970
17 2011
17 2049
17 2054
17 2075
17 2098
17 2110
17 2174
17 2202
18 92
18 118
18 142
18 176
18 272
18 354
18 491
18 562
18 601
18 788
18 838
18 848
18 1148
18 1422
18 1679
18 1825
18 1828
18 1850
18 1866
18 2004
18 2058
18 2094
18 2105
18 2130
18 2159
19 529
19 652
19 748
19 1128
19 1152
19 1341
19 1393
19 1590
19 1634
19 1649
19 1724
19 1804
19 1826
20 30
20 55
20 74
20 148
20 165
20 169
20 171
20 205
20 221
20 257
20 267
20 281
20 287
20 328
20 337
20 371
20 395
20 400
20 430
20 460
20 463
20 475
20 532
20 617
20 643
20 696
20 711
20 724
20 761
20 792
20 794
20 800
20 806
20 836
20 847
20 851
20 863
20 913
20 938
20 978
20 1015
20 1023
20 1025
20 1047
20 1055
20 1057
20 1072
20 1109
20 1126
20 1172
20 1190
20 1324
20 1335
20 1341
20 1366
20 1403
20 1410
20 1437
20 1499
20 1518
20 1582
20 1606
20 1663
20 1671
20 1687
20 1701
20 1713
20 1797
20 1815
20 1831
20 1849
20 1855
20 1900
20 1903
20 1921
20 1955
20 1956
20 1972
20 1977
20 1999
20 2039
20 2054
20 2064
20 2091
20 2098
20 2122
20 2142
20 2148
20 2150
20 2158
20 2164
20 2181
20 2184
20 2194
20 2196
20 2220
20 2228
21 34
21 86
21 92
21 145
21 150
21 175
21 216
21 218
21 283
21 304
21 391
21 520
21 599
21 601
21 609
21 688
21 745
21 781
21 788
21 797
21 831
21 838
21 923
21 946
21 957
21 961
21 1024
21 1245
21 1249
21 1295
21 1359
21 1557
21 1623
21 1746
21 1828
21 1910
21 1919
21 1926
21 2004
21 2040
21 2048
21 2058
21 2097
21 2105
22 222
22 343
22 417
22 543
22 590
22 593
22 759
22 807
22 958
22 1097
22 1146
22 1170
22 1827
22 1840
22 2021
22 2190
22 2229
23 267
23 637
23 690
23 806
23 845
23 1109
23 1113
23 1305
23 1629
23 1717
23 1819
23 1993
23 2049
24 46
24 271
24 339
24 422
24 686
24 1441
24 1633
24 2097
24 2155
24 2207
25 45
25 69
25 78
25 128
25 133
25 152
25 187
25 200
25 221
25 230
25 238
25 242
25 252
25 314
25 323
25 336
25 351
25 370
25 395
25 461
25 468
25 503
25 580
25 598
25 617
25 631
25 635
25 637
25 653
25 658
25 672
25 678
25 685
25 760
25 778
25 781
25 782
25 814
25 820
25 847
25 860
25 932
25 952
25 966
25 973
25 1020
25 1023
25 1042
25 1052
25 1060
25 1101
25 1125
25 1151
25 1152
25 1162
25 1193
25 1262
25 1320
25 1341
25 1384
25 1399
25 1404
25 1414
25 1416
25 1456
25 1490
25 1506
25 1512
25 1513
25 1541
25 1544
25 1564
25 1578
25 1581
25 1602
25 1611
25 1626
25 1641
25 1666
25 1672
25 1699
25 1702
25 1780
25 1804
25 1849
25 1851
25 1898
25 1900
25 1918
25 1953
25 1964
25 2049
25 2148
26 113
26 495
26 966
26 1102
26 1189
26 1303
26 1393
26 1394
26 1649
26 1721
26 1833
26 1856
26 1881
26 2080
26 2103
26 2195
27 60
27 68
27 79
27 94
27 112
27 117
27 148
27 171
27 177
27 209
27 214
27 219
27 221
27 233
27 238
27 373
27 379
27 380
27 384
27 393
27 396
27 444
27 467
27 468
27 496
27 502
27 635
27 638
27 640
27 643
27 653
27 658
27 664
27 760
27 761
27 763
27 766
27 767
27 768
27 781
27 812
27 827
27 829
27 834
27 863
27 876
27 924
27 945
27 951
27 1011
27 1023
27 1038
27 1042
27 1070
27 1079
27 1095
27 1097
27 1106
27 1113
27 1155
27 1231
27 1235
27 1239
27 1240
27 1258
27 1352
27 1387
27 1394
27 1410
27 1439
27 1450
27 1474
27 1486
27 1490
27 1534
27 1566
27 1578
27 1613
27 1618
27 1626
27 1667
27 1709
27 1733
27 1751
27 1753
27 1757
27 1815
27 1831
27 1849
27 1872
27 1878
27 1881
27 1888
27 1890
27 1904
27 1906
27 1914
27 1918
27 1932
27 1942
27 1951
27 1975
27 1976
27 1987
27 2041
27 2122
27 2140
27 2142
27 2145
27 2173
27 2184
27 2228
28 31
28 119
28 125
28 238
28 379
28 396
28 468
28 511
28 573
28 643
28 653
28 744
28 823
28 827
28 847
28 855
28 863
28 924
28 966
28 978
28 999
28 1000
28 1105
28 1113
28 1116
28 1199
28 1316
28 1474
28 1617
28 1637
28 1638
28 1698
28 1719
28 1751
28 1818
28 1855
28 1890
28 1918
28 1928
28 1993
28 2019
28 2037
28 2118
28 2132
28 2145
28 2148
29 307
29 518
29 757
29 959
29 1012
29 1094
29 1722
29 1723
29 1937
29 2065
30 86
30 128
30 152
30 221
30 231
30 242
30 247
30 250
30 287
30 343
30 370
30 392
30 460
30 508
30 530
30 559
30 596
30 608
30 653
30 654
30 671
30 677
30 697
30 699
30 711
30 724
30 730
30 814
30 841
30 843
30 851
30 860
30 903
30 914
30 947
30 966
30 970
30 1020
30 1101
30 1151
30 1153
30 1201
30 1233
30 1252
30 1262
30 1310
30 1320
30 1341
30 1384
30 1411
30 1422
30 1483
30 1490
30 1492
30 1505
30 1506
30 1556
30 1581
30 1585
30 1599
30 1602
30 1650
30 1664
30 1702
30 1713
30 1780
30 1797
30 1800
30 1810
30 1827
30 1830
30 1852
30 1872
30 1896
30 1900
30 1904
30 1911
30 1955
30 1963
30 2016
30 2068
30 2089
30 2103
30 2158
30 2174
30 2181
30 2182
30 2204
30 2209
30 2221
30 2226
31 157
31 164
31 219
31 287
31 335
31 359
31 430
31 432
31 511
31 515
31 531
31 647
31 652
31 657
31 749
31 771
31 785
31 851
31 907
31 910
31 913
31 943
31 945
31 978
31 997
31 1047
31 1071
31 1155
31 1233
31 1236
31 1308
31 1366
31 1474
31 1475
31 1492
31 1529
31 1654
31 1667
31 1699
31 1700
31 1713
31 1751
31 1759
31 1797
31 1849
31 1881
31 1911
31 1912
31 1921
31 1976
31 1999
31 2011
31 2028
31 2033
31 2045
31 2056
31 2100
31 2120
31 2148
31 2184
31 2190
31 2202
31 2209
31 2217
32 58
32 59
32 76
32 85
32 119
32 135
32 186
32 194
32 221
32 227
32 268
32 293
32 302
32 380
32 387
32 393
32 402
32 403
32 432
32 439
32 448
32 468
32 502
32 511
32 536
32 540
32 568
32 599
32 634
32 658
32 697
32 702
32 703
32 704
32 721
32 729
32 746
32 752
32 763
32 819
32 826
32 845
32 855
32 869
32 873
32 883
32 895
32 913
32 924
32 937
32 955
32 1002
32 1014
32 1015
32 1072
32 1096
32 1105
32 1125
32 1171
32 1183
32 1185
32 1196
32 1226
32 1251
32 1309
32 1316
32 1323
32 1362
32 1373
32 1401
32 1439
32 1446
32 1448
32 1450
32 1456
32 1490
32 1538
32 1567
32 1578
32 1594
32 1621
32 1630
32 1638
32 1666
32 1669
32 1675
32 1690
32 1699
32 1719
32 1725
32 1759
32 1779
32 1784
32 1818
32 1820
32 1849
32 1859
32 1867
32 1928
32 1930
32 1942
32 1948
32 1957
32 1964
32 1976
32 2001
32 2037
32 2045
32 2049
32 2062
32 2081
32 2118
32 2132
32 2148
32 2174
33 83
33 128
33 133
33 200
33 221
33 238
33 262
33 335
33 336
33 355
33 468
33 578
33 598
33 617
33 639
33 677
33 744
33 815
33 823
33 841
33 847
33 863
33 925
33 996
33 999
33 1046
33 1080
33 1113
33 1140
33 1141
33 1173
33 1199
33 1376
33 1506
33 1529
33 1613
33 1630
33 1646
33 1666
33 1667
33 1708
33 1717
33 1745
33 1802
33 2033
33 2112
33 2190
34 176
34 216
34 346
34 388
34 391
34 418
34 485
34 487
34 562
34 566
34 599
34 609
34 695
34 703
34 820
34 856
34 957
34 964
34 1054
34 1161
34 1249
34 1360
34 1463
34 1470
34 1515
34 1521
34 1527
34 1557
34 1575
34 1620
34 1692
34 1729
34 1798
34 1978
34 2105
34 2164
35 113
35 127
35 227
35 305
35 455
35 529
35 694
35 716
35 893
35 934
35 1025
35 1305
35 1315
35 1721
35 1900
35 1904
35 1920
35 2052
35 2078
35 2121
36 78
36 138
36 292
36 456
36 508
36 583
36 659
36 842
36 850
36 913
36 991
36 1036
36 1187
36 1482
36 1578
36 1701
36 1724
36 1773
36 1800
36 1804
36 1823
36 2075
36 2091
36 2139
36 2220
37 118
37 1220
37 1413
38 1934
38 2114
39 49
39 159
39 176
39 253
39 272
39 279
39 339
39 367
39 445
39 518
39 599
39 609
39 645
39 732
39 755
39 1053
39 1139
39 1213
39 1248
39 1295
39 1297
39 1369
39 1374
39 1385
39 1466
39 1468
39 1528
39 1642
39 1770
39 1825
39 1828
39 1926
39 1960
39 2027
39 2036
39 2066
39 2114
39 2164
40 1109
40 1488
40 1610
41 163
41 176
41 190
41 386
41 487
41 599
41 795
41 820
41 832
41 856
41 923
41 929
41 1009
41 1213
41 1244
41 1441
41 1521
41 1628
41 1678
41 1729
41 1957
41 1994
41 2158
42 46
42 176
42 183
42 315
42 346
42 356
42 442
42 455
42 645
42 781
42 788
42 820
42 960
42 1012
42 1026
42 1101
42 1158
42 1215
42 1398
42 1422
42 1515
42 1575
42 1626
42 1722
42 1745
42 1839
42 1846
42 1866
42 1945
42 1951
42 1959
42 1976
42 1978
42 2027
42 2040
42 2094
42 2154
42 2226
42 2228
43 56
43 132
43 154
43 155
43 174
43 198
43 246
43 253
43 307
43 319
43 333
43 352
43 426
43 441
43 447
43 636
43 671
43 689
43 722
43 798
43 816
43 851
43 887
43 903
43 905
43 911
43 942
43 998
43 1041
43 1107
43 1118
43 1130
43 1145
43 1157
43 1211
43 1216
43 1279
43 1294
43 1307
43 1330
43 1370
43 1417
43 1483
43 1738
43 1744
43 1771
43 1806
43 1814
43 1894
43 1899
43 1967
43 1986
43 2035
43 2043
43 2056
43 2059
43 2070
43 2092
43 2199
43 2227
43 2228
44 77
44 146
44 193
44 389
44 523
44 576
44 596
44 629
44 648
44 652
44 662
44 670
44 682
44 694
44 726
44 730
44 770
44 794
44 802
44 824
44 875
44 882
44 978
44 980
44 1059
44 1092
44 1227
44 1340
44 1436
44 1566
44 1602
44 1644
44 1744
44 1756
44 1833
44 1855
44 1856
44 1887
44 1892
44 1906
44 1969
44 1996
44 2041
44 2102
44 2206
44 2217
44 2231
45 75
45 89
45 90
45 128
45 131
45 133
45 176
45 187
45 230
45 233
45 242
45 262
45 264
45 268
45 323
45 395
45 399
45 405
45 468
45 531
45 571
45 598
45 634
45 637
45 653
45 658
45 672
45 678
45 711
45 752
45 847
45 890
45 914
45 924
45 932
45 948
45 966
45 999
45 1042
45 1048
45 1060
45 1070
45 1097
45 1101
45 1125
45 1127
45 1147
45 1162
45 1193
45 1199
45 1239
45 1320
45 1384
45 1399
45 1406
45 1414
45 1490
45 1513
45 1534
45 1591
45 1602
45 1637
45 1638
45 1653
45 1664
45 1666
45 1667
45 1676
45 1699
45 1718
45 1780
45 1781
45 1797
45 1823
45 1849
45 1851
45 1907
45 1928
45 1951
45 1964
45 1989
45 2045
45 2127
45 2142
45 2148
45 2158
45 2174
45 2194
45 2204
45 2229
46 84
46 92
46 128
46 163
46 175
46 272
46 339
46 356
46 378
46 551
46 805
46 820
46 908
46 1215
46 1278
46 1349
46 1356
46 1463
46 1557
46 1562
47 63
47 86
47 110
47 128
47 131
47 152
47 230
47 252
47 262
47 264
47 295
47 297
47 336
47 343
47 384
47 429
47 447
47 529
47 596
47 626
47 640
47 671
47 672
47 678
47 684
47 707
47 716
47 743
47 754
47 765
47 778
47 794
47 841
47 844
47 851
47 860
47 890
47 947
47 952
47 1025
47 1033
47 1035
47 1050
47 1052
47 1060
47 1082
47 1088
47 1098
47 1101
47 1117
47 1120
47 1199
47 1277
47 1289
47 1307
47 1308
47 1320
47 1368
47 1386
47 1422
47 1436
47 1449
47 1481
47 1492
47 1534
47 1544
47 1556
47 1561
47 1606
47 1638
47 1641
47 1650
47 1654
47 1666
47 1686
47 1696
47 1717
47 1721
47 1778
47 1780
47 1781
47 1793
47 1797
47 1826
47 1830
47 1851
47 1860
47 1898
47 1901
47 1904
47 1920
47 1940
47 1961
47 1997
47 2028
47 2070
47 2089
47 2104
47 2121
47 2174
47 2208
47 2217
48 264
48 307
48 377
48 498
48 600
48 613
48 792
48 829
48 886
48 1005
48 1214
48 1635
48 1767
48 1807
48 1886
48 2010
48 2099
48 2202
49 163
49 553
49 908
49 1182
49 1213
49 1528
49 1615
49 1770
49 1866
49 1979
50 54
50 64
50 68
50 79
50 105
50 118
50 120
50 153
50 206
50 210
50 245
50 247
50 265
50 277
50 348
50 397
50 422
50 451
50 490
50 497
50 528
50 552
50 560
50 665
50 741
50 785
50 804
50 806
50 876
50 887
50 926
50 992
50 1040
50 1106
50 1115
50 1124
50 1129
50 1134
50 1145
50 1179
50 1233
50 1259
50 1312
50 1333
50 1338
50 1403
50 1422
50 1427
50 1432
50 1433
50 1435
50 1479
50 1489
50 1502
50 1536
50 1644
50 1680
50 1682
50 1794
50 1795
50 1812
50 1829
50 1967
50 1977
50 2031
50 2035
50 2076
50 2086
50 2101
50 2144
50 2182
50 2194
51 119
51 125
51 214
51 215
51 245
51 249
51 266
51 275
51 288
51 365
51 373
51 401
51 403
51 408
51 421
51 476
51 492
51 500
51 510
51 534
51 538
51 563
51 573
51 594
51 607
51 633
51 653
51 656
51 707
51 737
51 746
51 781
51 819
51 844
51 852
51 858
51 867
51 878
51 886
51 905
51 911
51 916
51 929
51 931
51 932
51 939
51 951
51 953
51 973
51 987
51 990
51 1003
51 1014
51 1019
51 1030
51 1040
51 1050
51 1101
51 1127
51 1137
51 1160
51 1183
51 1186
51 1202
51 1212
51 1219
51 1253
51 1260
51 1294
51 1309
51 1312
51 1332
51 1372
51 1384
51 1401
51 1405
51 1406
51 1412
51 1439
51 1446
51 1456
51 1465
51 1477
51 1487
51 1490
51 1491
51 1559
51 1615
51 1622
51 1637
51 1638
51 1667
51 1669
51 1677
51 1690
51 1696
51 1726
51 1743
51 1780
51 1784
51 1811
51 1841
51 1854
51 1872
51 1876
51 1880
51 1883
51 1885
51 1907
51 1931
51 1936
51 1938
51 1939
51 1949
51 1964
51 1972
51 1994
51 2045
51 2087
51 2107
51 2148
51 2158
51 2200
51 2221
52 62
52 69
52 78
52 120
52 131
52 178
52 184
52 187
52 205
52 206
52 221
52 252
52 307
52 327
52 337
52 384
52 406
52 447
52 468
52 508
52 514
52 521
52 529
52 571
52 626
52 637
52 671
52 677
52 694
52 707
52 719
52 781
52 806
52 814
52 828
52 836
52 851
52 860
52 867
52 877
52 886
52 948
52 1006
52 1025
52 1036
52 1060
52 1065
52 1097
52 1109
52 1164
52 1190
52 1208
52 1252
52 1254
52 1258
52 1291
52 1326
52 1333
52 1347
52 1361
52 1368
52 1411
52 1434
52 1436
52 1462
52 1492
52 1499
52 1504
52 1506
52 1544
52 1563
52 1570
52 1581
52 1585
52 1591
52 1595
52 1599
52 1610
52 1623
52 1646
52 1687
52 1724
52 1778
52 1781
52 1801
52 1826
52 1831
52 1860
52 1863
52 1897
52 1903
52 1920
52 1956
52 1996
52 1997
52 2010
52 2090
52 2141
52 2168
52 2207
53 618
53 2010
54 64
54 123
54 125
54 204
54 223
54 229
54 238
54 276
54 288
54 365
54 374
54 380
54 411
54 436
54 475
54 497
54 624
54 643
54 653
54 664
54 665
54 715
54 869
54 917
54 966
54 988
54 1013
54 1019
54 1112
54 1115
54 1116
54 1127
54 1129
54 1155
54 1185
54 1191
54 1231
54 1233
54 1251
54 1286
54 1387
54 1402
54 1435
54 1439
54 1449
54 1450
54 1465
54 1480
54 1486
54 1491
54 1508
54 1527
54 1606
54 1638
54 1779
54 1812
54 1829
54 1854
54 1872
54 1881
54 1949
54 1952
54 1963
54 1977
54 2024
54 2043
54 2053
54 2108
54 2113
54 2132
54 2163
55 74
55 100
55 213
55 219
55 232
55 262
55 284
55 287
55 308
55 314
55 350
55 371
55 381
55 406
55 486
55 508
55 511
55 512
55 515
55 542
55 544
55 558
55 613
55 643
55 659
55 662
55 693
55 724
55 754
55 823
55 850
55 870
55 910
55 927
55 945
55 949
55 954
55 1047
55 1055
55 1106
55 1141
55 1180
55 1190
55 1233
55 1262
55 1271
55 1310
55 1366
55 1391
55 1411
55 1422
55 1448
55 1475
55 1525
55 1529
55 1554
55 1571
55 1578
55 1585
55 1606
55 1612
55 1629
55 1635
55 1695
55 1704
55 1739
55 1799
55 1819
55 1912
55 1929
55 1963
55 1993
55 2033
55 2038
55 2075
55 2081
55 2109
55 2177
55 2190
55 2196
55 2209
55 2222
55 2232
56 154
56 171
56 174
56 189
56 206
56 220
56 239
56 277
56 307
56 319
56 341
56 343
56 374
56 400
56 508
56 550
56 594
56 688
56 701
56 731
56 737
56 755
56 759
56 780
56 828
56 837
56 840
56 867
56 897
56 1005
56 1103
56 1142
56 1145
56 1152
56 1202
56 1238
56 1287
56 1299
56 1328
56 1338
56 1403
56 1406
56 1427
56 1470
56 1578
56 1622
56 1646
56 1664
56 1673
56 1676
56 1684
56 1707
56 1762
56 1838
56 1874
56 1887
56 1943
56 1970
56 1994
56 2010
56 2043
56 2125
56 2146
56 2149
56 2199
56 2218
57 93
57 113
57 125
57 131
57 137
57 167
57 195
57 219
57 275
57 305
57 325
57 337
57 342
57 398
57 455
57 580
57 603
57 653
57 680
57 819
57 865
57 893
57 900
57 913
57 935
57 972
57 1039
57 1044
57 1187
57 1195
57 1250
57 1255
57 1268
57 1315
57 1326
57 1376
57 1394
57 1428
57 1440
57 1491
57 1516
57 1583
57 1590
57 1634
57 1660
57 1672
57 1710
57 1765
57 1800
57 1833
57 1881
57 1893
57 1897
57 1982
57 2012
57 2032
57 2117
57 2214
57 2223
57 2230
58 194
58 196
58 206
58 234
58 237
58 351
58 402
58 429
58 443
58 448
58 462
58 476
58 506
58 536
58 538
58 586
58 628
58 649
58 716
58 853
58 873
58 879
58 895
58 931
58 986
58 1022
58 1096
58 1121
58 1123
58 1171
58 1259
58 1324
58 1357
58 1371
58 1384
58 1401
58 1438
58 1442
58 1486
58 1487
58 1490
58 1493
58 1508
58 1517
58 1567
58 1605
58 1631
58 1646
58 1677
58 1854
58 1861
58 1930
58 2087
58 2088
58 2113
58 2116
58 2117
58 2215
59 195
59 247
59 249
59 327
59 394
59 423
59 497
59 508
59 530
59 632
59 665
59 799
59 806
59 841
59 913
59 926
59 929
59 932
59 956
59 963
59 1013
59 1030
59 1067
59 1106
59 1177
59 1317
59 1392
59 1449
59 1450
59 1553
59 1606
59 1609
59 1638
59 1644
59 1680
59 1713
59 1872
59 1880
59 1916
59 2031
59 2041
59 2061
59 2081
59 2113
59 2143
59 2182
60 125
60 195
60 242
60 255
60 275
60 288
60 345
60 389
60 401
60 420
60 464
60 473
60 484
60 643
60 656
60 769
60 875
60 892
60 966
60 1039
60 1042
60 1138
60 1151
60 1235
60 1286
60 1318
60 1367
60 1442
60 1445
60 1464
60 1475
60 1493
60 1626
60 1638
60 1646
60 1658
60 1663
60 1708
60 1739
60 1757
60 1849
60 1854
60 1878
60 1900
60 1916
60 1928
60 1967
60 2024
60 2064
60 2168
60 2190
61 1057
62 117
62 252
62 258
62 335
62 341
62 355
62 468
62 524
62 543
62 629
62 670
62 835
62 836
62 847
62 1018
62 1080
62 1120
62 1140
62 1144
62 1163
62 1173
62 1299
62 1343
62 1392
62 1425
62 1500
62 1541
62 1563
62 1577
62 1581
62 1585
62 1599
62 1646
62 1688
62 1691
62 1699
62 1713
62 1768
62 1773
62 1804
62 1829
62 1831
62 1900
62 1916
62 2112
62 2194
63 165
63 230
63 241
63 262
63 361
63 371
63 377
63 414
63 428
63 432
63 446
63 449
63 456
63 512
63 543
63 546
63 589
63 596
63 608
63 613
63 637
63 678
63 707
63 714
63 747
63 781
63 839
63 850
63 947
63 952
63 993
63 997
63 1125
63 1162
63 1256
63 1341
63 1368
63 1386
63 1406
63 1411
63 1544
63 1554
63 1556
63 1581
63 1602
63 1654
63 1670
63 1696
63 1713
63 1778
63 1804
63 1807
63 1851
63 1900
63 1955
63 1964
63 2028
63 2033
63 2068
63 2081
63 2089
63 2098
63 2136
63 2148
63 2185
63 2194
63 2217
63 2221
63 2229
64 157
64 165
64 181
64 208
64 215
64 221
64 225
64 245
64 265
64 351
64 373
64 409
64 451
64 464
64 497
64 506
64 530
64 547
64 568
64 587
64 593
64 598
64 624
64 625
64 665
64 670
64 769
64 806
64 841
64 847
64 876
64 889
64 917
64 926
64 955
64 986
64 988
64 1013
64 1034
64 1068
64 1076
64 1089
64 1097
64 1106
64 1115
64 1129
64 1135
64 1172
64 1185
64 1191
64 1231
64 1233
64 1241
64 1256
64 1329
64 1387
64 1403
64 1413
64 1422
64 1428
64 1435
64 1442
64 1450
64 1467
64 1475
64 1538
64 1626
64 1635
64 1680
64 1726
64 1812
64 1829
64 1935
64 1940
64 1944
64 1983
64 2018
64 2031
64 2034
64 2049
64 2061
64 2107
64 2111
64 2120
64 2137
64 2163
64 2182
64 2188
65 113
66 239
66 353
66 357
66 371
66 464
66 488
66 513
66 576
66 590
66 598
66 611
66 629
66 631
66 687
66 713
66 726
66 730
66 754
66 769
66 815
66 817
66 847
66 935
66 966
66 967
66 1021
66 1065
66 1097
66 1151
66 1255
66 1310
66 1328
66 1399
66 1415
66 1422
66 1425
66 1426
66 1454
66 1464
66 1475
66 1491
66 1529
66 1563
66 1568
66 1598
66 1613
66 1627
66 1645
66 1652
66 1694
66 1724
66 1783
66 1840
66 1874
66 1984
66 2039
66 2091
66 2098
66 2121
66 2168
66 2190
66 2196
67 150
67 163
67 258
67 272
67 304
67 338
67 339
67 510
67 609
67 867
67 916
67 965
67 1018
67 1108
67 1213
67 1228
67 1242
67 1295
67 1369
67 1439
67 1466
67 1476
67 1676
67 1828
67 1866
67 2097
67 2115
67 2116
68 97
68 105
68 120
68 131
68 140
68 171
68 204
68 208
68 224
68 307
68 330
68 348
68 352
68 463
68 548
68 550
68 654
68 689
68 691
68 734
68 735
68 789
68 829
68 851
68 876
68 887
68 911
68 939
68 1010
68 1015
68 1026
68 1031
68 1045
68 1051
68 1062
68 1124
68 1279
68 1328
68 1361
68 1380
68 1381
68 1384
68 1422
68 1432
68 1434
68 1457
68 1517
68 1534
68 1559
68 1560
68 1605
68 1668
68 1682
68 1794
68 1831
68 1865
68 1870
68 1875
68 1894
68 1899
68 1922
68 1970
68 1994
68 1997
68 2078
68 2086
68 2133
68 2138
68 2145
68 2149
68 2154
68 2204
68 2207
68 2220
68 2228
69 78
69 105
69 112
69 123
69 166
69 178
69 221
69 250
69 312
69 384
69 508
69 509
69 529
69 532
69 590
69 593
69 631
69 634
69 694
69 766
69 802
69 806
69 851
69 860
69 886
69 907
69 942
69 966
69 970
69 1015
69 1088
69 1115
69 1120
69 1152
69 1206
69 1229
69 1233
69 1252
69 1277
69 1289
69 1397
69 1416
69 1422
69 1434
69 1463
69 1499
69 1512
69 1555
69 1556
69 1565
69 1576
69 1578
69 1595
69 1619
69 1638
69 1679
69 1714
69 1749
69 1804
69 1904
69 1927
69 1977
69 1996
69 1997
69 1999
69 2005
69 2006
69 2049
69 2070
69 2076
69 2098
69 2123
69 2141
69 2175
69 2182
69 2208
69 2220
69 2229
70 752
70 1018
70 1235
70 1500
70 1588
70 1668
70 2029
71 315
71 391
71 499
71 747
71 918
71 1248
71 1297
71 1683
71 1686
71 1814
72 74
72 112
72 180
72 205
72 257
72 300
72 357
72 389
72 496
72 512
72 542
72 576
72 597
72 613
72 631
72 670
72 674
72 694
72 717
72 749
72 767
72 806
72 824
72 973
72 980
72 1011
72 1065
72 1128
72 1192
72 1194
72 1291
72 1305
72 1391
72 1408
72 1472
72 1566
72 1600
72 1687
72 1735
72 1862
72 1888
72 1897
72 1901
72 1906
72 1922
72 1944
72 2091
72 2103
72 2173
72 2184
72 2223
73 115
73 162
73 186
73 194
73 303
73 379
73 420
73 448
73 469
73 476
73 530
73 593
73 716
73 746
73 804
73 823
73 854
73 882
73 945
73 951
73 955
73 1019
73 1055
73 1123
73 1185
73 1221
73 1231
73 1286
73 1402
73 1442
73 1480
73 1550
73 1777
73 1779
73 1876
73 2116
73 2117
73 2132
73 2162
73 2165
73 2188
74 106
74 123
74 130
74 169
74 231
74 262
74 270
74 314
74 324
74 372
74 384
74 431
74 437
74 441
74 464
74 532
74 590
74 593
74 613
74 617
74 618
74 631
74 666
74 675
74 696
74 749
74 750
74 837
74 841
74 874
74 882
74 903
74 907
74 909
74 912
74 914
74 956
74 962
74 966
74 993
74 996
74 1034
74 1035
74 1036
74 1057
74 1126
74 1206
74 1231
74 1247
74 1271
74 1289
74 1335
74 1392
74 1415
74 1481
74 1494
74 1554
74 1574
74 1585
74 1590
74 1602
74 1619
74 1626
74 1659
74 1667
74 1691
74 1699
74 1701
74 1702
74 1717
74 1733
74 1735
74 1756
74 1785
74 1824
74 1869
74 1875
74 1903
74 1927
74 2039
74 2049
74 2063
74 2091
74 2116
74 2158
74 2161
74 2164
74 2184
74 2199
74 2208
75 90
75 99
75 131
75 184
75 222
75 268
75 319
75 330
75 341
75 438
75 447
75 463
75 514
75 590
75 634
75 677
75 701
75 722
75 770
75 798
75 851
75 911
75 924
75 942
75 998
75 1002
75 1025
75 1147
75 1198
75 1211
75 1299
75 1307
75 1414
75 1591
75 1611
75 1814
75 1823
75 1940
75 1970
75 2056
76 78
76 94
76 116
76 131
76 135
76 172
76 194
76 195
76 219
76 221
76 225
76 232
76 245
76 273
76 324
76 335
76 337
76 351
76 381
76 396
76 401
76 447
76 506
76 508
76 511
76 524
76 548
76 552
76 559
76 568
76 580
76 587
76 589
76 593
76 598
76 613
76 649
76 653
76 665
76 667
76 699
76 729
76 735
76 744
76 763
76 845
76 847
76 863
76 866
76 870
76 886
76 895
76 910
76 919
76 931
76 942
76 948
76 966
76 977
76 981
76 984
76 1002
76 1015
76 1018
76 1035
76 1036
76 1042
76 1055
76 1067
76 1070
76 1089
76 1090
76 1097
76 1102
76 1109
76 1123
76 1146
76 1147
76 1151
76 1171
76 1241
76 1305
76 1309
76 1324
76 1343
76 1371
76 1378
76 1401
76 1411
76 1422
76 1457
76 1465
76 1486
76 1489
76 1507
76 1535
76 1536
76 1538
76 1541
76 1564
76 1600
76 1605
76 1626
76 1638
76 1658
76 1672
76 1699
76 1700
76 1717
76 1735
76 1745
76 1767
76 1781
76 1797
76 1804
76 1819
76 1823
76 1844
76 1852
76 1875
76 1896
76 1900
76 1903
76 1916
76 1918
76 2001
76 2026
76 2045
76 2049
76 2064
76 2110
76 2117
76 2168
76 2190
77 146
77 177
77 193
77 496
77 509
77 576
77 638
77 760
77 802
77 824
77 980
77 1073
77 1093
77 1227
77 1702
77 1855
77 1922
77 1969
77 2041
77 2062
77 2091
77 2219
77 2231
78 79
78 82
78 86
78 131
78 135
78 166
78 169
78 221
78 230
78 264
78 280
78 335
78 350
78 357
78 359
78 377
78 383
78 414
78 503
78 514
78 631
78 638
78 670
78 682
78 714
78 730
78 752
78 778
78 806
78 814
78 815
78 843
78 851
78 860
78 886
78 907
78 914
78 943
78 1033
78 1035
78 1048
78 1050
78 1052
78 1060
78 1088
78 1120
78 1140
78 1146
78 1184
78 1254
78 1262
78 1341
78 1370
78 1386
78 1406
78 1416
78 1422
78 1474
78 1492
78 1498
78 1544
78 1556
78 1561
78 1578
78 1582
78 1585
78 1588
78 1610
78 1612
78 1629
78 1653
78 1668
78 1716
78 1724
78 1767
78 1778
78 1792
78 1797
78 1819
78 1831
78 1903
78 1904
78 1989
78 2010
78 2044
78 2068
78 2156
78 2158
78 2202
78 2204
78 2217
78 2229
79 105
79 118
79 144
79 150
79 171
79 184
79 253
79 307
79 422
79 463
79 474
79 490
79 560
79 571
79 587
79 612
79 620
79 626
79 709
79 716
79 734
79 828
79 837
79 851
79 862
79 867
79 874
79 901
79 1004
79 1006
79 1045
79 1084
79 1145
79 1164
79 1190
79 1198
79 1254
79 1270
79 1290
79 1333
79 1361
79 1380
79 1422
79 1424
79 1432
79 1457
79 1460
79 1479
79 1489
79 1561
79 1624
79 1632
79 1682
79 1732
79 1763
79 1796
79 1801
79 1838
79 1860
79 1863
79 1911
79 1951
79 1985
79 2008
79 2009
79 2016
79 2187
79 2227
79 2228
80 232
80 264
80 371
80 377
80 406
80 414
80 428
80 508
80 524
80 530
80 559
80 560
80 580
80 613
80 640
80 659
80 670
80 772
80 792
80 800
80 836
80 847
80 886
80 924
80 958
80 1062
80 1102
80 1120
80 1189
80 1192
80 1255
80 1303
80 1321
80 1361
80 1411
80 1635
80 1658
80 1699
80 1713
80 1721
80 1737
80 1767
80 1778
80 1823
80 1831
80 1848
80 1900
80 1903
80 1905
80 1940
80 1955
80 1989
80 2010
80 2021
80 2045
80 2099
80 2121
80 2133
80 2136
80 2149
80 2156
80 2171
80 2185
81 190
81 323
81 403
81 405
81 468
81 573
81 599
81 781
81 820
81 1097
81 1120
81 1125
81 1236
81 1623
81 1907
81 1918
81 2158
82 105
82 193
82 224
82 253
82 287
82 308
82 336
82 343
82 357
82 406
82 447
82 542
82 577
82 596
82 612
82 635
82 643
82 662
82 710
82 714
82 730
82 828
82 844
82 956
82 989
82 1035
82 1098
82 1138
82 1151
82 1217
82 1233
82 1243
82 1310
82 1320
82 1341
82 1464
82 1492
82 1554
82 1588
82 1606
82 1618
82 1664
82 1676
82 1694
82 1884
82 1903
82 1904
82 1993
82 2016
82 2028
82 2194
82 2196
82 2217
82 2226
83 128
83 157
83 238
83 244
83 292
83 380
83 423
83 455
83 461
83 482
83 501
83 511
83 598
83 613
83 664
83 680
83 690
83 702
83 768
83 823
83 863
83 910
83 924
83 929
83 944
83 979
83 996
83 999
83 1029
83 1097
83 1113
83 1141
83 1173
83 1226
83 1239
83 1316
83 1394
83 1422
83 1477
83 1541
83 1583
83 1626
83 1630
83 1653
83 1667
83 1710
83 1717
83 1727
83 1745
83 1942
83 1976
83 1990
83 1995
83 2026
83 2051
83 2052
83 2084
83 2103
83 2132
83 2189
83 2190
83 2226
84 176
84 391
84 539
84 553
84 610
84 872
84 918
84 959
84 961
84 1032
84 1295
84 1328
84 1839
84 1846
84 1992
84 2060
85 124
85 125
85 164
85 186
85 221
85 229
85 238
85 243
85 249
85 266
85 280
85 287
85 326
85 349
85 380
85 381
85 403
85 429
85 439
85 443
85 448
85 452
85 464
85 511
85 542
85 552
85 593
85 646
85 664
85 702
85 716
85 729
85 754
85 763
85 765
85 804
85 812
85 843
85 855
85 863
85 882
85 913
85 987
85 991
85 1006
85 1014
85 1041
85 1066
85 1072
85 1079
85 1115
85 1185
85 1187
85 1251
85 1259
85 1326
85 1370
85 1371
85 1378
85 1391
85 1401
85 1422
85 1439
85 1509
85 1552
85 1558
85 1578
85 1661
85 1663
85 1665
85 1667
85 1680
85 1699
85 1713
85 1733
85 1750
85 1779
85 1784
85 1808
85 1813
85 1868
85 1921
85 1923
85 1943
85 1955
85 1966
85 1967
85 1987
85 2012
85 2075
85 2087
85 2101
85 2108
85 2116
85 2165
85 2174
86 95
86 98
86 105
86 148
86 224
86 329
86 361
86 406
86 422
86 460
86 498
86 528
86 590
86 597
86 629
86 665
86 689
86 711
86 714
86 727
86 781
86 806
86 836
86 887
86 1000
86 1015
86 1020
86 1025
86 1033
86 1035
86 1047
86 1060
86 1080
86 1189
86 1194
86 1252
86 1274
86 1277
86 1305
86 1340
86 1341
86 1368
86 1411
86 1422
86 1470
86 1499
86 1546
86 1555
86 1591
86 1599
86 1623
86 1654
86 1702
86 1713
86 1724
86 1768
86 1784
86 1799
86 1804
86 1823
86 1827
86 1855
86 1884
86 1898
86 1903
86 1950
86 1955
86 2084
86 2139
86 2144
86 2149
86 2176
86 2193
86 2194
86 2199
86 2204
86 2206
86 2221
87 119
87 125
87 138
87 211
87 275
87 288
87 379
87 408
87 412
87 421
87 477
87 492
87 500
87 527
87 557
87 563
87 573
87 633
87 658
87 660
87 751
87 835
87 852
87 855
87 859
87 863
87 869
87 905
87 916
87 938
87 939
87 1046
87 1127
87 1133
87 1137
87 1139
87 1186
87 1200
87 1212
87 1312
87 1339
87 1364
87 1372
87 1437
87 1438
87 1442
87 1464
87 1487
87 1490
87 1503
87 1538
87 1637
87 1771
87 1791
87 1883
87 1918
87 1928
87 1939
87 1994
87 2150
87 2174
87 2218
87 2221
88 116
88 131
88 135
88 172
88 203
88 206
88 211
88 214
88 351
88 373
88 408
88 423
88 476
88 542
88 547
88 548
88 552
88 568
88 587
88 598
88 624
88 625
88 670
88 769
88 870
88 931
88 963
88 1004
88 1040
88 1055
88 1067
88 1068
88 1089
88 1123
88 1155
88 1172
88 1241
88 1371
88 1387
88 1442
88 1450
88 1467
88 1541
88 1626
88 1644
88 1755
88 1779
88 1792
88 1819
88 1867
88 1938
88 1971
88 1977
88 2014
88 2061
88 2064
88 2193
89 102
89 238
89 242
89 343
89 393
89 395
89 434
89 468
89 512
89 585
89 596
89 612
89 631
89 635
89 637
89 653
89 665
89 677
89 711
89 727
89 781
89 814
89 890
89 948
89 966
89 1020
89 1042
89 1101
89 1193
89 1240
89 1262
89 1388
89 1414
89 1421
89 1427
89 1446
89 1506
89 1514
89 1585
89 1612
89 1638
89 1646
89 1650
89 1667
89 1672
89 1725
89 1793
89 1806
89 1824
89 1832
89 1898
89 1903
89 2001
89 2103
89 2148
89 2204
90 111
90 131
90 205
90 221
90 319
90 370
90 463
90 503
90 536
90 560
90 571
90 596
90 597
90 629
90 648
90 660
90 670
90 674
90 707
90 777
90 802
90 806
90 815
90 824
90 834
90 836
90 841
90 882
90 1011
90 1028
90 1070
90 1073
90 1092
90 1149
90 1193
90 1258
90 1289
90 1291
90 1335
90 1340
90 1341
90 1368
90 1408
90 1418
90 1454
90 1484
90 1504
90 1506
90 1524
90 1590
90 1591
90 1595
90 1599
90 1602
90 1629
90 1679
90 1713
90 1734
90 1778
90 1781
90 1944
90 1951
90 1969
90 1996
90 2041
90 2062
90 2084
90 2122
90 2127
90 2141
90 2149
90 2175
90 2194
90 2206
90 2208
90 2217
91 144
91 155
91 196
91 198
91 206
91 232
91 280
91 296
91 302
91 307
91 319
91 341
91 348
91 422
91 426
91 429
91 448
91 521
91 541
91 548
91 569
91 571
91 587
91 592
91 654
91 656
91 701
91 708
91 735
91 737
91 741
91 742
91 749
91 759
91 763
91 833
91 839
91 862
91 867
91 874
91 876
91 981
91 997
91 1004
91 1056
91 1057
91 1066
91 1072
91 1103
91 1152
91 1164
91 1179
91 1190
91 1254
91 1266
91 1267
91 1270
91 1284
91 1333
91 1342
91 1357
91 1390
91 1457
91 1462
91 1561
91 1624
91 1626
91 1664
91 1713
91 1755
91 1762
91 1796
91 1801
91 1838
91 1905
91 1970
91 2008
91 2161
91 2207
91 2218
92 104
92 107
92 108
92 114
92 121
92 134
92 143
92 151
92 159
92 163
92 175
92 176
92 183
92 202
92 216
92 217
92 228
92 236
92 260
92 261
92 272
92 279
92 283
92 302
92 304
92 306
92 310
92 316
92 331
92 354
92 356
92 374
92 388
92 391
92 445
92 483
92 487
92 491
92 505
92 518
92 520
92 526
92 533
92 539
92 553
92 574
92 584
92 595
92 601
92 610
92 645
92 663
92 686
92 703
92 732
92 733
92 737
92 745
92 758
92 788
92 790
92 793
92 795
92 805
92 808
92 820
92 838
92 840
92 848
92 872
92 879
92 901
92 902
92 908
92 916
92 918
92 923
92 930
92 946
92 950
92 957
92 961
92 964
92 975
92 1007
92 1012
92 1016
92 1032
92 1074
92 1104
92 1132
92 1139
92 1148
92 1154
92 1161
92 1168
92 1188
92 1215
92 1224
92 1228
92 1242
92 1244
92 1245
92 1248
92 1249
92 1261
92 1270
92 1276
92 1278
92 1295
92 1301
92 1302
92 1306
92 1331
92 1355
92 1356
92 1385
92 1398
92 1419
92 1421
92 1451
92 1459
92 1463
92 1466
92 1468
92 1476
92 1501
92 1505
92 1527
92 1546
92 1548
92 1557
92 1562
92 1572
92 1573
92 1575
92 1582
92 1608
92 1628
92 1642
92 1647
92 1651
92 1703
92 1722
92 1729
92 1746
92 1766
92 1786
92 1787
92 1788
92 1801
92 1817
92 1825
92 1828
92 1839
92 1842
92 1846
92 1866
92 1873
92 1902
92 1908
92 1910
92 1917
92 1926
92 1933
92 1943
92 1945
92 1954
92 1958
92 1959
92 1962
92 1985
92 1998
92 2000
92 2009
92 2030
92 2035
92 2040
92 2048
92 2060
92 2066
92 2068
92 2069
92 2074
92 2097
92 2130
92 2159
92 2160
92 2169
92 2174
92 2183
92 2192
92 2200
92 2203
92 2204
92 2206
92 2213
92 2224
93 718
93 893
93 1250
93 1376
93 1590
93 1700
93 1836
93 1971
93 2117
94 105
94 117
94 127
94 131
94 132
94 133
94 136
94 177
94 214
94 233
94 324
94 329
94 335
94 351
94 371
94 376
94 400
94 405
94 468
94 473
94 486
94 496
94 531
94 535
94 543
94 559
94 579
94 589
94 629
94 656
94 665
94 670
94 674
94 699
94 717
94 740
94 763
94 769
94 777
94 794
94 812
94 817
94 834
94 847
94 931
94 942
94 963
94 966
94 986
94 999
94 1000
94 1002
94 1018
94 1025
94 1055
94 1059
94 1068
94 1088
94 1105
94 1192
94 1217
94 1333
94 1363
94 1373
94 1387
94 1393
94 1399
94 1411
94 1418
94 1442
94 1454
94 1469
94 1475
94 1535
94 1600
94 1602
94 1639
94 1663
94 1677
94 1690
94 1699
94 1708
94 1713
94 1721
94 1735
94 1745
94 1779
94 1815
94 1819
94 1822
94 1829
94 1835
94 1844
94 1847
94 1856
94 1896
94 1918
94 1921
94 1944
94 1969
94 1983
94 1989
94 2041
94 2064
94 2091
94 2118
94 2168
94 2193
94 2220
94 2221
95 105
95 138
95 152
95 169
95 247
95 307
95 327
95 359
95 434
95 456
95 590
95 593
95 596
95 617
95 626
95 631
95 637
95 705
95 711
95 714
95 781
95 837
95 843
95 860
95 913
95 943
95 947
95 967
95 970
95 1020
95 1047
95 1052
95 1088
95 1120
95 1152
95 1153
95 1218
95 1247
95 1252
95 1291
95 1320
95 1341
95 1435
95 1446
95 1464
95 1499
95 1504
95 1506
95 1541
95 1545
95 1579
95 1599
95 1600
95 1611
95 1702
95 1724
95 1780
95 1785
95 1797
95 1804
95 1831
95 1901
95 2018
95 2028
95 2033
95 2089
95 2204
95 2220
95 2228
95 2229
96 134
96 143
96 163
96 176
96 202
96 272
96 356
96 551
96 609
96 641
96 679
96 788
96 797
96 960
96 1086
96 1213
96 1278
96 1369
96 1866
96 2028
96 2030
97 105
97 155
97 188
97 206
97 209
97 221
97 235
97 250
97 275
97 277
97 298
97 307
97 319
97 341
97 345
97 361
97 372
97 386
97 422
97 443
97 463
97 466
97 548
97 552
97 565
97 597
97 612
97 615
97 626
97 691
97 697
97 707
97 741
97 742
97 766
97 824
97 839
97 867
97 897
97 911
97 926
97 953
97 1001
97 1028
97 1031
97 1045
97 1056
97 1067
97 1103
97 1149
97 1198
97 1202
97 1249
97 1279
97 1283
97 1295
97 1298
97 1304
97 1332
97 1361
97 1413
97 1417
97 1432
97 1457
97 1466
97 1480
97 1493
97 1502
97 1519
97 1536
97 1538
97 1564
97 1570
97 1584
97 1607
97 1648
97 1668
97 1671
97 1707
97 1725
97 1762
97 1771
97 1772
97 1805
97 1880
97 1893
97 1904
97 1905
97 1957
97 1965
97 1994
97 2047
97 2076
97 2093
97 2125
97 2144
97 2168
97 2179
97 2181
97 2188
97 2220
97 2228
98 106
98 117
98 138
98 205
98 221
98 250
98 336
98 405
98 417
98 430
98 448
98 494
98 507
98 524
98 529
98 568
98 617
98 629
98 631
98 685
98 749
98 750
98 763
98 791
98 794
98 1000
98 1038
98 1194
98 1217
98 1233
98 1247
98 1252
98 1291
98 1320
98 1365
98 1454
98 1539
98 1563
98 1602
98 1613
98 1635
98 1701
98 1713
98 1733
98 1826
98 1827
98 1855
98 1875
98 1978
98 1987
98 2021
98 2039
98 2061
98 2184
98 2193
98 2207
98 2214
98 2231
99 368
99 596
99 711
99 860
99 903
99 989
99 1047
99 1101
99 1199
99 1307
99 1341
99 1411
99 1422
99 1793
99 1802
99 1810
99 1814
99 1900
99 2033
99 2049
99 2081
100 117
100 123
100 172
100 219
100 241
100 287
100 371
100 446
100 447
100 486
100 508
100 512
100 515
100 542
100 558
100 622
100 632
100 678
100 739
100 754
100 765
100 825
100 841
100 850
100 870
100 903
100 907
100 909
100 927
100 945
100 954
100 982
100 989
100 996
100 1019
100 1098
100 1138
100 1180
100 1190
100 1233
100 1308
100 1366
100 1411
100 1425
100 1498
100 1520
100 1532
100 1554
100 1571
100 1578
100 1585
100 1595
100 1667
100 1695
100 1702
100 1717
100 1739
100 1799
100 1819
100 1851
100 1862
100 1869
100 1901
100 1950
100 1993
100 2005
100 2028
100 2033
100 2049
100 2073
100 2081
100 2107
100 2109
100 2112
100 2177
101 172
101 258
101 320
101 326
101 613
101 640
101 658
101 659
101 699
101 844
101 893
101 973
101 1055
101 1065
101 1172
101 1189
101 1250
101 1299
101 1326
101 1344
101 1376
101 1469
101 1475
101 1535
101 1558
101 1560
101 1565
101 1646
101 1658
101 1661
101 1694
101 1699
101 1711
101 1735
101 1769
101 1784
101 1836
101 1852
101 1900
101 1943
101 2039
101 2139
101 2189
102 123
102 199
102 204
102 220
102 253
102 330
102 368
102 463
102 514
102 585
102 592
102 596
102 612
102 654
102 739
102 741
102 780
102 789
102 804
102 851
102 903
102 941
102 973
102 993
102 1050
102 1062
102 1063
102 1107
102 1130
102 1145
102 1149
102 1267
102 1300
102 1307
102 1330
102 1384
102 1390
102 1427
102 1460
102 1475
102 1483
102 1513
102 1561
102 1588
102 1622
102 1624
102 1640
102 1671
102 1691
102 1739
102 1771
102 1794
102 1795
102 1805
102 1806
102 1864
102 1899
102 2013
102 2016
102 2056
102 2149
102 2227
102 2228
103 1329
103 1529
103 1544
104 283
104 338
104 356
104 901
104 1104
104 1298
104 1546
104 1784
104 1787
104 2115
105 117
105 118
105 126
105 140
105 144
105 178
105 181
105 204
105 221
105 224
105 230
105 235
105 252
105 256
105 278
105 327
105 336
105 348
105 377
105 384
105 400
105 403
105 406
105 409
105 414
105 444
105 456
105 463
105 464
105 467
105 503
105 508
105 509
105 529
105 613
105 635
105 654
105 660
105 665
105 672
105 708
105 712
105 714
105 728
105 730
105 735
105 737
105 742
105 749
105 761
105 763
105 812
105 819
105 828
105 851
105 860
105 876
105 887
105 897
105 914
105 927
105 952
105 1010
105 1015
105 1035
105 1036
105 1051
105 1079
105 1080
105 1095
105 1098
105 1101
105 1120
105 1146
105 1149
105 1160
105 1172
105 1194
105 1217
105 1238
105 1279
105 1283
105 1304
105 1323
105 1333
105 1342
105 1361
105 1390
105 1406
105 1408
105 1410
105 1415
105 1418
105 1422
105 1444
105 1449
105 1489
105 1492
105 1499
105 1506
105 1534
105 1536
105 1556
105 1578
105 1581
105 1589
105 1594
105 1595
105 1596
105 1618
105 1626
105 1635
105 1636
105 1640
105 1656
105 1699
105 1785
105 1807
105 1820
105 1823
105 1893
105 1904
105 1916
105 1920
105 1952
105 1955
105 1965
105 1981
105 1994
105 1997
105 2018
105 2028
105 2041
105 2043
105 2044
105 2049
105 2050
105 2080
105 2102
105 2127
105 2129
105 2136
105 2144
105 2145
105 2154
105 2165
105 2173
105 2185
105 2204
105 2206
105 2220
106 169
106 300
106 384
106 430
106 486
106 549
106 602
106 631
106 643
106 675
106 685
106 718
106 771
106 907
106 954
106 996
106 1038
106 1090
106 1159
106 1169
106 1206
106 1217
106 1229
106 1264
106 1329
106 1474
106 1475
106 1532
106 1566
106 1634
106 1749
106 1782
106 1800
106 1826
106 1875
106 1900
106 1901
106 1921
106 1922
106 1944
106 1971
106 2049
106 2139
106 2190
106 2196
107 304
107 310
107 487
107 517
107 595
107 1139
107 1213
107 1244
107 1249
107 1282
107 1369
107 1452
107 1642
107 1678
107 1729
107 1770
107 1965
107 2183
108 297
108 313
108 404
108 669
108 923
108 1094
108 1228
108 1313
108 1356
108 1546
108 1572
108 1722
108 1784
108 2030
108 2192
109 1244
109 1527
109 1642
110 250
110 329
110 384
110 674
110 794
110 1247
110 1305
110 1344
110 1610
110 1709
110 1875
110 1904
110 1993
110 2229
111 140
111 154
111 171
111 199
111 204
111 208
111 220
111 253
111 307
111 339
111 362
111 466
111 514
111 569
111 571
111 597
111 612
111 615
111 735
111 759
111 763
111 785
111 789
111 828
111 841
111 851
111 868
111 887
111 903
111 973
111 981
111 992
111 1057
111 1149
111 1164
111 1198
111 1241
111 1254
111 1330
111 1384
111 1405
111 1457
111 1496
111 1580
111 1607
111 1636
111 1640
111 1673
111 1682
111 1699
111 1794
111 1931
111 1935
111 1994
111 2008
111 2016
111 2056
111 2065
111 2076
111 2086
111 2093
111 2149
111 2154
111 2174
111 2206
111 2228
112 180
112 357
112 384
112 508
112 513
112 570
112 806
112 907
112 980
112 1146
112 1206
112 1310
112 1397
112 1454
112 1494
112 1499
112 1514
112 1610
112 1629
112 1687
112 1702
112 1744
112 1834
112 1901
112 1944
112 2196
113 131
113 148
113 363
113 494
113 580
113 631
113 882
113 886
113 945
113 1047
113 1060
113 1070
113 1096
113 1116
113 1235
113 1303
113 1422
113 1518
113 1672
113 1689
113 1700
113 1781
113 1815
113 1836
113 1837
113 1855
113 1856
113 1897
113 1922
113 1977
113 2062
113 2068
113 2080
113 2168
114 122
114 176
114 217
114 283
114 315
114 331
114 338
114 339
114 392
114 504
114 609
114 641
114 679
114 732
114 787
114 831
114 904
114 1287
114 1295
114 1398
114 1466
114 1633
114 1748
114 1828
114 1934
114 2097
114 2114
115 335
115 420
115 586
115 986
115 1123
115 1373
115 1438
115 1442
115 1503
115 1867
116 214
116 225
116 335
116 357
116 464
116 508
116 511
116 629
116 681
116 684
116 760
116 1068
116 1089
116 1135
116 1155
116 1362
116 1410
116 1916
116 2041
116 2119
116 2214
116 2223
116 2231
117 122
117 138
117 154
117 165
117 206
117 264
117 287
117 319
117 350
117 351
117 355
117 357
117 361
117 371
117 406
117 446
117 506
117 515
117 560
117 593
117 617
117 625
117 629
117 640
117 654
117 658
117 665
117 671
117 693
117 715
117 734
117 760
117 777
117 794
117 829
117 830
117 870
117 886
117 893
117 935
117 955
117 989
117 1000
117 1001
117 1018
117 1023
117 1047
117 1059
117 1068
117 1080
117 1089
117 1095
117 1128
117 1135
117 1172
117 1185
117 1191
117 1192
117 1199
117 1217
117 1233
117 1240
117 1305
117 1310
117 1361
117 1393
117 1411
117 1413
117 1450
117 1464
117 1467
117 1474
117 1475
117 1492
117 1514
117 1529
117 1541
117 1543
117 1544
117 1550
117 1555
117 1563
117 1568
117 1571
117 1578
117 1598
117 1604
117 1612
117 1618
117 1627
117 1646
117 1688
117 1779
117 1819
117 1831
117 1872
117 1886
117 1900
117 1923
117 1940
117 1971
117 1978
117 1987
117 2018
117 2033
117 2034
117 2045
117 2049
117 2081
117 2091
117 2102
117 2112
117 2121
117 2149
117 2165
117 2168
117 2173
117 2190
117 2193
117 2196
117 2226
118 140
118 154
118 155
118 184
118 196
118 204
118 245
118 253
118 265
118 273
118 307
118 327
118 330
118 333
118 341
118 372
118 392
118 422
118 436
118 451
118 463
118 491
118 521
118 530
118 541
118 559
118 571
118 587
118 592
118 593
118 597
118 626
118 654
118 665
118 701
118 719
118 725
118 741
118 745
118 777
118 783
118 806
118 828
118 841
118 848
118 851
118 868
118 876
118 901
118 905
118 988
118 1004
118 1006
118 1045
118 1084
118 1115
118 1118
118 1124
118 1145
118 1147
118 1164
118 1214
118 1241
118 1251
118 1254
118 1270
118 1298
118 1312
118 1322
118 1333
118 1338
118 1351
118 1355
118 1361
118 1422
118 1435
118 1445
118 1457
118 1462
118 1489
118 1502
118 1580
118 1605
118 1638
118 1644
118 1682
118 1699
118 1744
118 1796
118 1812
118 1821
118 1829
118 1838
118 1850
118 1863
118 1908
118 1935
118 1943
118 1962
118 2008
118 2010
118 2027
118 2050
118 2101
118 2120
118 2154
118 2157
118 2182
118 2183
118 2187
118 2188
118 2207
118 2228
119 186
119 371
119 379
119 380
119 408
119 433
119 531
119 534
119 573
119 624
119 643
119 660
119 664
119 690
119 721
119 744
119 768
119 827
119 858
119 863
119 905
119 910
119 924
119 978
119 1019
119 1097
119 1116
119 1133
119 1141
119 1186
119 1202
119 1212
119 1465
119 1474
119 1578
119 1615
119 1637
119 1667
119 1670
119 1698
119 1791
119 1818
119 1844
119 1881
119 1928
119 1953
119 1976
119 1994
119 2109
119 2216
119 2221
120 131
120 140
120 155
120 191
120 196
120 206
120 208
120 209
120 214
120 231
120 245
120 255
120 277
120 296
120 351
120 361
120 401
120 407
120 412
120 418
120 421
120 466
120 476
120 490
120 503
120 510
120 516
120 534
120 536
120 540
120 548
120 556
120 557
120 560
120 569
120 594
120 600
120 623
120 625
120 654
120 656
120 682
120 714
120 734
120 741
120 766
120 785
120 798
120 819
120 828
120 876
120 887
120 905
120 911
120 916
120 942
120 951
120 953
120 981
120 1001
120 1004
120 1006
120 1026
120 1030
120 1051
120 1055
120 1056
120 1062
120 1072
120 1079
120 1096
120 1103
120 1121
120 1123
120 1124
120 1147
120 1149
120 1172
120 1178
120 1186
120 1219
120 1259
120 1298
120 1312
120 1333
120 1361
120 1377
120 1381
120 1390
120 1403
120 1405
120 1413
120 1422
120 1439
120 1465
120 1470
120 1479
120 1489
120 1493
120 1509
120 1534
120 1536
120 1560
120 1604
120 1605
120 1615
120 1620
120 1622
120 1638
120 1639
120 1646
120 1661
120 1682
120 1712
120 1755
120 1771
120 1779
120 1795
120 1830
120 1857
120 1863
120 1875
120 1931
120 1935
120 1936
120 1943
120 1957
120 1972
120 1974
120 1997
120 2008
120 2011
120 2054
120 2092
120 2098
120 2104
120 2144
120 2164
120 2206
120 2228
121 297
121 310
121 856
121 1642
121 2157
122 140
122 153
122 189
122 198
122 214
122 277
122 326
122 335
122 374
122 412
122 508
122 560
122 709
122 731
122 735
122 759
122 931
122 951
122 1026
122 1067
122 1079
122 1283
122 1287
122 1351
122 1384
122 1387
122 1420
122 1422
122 1496
122 1502
122 1604
122 1607
122 1661
122 1682
122 1812
122 1823
122 1886
122 1943
122 1994
122 2125
122 2138
122 2144
122 2189
122 2227
123 138
123 205
123 264
123 333
123 368
123 371
123 394
123 441
123 497
123 508
123 530
123 596
123 612
123 631
123 632
123 643
123 711
123 714
123 739
123 841
123 850
123 851
123 903
123 943
123 989
123 1047
123 1093
123 1101
123 1115
123 1129
123 1138
123 1191
123 1233
123 1341
123 1386
123 1403
123 1411
123 1475
123 1495
123 1499
123 1506
123 1561
123 1564
123 1565
123 1571
123 1602
123 1702
123 1717
123 1724
123 1797
123 1812
123 1899
123 1907
123 1951
123 1962
123 1963
123 1999
123 2031
123 2033
123 2056
123 2073
123 2081
123 2182
123 2196
123 2204
123 2208
123 2220
123 2228
124 131
124 135
124 195
124 324
124 335
124 339
124 401
124 402
124 476
124 479
124 508
124 579
124 589
124 607
124 622
124 624
124 710
124 720
124 798
124 846
124 870
124 931
124 945
124 963
124 973
124 1019
124 1039
124 1043
124 1153
124 1172
124 1219
124 1231
124 1312
124 1317
124 1401
124 1413
124 1431
124 1442
124 1477
124 1487
124 1523
124 1541
124 1667
124 1670
124 1779
124 1805
124 1813
124 1818
124 1819
124 1847
124 1862
124 2038
124 2064
124 2108
124 2161
124 2168
125 223
125 255
125 285
125 324
125 365
125 379
125 382
125 400
125 418
125 420
125 447
125 469
125 536
125 563
125 586
125 623
125 624
125 633
125 653
125 721
125 746
125 799
125 855
125 873
125 875
125 885
125 900
125 906
125 929
125 963
125 979
125 987
125 990
125 1019
125 1030
125 1070
125 1096
125 1116
125 1185
125 1219
125 1241
125 1257
125 1266
125 1286
125 1401
125 1412
125 1438
125 1442
125 1480
125 1486
125 1489
125 1491
125 1508
125 1509
125 1531
125 1570
125 1682
125 1719
125 1784
125 1791
125 1813
125 1818
125 1854
125 1880
125 1949
125 1957
125 1988
125 2007
125 2024
125 2075
125 2088
125 2108
125 2116
125 2117
125 2162
125 2168
125 2188
125 2216
125 2221
125 2233
126 498
126 503
126 507
126 524
126 585
126 631
126 635
126 665
126 674
126 754
126 756
126 777
126 837
126 966
126 1000
126 1070
126 1095
126 1343
126 1407
126 1410
126 1475
126 1514
126 1585
126 1598
126 1618
126 1635
126 1646
126 1713
126 1783
126 1904
126 2021
126 2091
126 2099
126 2112
126 2196
127 157
127 221
127 233
127 299
127 460
127 529
127 580
127 643
127 650
127 716
127 749
127 812
127 836
127 947
127 987
127 1015
127 1190
127 1344
127 1382
127 1449
127 1609
127 1663
127 1710
127 1721
127 1804
127 1826
127 1920
127 1989
127 2111
127 2164
127 2214
128 152
128 178
128 268
128 326
128 336
128 346
128 352
128 422
128 468
128 473
128 571
128 579
128 634
128 639
128 658
128 705
128 744
128 804
128 806
128 814
128 815
128 823
128 836
128 841
128 843
128 845
128 859
128 860
128 863
128 866
128 880
128 914
128 924
128 925
128 932
128 944
128 948
128 957
128 979
128 996
128 1052
128 1060
128 1064
128 1077
128 1120
128 1140
128 1141
128 1152
128 1172
128 1185
128 1189
128 1193
128 1199
128 1223
128 1247
128 1252
128 1262
128 1277
128 1291
128 1320
128 1398
128 1399
128 1422
128 1498
128 1499
128 1506
128 1538
128 1541
128 1556
128 1564
128 1582
128 1613
128 1630
128 1638
128 1641
128 1646
128 1650
128 1653
128 1666
128 1699
128 1702
128 1708
128 1713
128 1717
128 1743
128 1754
128 1793
128 1849
128 1860
128 1898
128 1899
128 1903
128 1961
128 1964
128 1971
128 1999
128 2049
128 2089
128 2148
128 2158
128 2181
128 2204
128 2226
129 177
129 384
129 467
129 549
129 580
129 603
129 834
129 1392
129 1837
129 1888
130 189
130 267
130 384
130 514
130 529
130 696
130 727
130 750
130 837
130 850
130 919
130 970
130 998
130 1004
130 1057
130 1145
130 1190
130 1327
130 1336
130 1392
130 1481
130 1504
130 1554
130 1611
130 1636
130 1679
130 1687
130 1699
130 1734
130 1820
130 1874
130 1875
130 1942
130 1970
130 1993
130 2016
130 2167
131 135
131 140
131 155
131 169
131 171
131 187
131 191
131 221
131 231
131 233
131 239
131 242
131 243
131 250
131 270
131 292
131 337
131 375
131 383
131 406
131 436
131 438
131 447
131 460
131 465
131 473
131 482
131 490
131 508
131 537
131 543
131 556
131 560
131 577
131 579
131 589
131 598
131 617
131 624
131 638
131 640
131 653
131 654
131 661
131 667
131 678
131 689
131 707
131 710
131 711
131 714
131 752
131 766
131 769
131 781
131 792
131 800
131 804
131 812
131 814
131 815
131 836
131 843
131 847
131 875
131 925
131 932
131 937
131 939
131 963
131 966
131 987
131 1001
131 1010
131 1015
131 1025
131 1026
131 1030
131 1035
131 1042
131 1045
131 1048
131 1060
131 1062
131 1070
131 1073
131 1084
131 1090
131 1097
131 1127
131 1140
131 1149
131 1151
131 1162
131 1172
131 1179
131 1195
131 1223
131 1232
131 1253
131 1258
131 1277
131 1320
131 1323
131 1328
131 1341
131 1347
131 1368
131 1375
131 1381
131 1384
131 1386
131 1411
131 1422
131 1427
131 1431
131 1437
131 1446
131 1490
131 1492
131 1498
131 1506
131 1517
131 1523
131 1538
131 1544
131 1574
131 1578
131 1581
131 1588
131 1600
131 1605
131 1626
131 1630
131 1646
131 1653
131 1668
131 1690
131 1700
131 1708
131 1714
131 1718
131 1721
131 1725
131 1738
131 1767
131 1797
131 1819
131 1822
131 1823
131 1856
131 1878
131 1896
131 1903
131 1907
131 1929
131 1940
131 1951
131 1977
131 1980
131 1989
131 2007
131 2038
131 2049
131 2064
131 2068
131 2107
131 2112
131 2121
131 2135
131 2138
131 2149
131 2163
131 2168
131 2181
131 2206
131 2207
131 2220
132 154
132 210
132 246
132 253
132 319
132 333
132 339
132 341
132 361
132 362
132 438
132 441
132 471
132 529
132 550
132 560
132 613
132 671
132 697
132 709
132 722
132 734
132 737
132 876
132 903
132 998
132 1005
132 1051
132 1062
132 1134
132 1145
132 1219
132 1279
132 1307
132 1328
132 1330
132 1353
132 1361
132 1384
132 1388
132 1591
132 1635
132 1671
132 1680
132 1738
132 1814
132 1886
132 1898
132 1967
132 2010
132 2047
132 2056
132 2070
132 2154
132 2165
132 2227
132 2228
133 371
133 434
133 447
133 482
133 524
133 598
133 629
133 634
133 637
133 665
133 677
133 687
133 702
133 716
133 753
133 769
133 781
133 800
133 847
133 932
133 944
133 966
133 969
133 999
133 1042
133 1065
133 1080
133 1097
133 1141
133 1262
133 1320
133 1343
133 1399
133 1411
133 1422
133 1428
133 1446
133 1464
133 1506
133 1507
133 1568
133 1596
133 1635
133 1659
133 1677
133 1702
133 1708
133 1718
133 1753
133 1844
133 1878
133 1890
133 1916
133 1918
133 1929
133 2021
133 2112
133 2139
133 2181
133 2227
134 175
134 176
134 184
134 202
134 218
134 272
134 274
134 331
134 338
134 339
134 367
134 391
134 575
134 609
134 887
134 957
134 1062
134 1086
134 1224
134 1244
134 1278
134 1359
134 1530
134 1633
134 1642
134 1647
134 1962
134 2058
134 2066
134 2082
134 2213
135 157
135 221
135 225
135 239
135 288
135 292
135 335
135 336
135 473
135 506
135 579
135 589
135 624
135 658
135 667
135 678
135 697
135 714
135 730
135 752
135 765
135 769
135 792
135 836
135 870
135 878
135 899
135 931
135 942
135 987
135 1015
135 1035
135 1041
135 1043
135 1048
135 1050
135 1068
135 1098
135 1105
135 1125
135 1126
135 1140
135 1147
135 1155
135 1162
135 1172
135 1199
135 1208
135 1232
135 1279
135 1324
135 1341
135 1384
135 1396
135 1437
135 1442
135 1523
135 1541
135 1544
135 1588
135 1615
135 1630
135 1639
135 1690
135 1696
135 1721
135 1771
135 1776
135 1778
135 1779
135 1792
135 1804
135 1805
135 1822
135 1844
135 1856
135 1881
135 1896
135 1904
135 1907
135 1916
135 1942
135 1989
135 1997
135 2007
135 2024
135 2025
135 2038
135 2068
135 2112
135 2163
136 234
136 245
136 409
136 412
136 421
136 500
136 510
136 511
136 594
136 721
136 834
136 855
136 869
136 905
136 906
136 916
136 1019
136 1074
136 1153
136 1178
136 1231
136 1324
136 1372
136 1387
136 1396
136 1399
136 1422
136 1477
136 1509
136 1552
136 1594
136 1719
136 1779
136 1818
136 1883
136 1936
136 2049
136 2143
136 2165
136 2168
136 2216
137 305
137 455
137 469
137 494
137 680
137 810
137 893
137 913
137 1250
137 1326
137 1376
137 1590
137 1711
137 1836
137 2090
137 2226
138 160
138 161
138 178
138 232
138 320
138 324
138 423
138 447
138 502
138 506
138 509
138 511
138 522
138 531
138 532
138 580
138 587
138 593
138 617
138 624
138 625
138 633
138 659
138 665
138 667
138 685
138 696
138 711
138 794
138 802
138 819
138 824
138 835
138 837
138 842
138 847
138 850
138 866
138 913
138 946
138 956
138 984
138 1000
138 1035
138 1072
138 1090
138 1192
138 1271
138 1286
138 1291
138 1299
138 1320
138 1330
138 1333
138 1347
138 1362
138 1368
138 1390
138 1406
138 1411
138 1446
138 1449
138 1457
138 1469
138 1507
138 1534
138 1535
138 1553
138 1578
138 1595
138 1602
138 1612
138 1626
138 1629
138 1667
138 1694
138 1699
138 1710
138 1724
138 1735
138 1745
138 1783
138 1792
138 1822
138 1826
138 1847
138 1868
138 1875
138 1900
138 1903
138 1921
138 1989
138 1993
138 1997
138 2001
138 2049
138 2054
138 2091
138 2099
138 2111
138 2113
138 2118
138 2127
138 2158
138 2168
138 2204
138 2220
138 2228
139 545
139 1695
140 172
140 196
140 204
140 206
140 208
140 210
140 224
140 232
140 273
140 280
140 307
140 309
140 330
140 335
140 348
140 361
140 407
140 422
140 426
140 444
140 456
140 463
140 466
140 490
140 503
140 511
140 516
140 528
140 548
140 560
140 592
140 597
140 600
140 613
140 626
140 635
140 654
140 660
140 665
140 689
140 691
140 708
140 719
140 734
140 735
140 744
140 828
140 829
140 876
140 886
140 887
140 910
140 981
140 984
140 994
140 1001
140 1010
140 1051
140 1056
140 1062
140 1066
140 1079
140 1087
140 1090
140 1147
140 1173
140 1279
140 1333
140 1357
140 1381
140 1384
140 1410
140 1422
140 1432
140 1443
140 1479
140 1498
140 1507
140 1517
140 1527
140 1534
140 1599
140 1605
140 1618
140 1668
140 1795
140 1796
140 1831
140 1865
140 1894
140 1904
140 1938
140 1943
140 1967
140 1970
140 1976
140 2013
140 2026
140 2086
140 2093
140 2133
140 2138
140 2161
140 2187
140 2228
141 663
142 609
142 1202
142 1350
142 2105
143 190
143 339
143 360
143 422
143 518
143 533
143 595
143 634
143 783
143 820
143 923
143 1632
143 1647
143 1766
143 1846
143 1866
143 1923
143 1926
143 2000
143 2048
143 2058
143 2065
143 2114
143 2158
143 2207
143 2224
144 165
144 221
144 361
144 422
144 460
144 473
144 529
144 532
144 560
144 577
144 678
144 742
144 806
144 839
144 886
144 997
144 1015
144 1101
144 1323
144 1449
144 1484
144 1540
144 1556
144 1591
144 1599
144 1669
144 1696
144 1726
144 1730
144 1780
144 1804
144 1826
144 1830
144 1838
144 1904
144 1905
144 1916
144 1955
144 1981
144 2025
144 2028
144 2127
144 2142
144 2191
145 218
145 272
145 378
145 505
145 609
145 663
145 796
145 838
145 872
145 921
145 1176
145 2005
145 2016
145 2040
146 177
146 193
146 201
146 369
146 512
146 638
146 726
146 750
146 824
146 978
146 1059
146 1106
146 1227
146 1240
146 1323
146 1566
146 1855
146 1922
146 1932
146 2145
146 2231
147 253
147 307
147 341
147 514
147 571
147 587
147 592
147 612
147 626
147 785
147 828
147 833
147 845
147 851
147 1045
147 1101
147 1107
147 1130
147 1164
147 1166
147 1254
147 1270
147 1307
147 1422
147 1460
147 1462
147 1561
147 1564
147 1580
147 1606
147 1624
147 1702
147 1717
147 1763
147 1793
147 1860
147 1865
147 1929
147 1978
147 2199
147 2207
148 232
148 256
148 257
148 302
148 324
148 337
148 406
148 430
148 464
148 465
148 475
148 509
148 511
148 540
148 547
148 643
148 674
148 726
148 729
148 761
148 828
148 855
148 863
148 912
148 945
148 1023
148 1038
148 1050
148 1059
148 1126
148 1155
148 1190
148 1194
148 1235
148 1240
148 1326
148 1327
148 1341
148 1366
148 1410
148 1450
148 1518
148 1547
148 1578
148 1646
148 1667
148 1713
148 1733
148 1737
148 1745
148 1799
148 1800
148 1819
148 1843
148 1855
148 1872
148 1903
148 1922
148 1932
148 2049
148 2053
148 2062
148 2080
148 2142
148 2145
148 2172
148 2173
148 2185
148 2189
148 2209
148 2219
149 152
149 298
149 307
149 432
149 606
149 835
149 851
149 894
149 936
149 941
149 962
149 992
149 993
149 1062
149 1119
149 1130
149 1174
149 1283
149 1293
149 1307
149 1342
149 1361
149 1453
149 1474
149 1481
149 1489
149 1495
149 1500
149 1565
149 1636
149 1671
149 1886
149 1900
149 1903
149 1970
149 2039
149 2047
149 2055
149 2081
149 2138
149 2149
149 2154
149 2228
150 339
150 354
150 356
150 378
150 505
150 518
150 520
150 562
150 601
150 641
150 642
150 797
150 820
150 848
150 876
150 940
150 975
150 977
150 1007
150 1198
150 1215
150 1290
150 1295
150 1422
150 1463
150 1505
150 1548
150 1575
150 1632
150 1646
150 1703
150 1746
150 1825
150 1828
150 1850
150 2004
150 2009
150 2060
150 2065
150 2130
150 2213
151 175
151 338
151 399
151 679
151 732
151 787
151 902
151 923
151 1057
151 1213
151 1215
151 1244
151 1282
151 1290
151 1350
151 1600
151 1608
151 1620
151 1785
151 1850
151 1873
151 1925
151 2228
152 164
152 250
152 262
152 289
152 321
152 357
152 405
152 432
152 444
152 447
152 456
152 543
152 596
152 606
152 617
152 629
152 637
152 647
152 648
152 666
152 694
152 711
152 760
152 778
152 781
152 785
152 860
152 880
152 936
152 943
152 970
152 997
152 1101
152 1145
152 1151
152 1152
152 1153
152 1218
152 1252
152 1262
152 1277
152 1291
152 1307
152 1495
152 1511
152 1514
152 1554
152 1584
152 1599
152 1602
152 1634
152 1650
152 1652
152 1654
152 1699
152 1702
152 1704
152 1724
152 1733
152 1757
152 1763
152 1768
152 1778
152 1784
152 1804
152 1810
152 1824
152 1832
152 1869
152 1877
152 1879
152 1904
152 1961
152 1976
152 1999
152 2026
152 2033
152 2084
152 2089
152 2154
152 2175
152 2194
152 2208
152 2228
153 245
153 253
153 301
153 327
153 333
153 339
153 372
153 374
153 426
153 429
153 479
153 548
153 594
153 624
153 677
153 741
153 905
153 920
153 939
153 963
153 973
153 1005
153 1012
153 1031
153 1043
153 1134
153 1149
153 1153
153 1198
153 1214
153 1270
153 1294
153 1298
153 1304
153 1312
153 1328
153 1330
153 1333
153 1353
153 1370
153 1377
153 1422
153 1432
153 1437
153 1438
153 1470
153 1560
153 1622
153 1796
153 1813
153 1820
153 1822
153 1894
153 1947
153 1967
153 1986
153 2092
153 2131
153 2150
153 2164
153 2187
153 2188
153 2227
154 155
154 174
154 189
154 196
154 198
154 210
154 253
154 258
154 264
154 319
154 326
154 361
154 372
154 413
154 422
154 463
154 508
154 560
154 592
154 600
154 613
154 682
154 731
154 739
154 741
154 759
154 780
154 792
154 804
154 816
154 829
154 837
154 897
154 920
154 941
154 983
154 998
154 1005
154 1026
154 1041
154 1062
154 1087
154 1118
154 1134
154 1198
154 1202
154 1214
154 1266
154 1327
154 1338
154 1357
154 1361
154 1381
154 1382
154 1420
154 1427
154 1470
154 1479
154 1560
154 1580
154 1607
154 1622
154 1635
154 1646
154 1734
154 1737
154 1738
154 1744
154 1763
154 1795
154 1805
154 1807
154 1911
154 1922
154 1940
154 1951
154 2010
154 2045
154 2047
154 2149
154 2171
154 2202
154 2218
154 2227
154 2228
155 172
155 191
155 206
155 208
155 210
155 219
155 221
155 245
155 253
155 265
155 277
155 280
155 296
155 302
155 307
155 309
155 348
155 352
155 372
155 374
155 381
155 386
155 401
155 407
155 429
155 442
155 443
155 463
155 490
155 511
155 548
155 552
155 569
155 587
155 600
155 613
155 625
155 649
155 654
155 665
155 689
155 708
155 715
155 734
155 741
155 744
155 829
155 863
155 867
155 869
155 875
155 887
155 897
155 911
155 981
155 984
155 987
155 994
155 1001
155 1005
155 1010
155 1026
155 1046
155 1051
155 1066
155 1067
155 1072
155 1090
155 1145
155 1147
155 1173
155 1241
155 1270
155 1298
155 1299
155 1304
155 1312
155 1322
155 1324
155 1342
155 1370
155 1384
155 1422
155 1457
155 1470
155 1479
155 1489
155 1493
155 1498
155 1517
155 1527
155 1538
155 1559
155 1605
155 1607
155 1615
155 1622
155 1659
155 1668
155 1674
155 1677
155 1699
155 1745
155 1779
155 1795
155 1820
155 1831
155 1863
155 1865
155 1898
155 1904
155 1935
155 1957
155 1967
155 1976
155 1977
155 1983
155 1989
155 2007
155 2011
155 2039
155 2093
155 2107
155 2144
155 2149
155 2186
155 2232
156 545
157 195
157 221
157 497
157 535
157 538
157 589
157 593
157 629
157 752
157 769
157 823
157 847
157 963
157 1021
157 1039
157 1055
157 1151
157 1172
157 1233
157 1246
157 1263
157 1329
157 1367
157 1422
157 1450
157 1529
157 1566
157 1596
157 1644
157 1646
157 1690
157 1710
157 1745
157 1751
157 1759
157 1815
157 1843
157 1857
157 1881
157 1890
157 1912
157 1997
157 2061
157 2119
157 2163
158 176
158 258
158 279
158 297
158 487
158 533
158 599
158 609
158 641
158 788
158 820
158 856
158 879
158 902
158 961
158 964
158 965
158 1009
158 1213
158 1215
158 1242
158 1419
158 1441
158 1476
158 1521
158 1546
158 1557
158 1601
158 1746
158 1820
158 1841
158 2105
158 2144
158 2207
159 261
159 487
159 536
159 840
159 1054
159 1249
159 1265
159 1358
159 1441
159 1476
159 1521
159 1527
159 1557
159 1729
159 1761
159 1820
159 1866
159 1873
159 1917
159 1958
159 1960
159 1977
159 2159
159 2186
160 173
160 219
160 286
160 415
160 720
160 771
160 866
160 896
160 909
160 1422
160 1532
160 1542
160 1695
160 1975
160 2003
160 2140
160 2190
161 169
161 178
161 246
161 456
161 842
161 1415
161 1482
161 1578
161 1595
161 1701
161 2005
161 2091
161 2165
162 171
162 206
162 223
162 237
162 342
162 349
162 365
162 379
162 382
162 387
162 408
162 420
162 448
162 476
162 502
162 556
162 573
162 586
162 593
162 607
162 623
162 624
162 653
162 656
162 746
162 819
162 823
162 843
162 863
162 873
162 883
162 897
162 906
162 929
162 937
162 990
162 1014
162 1019
162 1030
162 1074
162 1112
162 1186
162 1212
162 1317
162 1354
162 1401
162 1429
162 1442
162 1477
162 1480
162 1508
162 1509
162 1531
162 1667
162 1669
162 1674
162 1677
162 1725
162 1777
162 1784
162 1854
162 1861
162 1885
162 1940
162 1947
162 1949
162 1988
162 1997
162 2088
162 2125
162 2162
162 2165
162 2181
162 2233
163 175
163 202
163 216
163 261
163 283
163 304
163 306
163 310
163 338
163 339
163 445
163 487
163 505
163 533
163 551
163 553
163 595
163 599
163 629
163 641
163 669
163 758
163 797
163 820
163 838
163 848
163 879
163 901
163 923
163 957
163 1009
163 1064
163 1172
163 1213
163 1242
163 1249
163 1278
163 1313
163 1369
163 1406
163 1419
163 1441
163 1463
163 1466
163 1472
163 1476
163 1527
163 1546
163 1608
163 1720
163 1770
163 1828
163 1866
163 1925
163 1979
163 2066
163 2200
163 2213
164 174
164 253
164 324
164 336
164 337
164 359
164 432
164 464
164 540
164 573
164 631
164 647
164 656
164 658
164 711
164 712
164 860
164 886
164 927
164 932
164 943
164 948
164 978
164 997
164 1068
164 1070
164 1097
164 1098
164 1126
164 1136
164 1253
164 1291
164 1305
164 1323
164 1413
164 1492
164 1581
164 1599
164 1600
164 1612
164 1638
164 1654
164 1663
164 1677
164 1696
164 1780
164 1781
164 1785
164 1804
164 1826
164 1855
164 1875
164 1876
164 1904
164 1967
164 1981
164 1987
164 1997
164 1999
164 2028
164 2100
164 2116
164 2127
164 2148
164 2181
164 2204
164 2217
164 2228
165 186
165 195
165 225
165 231
165 249
165 266
165 281
165 288
165 351
165 361
165 372
165 387
165 395
165 401
165 403
165 428
165 439
165 478
165 536
165 586
165 589
165 625
165 658
165 660
165 704
165 707
165 752
165 792
165 867
165 870
165 873
165 875
165 913
165 937
165 1002
165 1014
165 1015
165 1017
165 1028
165 1067
165 1125
165 1135
165 1172
165 1185
165 1187
165 1204
165 1219
165 1241
165 1259
165 1324
165 1332
165 1352
165 1371
165 1377
165 1384
165 1386
165 1387
165 1413
165 1418
165 1437
165 1439
165 1445
165 1450
165 1489
165 1538
165 1541
165 1558
165 1594
165 1623
165 1638
165 1644
165 1669
165 1675
165 1743
165 1750
165 1755
165 1765
165 1779
165 1784
165 1852
165 1861
165 1905
165 1907
165 1935
165 1966
165 1974
165 1977
165 2007
165 2014
165 2054
165 2101
165 2104
165 2150
165 2188
165 2206
166 970
166 1544
166 1581
166 1653
166 1679
166 2023
166 2098
166 2217
167 205
167 284
167 312
167 317
167 332
167 337
167 384
167 390
167 488
167 495
167 570
167 602
167 631
167 643
167 651
167 675
167 761
167 810
167 907
167 913
167 935
167 1075
167 1095
167 1156
167 1194
167 1209
167 1229
167 1238
167 1255
167 1263
167 1288
167 1352
167 1410
167 1426
167 1524
167 1533
167 1604
167 1618
167 1699
167 1706
167 1733
167 1751
167 1775
167 1781
167 1921
167 2098
167 2173
167 2189
167 2214
167 2226
168 190
168 283
168 346
168 487
168 695
168 703
168 795
168 820
168 831
168 848
168 898
168 957
168 975
168 1120
168 1161
168 1282
168 1337
168 1349
168 1452
168 1466
168 1521
168 1548
168 1559
168 1575
168 1678
168 1692
168 1729
168 1761
168 1798
168 1991
168 2105
169 174
169 191
169 200
169 243
169 324
169 359
169 383
169 432
169 456
169 583
169 617
169 638
169 672
169 714
169 781
169 806
169 814
169 815
169 841
169 842
169 850
169 890
169 909
169 918
169 947
169 1035
169 1050
169 1060
169 1088
169 1101
169 1128
169 1140
169 1159
169 1162
169 1193
169 1199
169 1218
169 1247
169 1262
169 1271
169 1277
169 1291
169 1319
169 1320
169 1368
169 1421
169 1492
169 1498
169 1506
169 1514
169 1553
169 1595
169 1602
169 1636
169 1701
169 1724
169 1734
169 1792
169 1801
169 1804
169 1816
169 1826
169 1831
169 1875
169 1879
169 1903
169 1904
169 1999
169 2001
169 2039
169 2220
169 2228
170 898
170 1172
170 2069
171 179
171 202
171 296
171 298
171 372
171 377
171 386
171 418
171 466
171 478
171 487
171 502
171 556
171 569
171 592
171 638
171 666
171 741
171 742
171 781
171 792
171 798
171 804
171 819
171 828
171 829
171 867
171 876
171 897
171 926
171 932
171 938
171 981
171 1005
171 1028
171 1056
171 1065
171 1072
171 1103
171 1175
171 1179
171 1184
171 1195
171 1202
171 1204
171 1266
171 1283
171 1304
171 1333
171 1413
171 1414
171 1418
171 1422
171 1453
171 1457
171 1466
171 1470
171 1480
171 1493
171 1506
171 1519
171 1534
171 1536
171 1568
171 1570
171 1605
171 1607
171 1615
171 1671
171 1674
171 1684
171 1714
171 1725
171 1777
171 1796
171 1803
171 1805
171 1830
171 1831
171 1886
171 1894
171 1935
171 1940
171 1951
171 1957
171 1965
171 1972
171 1977
171 2011
171 2047
171 2054
171 2064
171 2065
171 2076
171 2125
171 2150
171 2164
171 2181
171 2204
172 213
172 219
172 222
172 232
172 287
172 320
172 335
172 348
172 371
172 377
172 381
172 396
172 446
172 464
172 511
172 512
172 531
172 538
172 590
172 598
172 616
172 632
172 643
172 687
172 699
172 708
172 735
172 769
172 819
172 835
172 870
172 900
172 910
172 924
172 927
172 981
172 984
172 989
172 1018
172 1023
172 1047
172 1055
172 1065
172 1173
172 1180
172 1190
172 1192
172 1272
172 1275
172 1308
172 1371
172 1392
172 1396
172 1411
172 1422
172 1438
172 1443
172 1448
172 1465
172 1475
172 1498
172 1499
172 1507
172 1514
172 1536
172 1558
172 1571
172 1626
172 1638
172 1713
172 1717
172 1727
172 1735
172 1739
172 1745
172 1840
172 1852
172 1916
172 1918
172 1972
172 1976
172 2026
172 2033
172 2081
172 2118
172 2121
172 2148
172 2161
172 2171
172 2177
173 468
173 653
173 720
173 1659
173 1660
173 1753
173 1890
173 1975
174 189
174 198
174 307
174 341
174 463
174 508
174 585
174 587
174 636
174 656
174 688
174 731
174 759
174 780
174 837
174 851
174 918
174 939
174 941
174 977
174 1056
174 1057
174 1062
174 1107
174 1291
174 1338
174 1361
174 1384
174 1392
174 1420
174 1481
174 1496
174 1602
174 1607
174 1624
174 1646
174 1734
174 1769
174 1785
174 1823
174 1899
174 1903
174 1911
174 1943
174 1951
174 2010
174 2039
174 2125
174 2218
175 202
175 261
175 272
175 279
175 339
175 487
175 533
175 599
175 641
175 732
175 755
175 762
175 788
175 797
175 930
175 965
175 1009
175 1024
175 1041
175 1054
175 1213
175 1242
175 1244
175 1249
175 1265
175 1270
175 1278
175 1452
175 1463
175 1476
175 1501
175 1521
175 1548
175 1601
175 1608
175 1642
175 1678
175 1846
175 1866
175 1926
175 1958
175 1960
175 2096
175 2159
176 190
176 216
176 217
176 228
176 261
176 272
176 283
176 306
176 315
176 316
176 339
176 346
176 354
176 356
176 360
176 378
176 388
176 399
176 468
176 487
176 504
176 518
176 520
176 533
176 554
176 561
176 562
176 574
176 584
176 595
176 599
176 609
176 637
176 641
176 669
176 695
176 703
176 732
176 755
176 758
176 762
176 781
176 783
176 786
176 788
176 797
176 820
176 838
176 840
176 847
176 848
176 918
176 923
176 930
176 940
176 957
176 960
176 961
176 1007
176 1009
176 1012
176 1053
176 1054
176 1082
176 1091
176 1097
176 1104
176 1139
176 1148
176 1161
176 1168
176 1182
176 1213
176 1215
176 1240
176 1242
176 1244
176 1248
176 1278
176 1282
176 1295
176 1297
176 1302
176 1331
176 1349
176 1355
176 1356
176 1360
176 1369
176 1395
176 1398
176 1422
176 1441
176 1451
176 1458
176 1463
176 1466
176 1468
176 1501
176 1505
176 1506
176 1521
176 1528
176 1557
176 1562
176 1572
176 1575
176 1622
176 1625
176 1628
176 1633
176 1642
176 1676
176 1678
176 1699
176 1702
176 1703
176 1720
176 1742
176 1746
176 1770
176 1786
176 1787
176 1788
176 1798
176 1817
176 1825
176 1828
176 1839
176 1842
176 1845
176 1846
176 1853
176 1873
176 1902
176 1917
176 1934
176 1957
176 1958
176 1962
176 1985
176 1998
176 2000
176 2004
176 2009
176 2015
176 2057
176 2060
176 2065
176 2074
176 2097
176 2105
176 2130
176 2134
176 2158
176 2159
176 2160
176 2169
176 2183
176 2203
176 2224
176 2226
177 193
177 207
177 257
177 300
177 369
177 373
177 417
177 496
177 576
177 674
177 717
177 727
177 750
177 794
177 834
177 980
177 1059
177 1093
177 1227
177 1329
177 1365
177 1410
177 1524
177 1596
177 1626
177 1701
177 1733
177 1759
177 1855
177 1888
177 1892
177 1922
177 2039
177 2062
177 2099
177 2142
177 2145
177 2173
178 221
178 432
178 451
178 456
178 466
178 543
178 583
178 596
178 617
178 629
178 670
178 672
178 806
178 837
178 907
178 918
178 927
178 952
178 970
178 1015
178 1101
178 1120
178 1146
178 1160
178 1192
178 1252
178 1291
178 1330
178 1435
178 1474
178 1544
178 1556
178 1576
178 1581
178 1595
178 1629
178 1646
178 1688
178 1699
178 1713
178 1717
178 1724
178 1760
178 1785
178 1793
178 1804
178 1920
178 1944
178 1996
178 1999
178 2208
178 2220
178 2226
179 191
179 206
179 298
179 330
179 386
179 569
179 612
179 615
179 701
179 741
179 951
179 1008
179 1067
179 1084
179 1254
179 1304
179 1307
179 1414
179 1502
179 1591
179 1624
179 1658
179 1758
179 1805
179 1860
179 1965
179 1994
179 2076
180 357
180 980
180 1128
180 1310
180 1499
180 1687
180 1901
180 1944
181 265
181 411
181 446
181 468
181 502
181 623
181 631
181 632
181 658
181 777
181 781
181 1055
181 1106
181 1125
181 1127
181 1162
181 1233
181 1449
181 1490
181 1626
181 1638
181 1646
181 1702
181 1768
181 1829
181 1952
181 2081
181 2145
181 2168
181 2204
182 282
182 284
182 353
182 364
182 415
182 446
182 449
182 495
182 616
182 673
182 818
182 949
182 967
182 968
182 1393
182 1422
182 1520
182 1529
182 1659
182 1704
182 1717
182 1739
182 1900
182 2003
182 2046
182 2126
182 2190
183 202
183 221
183 348
183 378
183 445
183 518
183 599
183 609
183 641
183 645
183 686
183 732
183 923
183 1032
183 1064
183 1248
183 1249
183 1476
183 1633
183 1703
183 1722
183 1770
183 1787
183 1839
183 1926
183 1945
183 2065
183 2105
183 2159
183 2207
184 202
184 232
184 307
184 339
184 345
184 414
184 422
184 514
184 521
184 597
184 613
184 641
184 862
184 867
184 914
184 982
184 1050
184 1101
184 1179
184 1211
184 1489
184 1500
184 1530
184 1570
184 1737
184 1738
184 2047
184 2106
184 2213
185 242
185 247
185 321
185 596
185 711
185 1140
185 1252
185 1320
185 1446
185 1483
185 1506
185 1650
186 221
186 238
186 380
186 402
186 403
186 448
186 508
186 511
186 548
186 643
186 656
186 692
186 702
186 704
186 763
186 810
186 855
186 863
186 882
186 1002
186 1006
186 1015
186 1030
186 1070
186 1185
186 1231
186 1259
186 1377
186 1382
186 1392
186 1439
186 1449
186 1519
186 1556
186 1665
186 1669
186 1677
186 1750
186 1779
186 1784
186 1808
186 1818
186 1861
186 1930
186 1935
186 1938
186 1942
186 1955
186 2075
186 2116
186 2117
186 2161
186 2174
187 221
187 238
187 242
187 324
187 335
187 343
187 371
187 393
187 395
187 421
187 434
187 460
187 464
187 482
187 524
187 585
187 598
187 611
187 634
187 643
187 653
187 664
187 677
187 707
187 711
187 729
187 769
187 781
187 814
187 823
187 824
187 847
187 948
187 966
187 969
187 979
187 1025
187 1065
187 1070
187 1101
187 1105
187 1125
187 1138
187 1151
187 1190
187 1239
187 1262
187 1326
187 1328
187 1347
187 1446
187 1456
187 1490
187 1503
187 1506
187 1518
187 1583
187 1585
187 1591
187 1598
187 1612
187 1646
187 1653
187 1659
187 1667
187 1672
187 1687
187 1717
187 1781
187 1799
187 1831
187 1844
187 1918
187 1928
187 1929
187 1953
187 1964
187 1997
187 2033
187 2049
187 2121
187 2148
187 2158
187 2168
187 2184
187 2204
188 250
188 375
188 559
188 579
188 620
188 683
188 712
188 749
188 772
188 987
188 988
188 1073
188 1083
188 1088
188 1149
188 1184
188 1192
188 1201
188 1220
188 1343
188 1408
188 1467
188 1472
188 1589
188 1694
188 1768
188 1801
188 1811
188 1903
188 1997
189 198
189 206
189 253
189 262
189 296
189 326
189 330
189 341
189 356
189 374
189 411
189 412
189 422
189 454
189 468
189 508
189 514
189 527
189 556
189 571
189 573
189 579
189 585
189 587
189 592
189 649
189 653
189 664
189 688
189 701
189 709
189 731
189 737
189 759
189 766
189 781
189 804
189 828
189 837
189 847
189 897
189 932
189 948
189 983
189 1001
189 1005
189 1026
189 1056
189 1057
189 1084
189 1101
189 1107
189 1125
189 1149
189 1199
189 1202
189 1219
189 1254
189 1269
189 1299
189 1320
189 1328
189 1332
189 1338
189 1357
189 1368
189 1382
189 1384
189 1388
189 1390
189 1414
189 1420
189 1432
189 1439
189 1446
189 1489
189 1490
189 1506
189 1535
189 1582
189 1607
189 1615
189 1622
189 1624
189 1666
189 1684
189 1707
189 1734
189 1738
189 1762
189 1795
189 1806
189 1812
189 1849
189 1929
189 1935
189 1943
189 1951
189 1957
189 1964
189 1972
189 2035
189 2059
189 2125
189 2129
189 2218
190 221
190 487
190 573
190 653
190 664
190 703
190 781
190 795
190 820
190 847
190 964
190 965
190 1024
190 1132
190 1162
190 1213
190 1249
190 1273
190 1424
190 1441
190 1452
190 1506
190 1572
190 1622
190 1628
190 1678
190 1699
190 1729
190 1788
190 1845
190 1865
190 1957
190 2000
190 2155
191 209
191 231
191 239
191 252
191 285
191 436
191 503
191 506
191 569
191 622
191 640
191 729
191 737
191 799
191 819
191 829
191 836
191 859
191 868
191 869
191 886
191 916
191 926
191 930
191 951
191 969
191 986
191 987
191 1030
191 1050
191 1070
191 1083
191 1089
191 1153
191 1185
191 1204
191 1214
191 1247
191 1279
191 1303
191 1312
191 1323
191 1333
191 1390
191 1403
191 1421
191 1436
191 1449
191 1457
191 1540
191 1549
191 1559
191 1569
191 1591
191 1605
191 1639
191 1644
191 1658
191 1670
191 1690
191 1696
191 1707
191 1725
191 1730
191 1771
191 1776
191 1779
191 1797
191 1812
191 1830
191 1831
191 1868
191 1903
191 1907
191 1920
191 1965
191 1977
191 1986
191 2025
191 2031
191 2033
191 2068
191 2111
191 2142
191 2164
191 2182
191 2204
192 614
192 631
192 718
192 893
192 913
192 1231
192 1250
192 1310
192 1326
192 1394
192 1529
192 1612
192 1649
192 1963
192 2090
192 2139
192 2140
192 2168
193 369
193 576
193 638
193 754
193 796
193 802
193 824
193 854
193 1059
193 1080
193 1093
193 1120
193 1227
193 1566
193 1892
193 1922
193 1932
193 1993
193 2041
193 2062
193 2145
193 2219
194 206
194 265
194 302
194 572
194 649
194 729
194 754
194 885
194 895
194 906
194 966
194 990
194 1115
194 1116
194 1185
194 1221
194 1231
194 1401
194 1477
194 1508
194 1777
194 1854
194 1948
194 2101
194 2116
194 2162
194 2164
194 2190
195 227
195 237
195 249
195 259
195 269
195 325
195 380
195 382
195 398
195 401
195 410
195 418
195 427
195 439
195 446
195 459
195 476
195 502
195 519
195 535
195 556
195 582
195 586
195 607
195 622
195 653
195 667
195 668
195 699
195 720
195 746
195 849
195 882
195 889
195 972
195 995
195 1013
195 1022
195 1030
195 1040
195 1100
195 1106
195 1150
195 1185
195 1230
195 1231
195 1239
195 1255
195 1257
195 1268
195 1314
195 1317
195 1367
195 1422
195 1428
195 1429
195 1450
195 1477
195 1487
195 1516
195 1552
195 1558
195 1603
195 1617
195 1621
195 1646
195 1700
195 1705
195 1730
195 1765
195 1843
195 1854
195 1857
195 1862
195 1889
195 2012
195 2054
195 2064
195 2101
195 2116
195 2117
195 2223
195 2233
196 210
196 232
196 253
196 280
196 302
196 385
196 403
196 422
196 514
196 516
196 529
196 550
196 571
196 587
196 592
196 700
196 709
196 716
196 737
196 814
196 833
196 867
196 876
196 947
196 1004
196 1006
196 1010
196 1015
196 1040
196 1056
196 1066
196 1072
196 1103
196 1124
196 1164
196 1219
196 1236
196 1241
196 1254
196 1270
196 1284
196 1312
196 1422
196 1457
196 1460
196 1470
196 1479
196 1492
196 1493
196 1502
196 1536
196 1570
196 1624
196 1721
196 1771
196 1801
196 1838
196 1863
196 1904
196 1920
196 1943
196 1986
196 2028
196 2059
196 2104
196 2144
196 2161
197 1181
197 1356
198 199
198 239
198 245
198 253
198 298
198 307
198 326
198 327
198 330
198 339
198 359
198 374
198 412
198 422
198 454
198 508
198 516
198 528
198 541
198 548
198 560
198 571
198 597
198 612
198 682
198 694
198 707
198 709
198 731
198 737
198 742
198 759
198 780
198 804
198 862
198 962
198 983
198 1036
198 1041
198 1056
198 1134
198 1142
198 1167
198 1202
198 1217
198 1254
198 1266
198 1269
198 1299
198 1330
198 1338
198 1365
198 1384
198 1414
198 1494
198 1496
198 1502
198 1534
198 1557
198 1559
198 1561
198 1596
198 1599
198 1602
198 1607
198 1665
198 1685
198 1738
198 1754
198 1796
198 1864
198 1899
198 1911
198 1935
198 1943
198 1986
198 2035
198 2059
198 2076
198 2125
198 2144
198 2228
199 220
199 273
199 330
199 362
199 466
199 548
199 612
199 701
199 741
199 759
199 789
199 868
199 903
199 981
199 1063
199 1086
199 1241
199 1300
199 1304
199 1330
199 1333
199 1361
199 1384
199 1390
199 1457
199 1513
199 1519
199 1536
199 1639
199 1673
199 1805
199 1870
199 1911
199 1931
199 1935
199 1951
199 2076
199 2125
199 2206
199 2228
200 221
200 231
200 290
200 397
200 456
200 457
200 465
200 509
200 516
200 577
200 631
200 765
200 815
200 832
200 868
200 887
200 948
200 987
200 1001
200 1018
200 1037
200 1040
200 1050
200 1063
200 1088
200 1098
200 1128
200 1145
200 1211
200 1235
200 1291
200 1422
200 1472
200 1500
200 1541
200 1588
200 1633
200 1646
200 1667
200 1699
200 1804
200 1896
200 1921
200 2008
200 2029
200 2045
200 2053
200 2058
200 2062
200 2092
200 2108
200 2174
200 2217
201 328
201 369
201 373
201 482
201 603
201 638
201 761
201 767
201 802
201 1059
201 1073
201 1093
201 1113
201 1227
201 1362
201 1410
201 1799
201 1855
201 1897
201 1922
201 1976
201 2041
201 2062
201 2078
201 2093
201 2145
201 2173
201 2193
201 2219
201 2231
202 248
202 260
202 261
202 283
202 338
202 339
202 386
202 404
202 518
202 533
202 551
202 599
202 609
202 669
202 707
202 755
202 788
202 808
202 820
202 856
202 867
202 879
202 904
202 930
202 961
202 964
202 965
202 1009
202 1024
202 1062
202 1064
202 1094
202 1188
202 1189
202 1213
202 1228
202 1248
202 1295
202 1441
202 1521
202 1608
202 1625
202 1628
202 1647
202 1678
202 1703
202 1720
202 1746
202 1828
202 1866
202 1904
202 1905
202 1908
202 1925
202 1933
202 1957
202 1985
202 2030
202 2060
202 2065
202 2097
202 2105
202 2130
202 2134
202 2181
202 2192
202 2213
203 214
203 225
203 276
203 351
203 373
203 506
203 511
203 542
203 552
203 587
203 625
203 715
203 760
203 859
203 870
203 889
203 1004
203 1089
203 1135
203 1155
203 1172
203 1185
203 1241
203 1284
203 1316
203 1332
203 1378
203 1413
203 1421
203 1428
203 1431
203 1448
203 1467
203 1541
203 1606
203 1626
203 1662
203 1698
203 1819
203 1872
203 1903
203 1938
203 1971
203 1976
203 2014
203 2034
203 2038
203 2113
203 2119
203 2145
204 206
204 208
204 220
204 231
204 245
204 253
204 330
204 333
204 339
204 341
204 362
204 422
204 424
204 436
204 463
204 466
204 490
204 503
204 528
204 557
204 560
204 569
204 571
204 600
204 612
204 665
204 674
204 708
204 725
204 759
204 785
204 786
204 804
204 812
204 829
204 867
204 868
204 940
204 981
204 983
204 992
204 998
204 1041
204 1057
204 1084
204 1145
204 1147
204 1214
204 1233
204 1241
204 1300
204 1304
204 1312
204 1330
204 1333
204 1356
204 1361
204 1384
204 1405
204 1410
204 1422
204 1435
204 1449
204 1457
204 1470
204 1489
204 1499
204 1501
204 1502
204 1536
204 1578
204 1615
204 1633
204 1638
204 1680
204 1699
204 1771
204 1796
204 1801
204 1803
204 1812
204 1829
204 1870
204 1904
204 1911
204 1931
204 1935
204 1943
204 1951
204 1977
204 1994
204 1997
204 2013
204 2016
204 2076
204 2093
204 2118
204 2120
204 2138
204 2174
204 2202
204 2206
204 2228
205 337
205 371
205 422
205 441
205 456
205 486
205 496
205 507
205 532
205 540
205 543
205 560
205 580
205 591
205 617
205 620
205 639
205 651
205 665
205 670
205 674
205 717
205 727
205 756
205 767
205 769
205 777
205 836
205 876
205 914
205 919
205 1018
205 1021
205 1059
205 1079
205 1080
205 1093
205 1114
205 1128
205 1149
205 1151
205 1152
205 1177
205 1192
205 1217
205 1229
205 1247
205 1258
205 1289
205 1291
205 1334
205 1335
205 1340
205 1361
205 1380
205 1391
205 1454
205 1469
205 1475
205 1504
205 1514
205 1524
205 1535
205 1576
205 1604
205 1606
205 1613
205 1618
205 1639
205 1646
205 1709
205 1731
205 1757
205 1760
205 1802
205 1855
205 1897
205 1903
205 1916
205 1920
205 1921
205 1944
205 2008
205 2041
205 2053
205 2097
205 2099
205 2145
205 2197
205 2206
205 2220
206 245
206 258
206 307
206 309
206 330
206 335
206 345
206 368
206 387
206 429
206 443
206 462
206 476
206 490
206 502
206 537
206 552
206 560
206 565
206 587
206 600
206 615
206 625
206 628
206 649
206 691
206 742
206 798
206 853
206 868
206 873
206 885
206 895
206 897
206 905
206 911
206 926
206 973
206 990
206 992
206 1010
206 1017
206 1019
206 1028
206 1041
206 1089
206 1096
206 1121
206 1123
206 1147
206 1152
206 1184
206 1219
206 1259
206 1270
206 1294
206 1299
206 1304
206 1309
206 1312
206 1324
206 1332
206 1338
206 1357
206 1358
206 1371
206 1377
206 1384
206 1390
206 1405
206 1413
206 1417
206 1422
206 1432
206 1442
206 1445
206 1452
206 1453
206 1477
206 1480
206 1489
206 1493
206 1502
206 1517
206 1519
206 1536
206 1567
206 1570
206 1594
206 1615
206 1662
206 1664
206 1671
206 1674
206 1675
206 1682
206 1758
206 1776
206 1777
206 1796
206 1803
206 1805
206 1820
206 1854
206 1870
206 1879
206 1886
206 1894
206 1931
206 1935
206 1943
206 1947
206 1948
206 1958
206 1965
206 1967
206 1970
206 1974
206 1983
206 2111
206 2116
206 2125
206 2144
206 2162
206 2164
206 2179
206 2188
206 2215
207 357
207 622
207 629
207 753
207 760
207 769
207 1000
207 1018
207 1059
207 1065
207 1144
207 1192
207 1325
207 1399
207 1563
207 1699
207 2039
207 2041
208 220
208 224
208 253
208 277
208 307
208 348
208 407
208 516
208 548
208 560
208 612
208 626
208 759
208 822
208 851
208 876
208 887
208 911
208 1010
208 1045
208 1051
208 1145
208 1223
208 1298
208 1330
208 1357
208 1358
208 1370
208 1388
208 1422
208 1426
208 1427
208 1479
208 1481
208 1544
208 1559
208 1668
208 1682
208 1685
208 1717
208 1763
208 1899
208 1951
208 1970
208 1980
208 1986
208 1997
208 2013
208 2086
208 2133
208 2138
208 2154
208 2228
209 214
209 249
209 288
209 324
209 377
209 386
209 397
209 401
209 420
209 460
209 466
209 476
209 535
209 540
209 548
209 556
209 598
209 638
209 656
209 707
209 741
209 749
209 772
209 781
209 831
209 835
209 847
209 875
209 886
209 937
209 958
209 987
209 1006
209 1036
209 1056
209 1089
209 1100
209 1164
209 1172
209 1192
209 1195
209 1201
209 1247
209 1256
209 1286
209 1371
209 1418
209 1437
209 1439
209 1442
209 1456
209 1457
209 1470
209 1523
209 1524
209 1534
209 1538
209 1602
209 1626
209 1639
209 1644
209 1653
209 1677
209 1713
209 1776
209 1779
209 1804
209 1830
209 1867
209 1876
209 1901
209 1905
209 1935
209 1943
209 1997
209 2054
209 2064
209 2098
209 2104
209 2131
209 2148
209 2150
209 2163
209 2174
209 2181
209 2184
209 2206
209 2220
209 2232
210 264
210 277
210 307
210 319
210 345
210 348
210 463
210 466
210 490
210 514
210 528
210 560
210 562
210 600
210 734
210 785
210 792
210 829
210 939
210 1010
210 1045
210 1051
210 1066
210 1087
210 1118
210 1145
210 1298
210 1338
210 1406
210 1422
210 1432
210 1581
210 1605
210 1635
210 1640
210 1682
210 1738
210 1767
210 1795
210 1831
210 1886
210 1899
210 1911
210 1967
210 1980
210 2129
210 2133
210 2138
210 2228
211 262
211 288
211 408
211 421
211 433
211 500
211 623
211 660
211 852
211 870
211 929
211 931
211 937
211 939
211 1137
211 1212
211 1272
211 1372
211 1396
211 1438
211 1442
211 1465
211 1503
211 1615
211 1637
211 1662
211 1868
211 1939
211 2150
211 2188
212 237
212 381
212 386
212 538
212 593
212 643
212 652
212 662
212 699
212 750
212 867
212 882
212 1002
212 1011
212 1235
212 1286
212 1308
212 1378
212 1382
212 1558
212 1661
212 1667
212 1739
212 1757
212 1779
212 1813
212 1862
212 1896
212 1928
212 1963
212 2024
212 2053
212 2116
212 2168
213 219
213 241
213 287
213 302
213 446
213 546
213 558
213 593
213 616
213 629
213 653
213 659
213 664
213 693
213 825
213 827
213 850
213 910
213 913
213 949
213 984
213 989
213 1047
213 1069
213 1180
213 1226
213 1239
213 1268
213 1275
213 1352
213 1386
213 1394
213 1464
213 1475
213 1520
213 1571
213 1578
213 1595
213 1617
213 1626
213 1634
213 1637
213 1659
213 1667
213 1710
213 1717
213 1727
213 1739
213 1745
213 1753
213 1914
213 1953
213 2012
213 2028
213 2033
213 2046
213 2081
213 2132
213 2139
213 2177
213 2196
213 2223
214 231
214 249
214 255
214 335
214 366
214 401
214 447
214 468
214 476
214 490
214 502
214 508
214 511
214 536
214 538
214 552
214 556
214 565
214 598
214 624
214 656
214 714
214 716
214 763
214 799
214 800
214 801
214 812
214 819
214 828
214 870
214 895
214 924
214 935
214 947
214 951
214 956
214 963
214 986
214 987
214 1002
214 1022
214 1028
214 1046
214 1055
214 1059
214 1065
214 1072
214 1079
214 1123
214 1155
214 1183
214 1219
214 1241
214 1303
214 1309
214 1314
214 1367
214 1371
214 1387
214 1396
214 1434
214 1438
214 1439
214 1445
214 1448
214 1450
214 1503
214 1509
214 1576
214 1596
214 1604
214 1631
214 1661
214 1677
214 1690
214 1779
214 1843
214 1876
214 1895
214 1903
214 1904
214 1972
214 1983
214 2011
214 2144
214 2173
214 2174
214 2189
215 262
215 324
215 403
215 408
215 420
215 421
215 527
215 534
215 538
215 565
215 623
215 658
215 660
215 670
215 751
215 752
215 764
215 769
215 781
215 835
215 852
215 878
215 929
215 938
215 1003
215 1019
215 1101
215 1127
215 1136
215 1183
215 1186
215 1212
215 1219
215 1312
215 1396
215 1418
215 1422
215 1445
215 1487
215 1490
215 1538
215 1630
215 1674
215 1677
215 1697
215 1702
215 1841
215 1876
215 1885
215 1938
215 1955
215 1964
215 1983
215 2072
215 2107
215 2111
215 2113
215 2131
215 2174
215 2181
216 272
216 279
216 453
216 491
216 562
216 609
216 758
216 797
216 820
216 1054
216 1139
216 1295
216 1369
216 1528
216 1548
216 1557
216 1615
216 1620
216 1642
216 1828
216 1941
216 1954
216 2048
216 2097
216 2105
216 2130
217 339
217 354
217 422
217 520
217 533
217 797
217 923
217 1249
217 1278
217 1295
217 1962
217 2030
217 2155
218 425
218 663
218 921
218 1122
218 1313
218 1611
218 1766
218 1825
218 2105
219 221
219 256
219 287
219 302
219 363
219 371
219 377
219 380
219 381
219 396
219 406
219 446
219 455
219 494
219 501
219 511
219 545
219 558
219 602
219 631
219 632
219 643
219 662
219 744
219 769
219 771
219 870
219 886
219 913
219 924
219 927
219 944
219 984
219 989
219 1015
219 1023
219 1048
219 1055
219 1069
219 1090
219 1138
219 1173
219 1180
219 1185
219 1226
219 1255
219 1288
219 1308
219 1382
219 1422
219 1443
219 1475
219 1498
219 1529
219 1554
219 1578
219 1626
219 1637
219 1659
219 1667
219 1680
219 1699
219 1700
219 1704
219 1713
219 1717
219 1727
219 1733
219 1739
219 1745
219 1843
219 1881
219 1903
219 1920
219 1923
219 1993
219 2026
219 2033
219 2139
219 2161
219 2190
219 2196
219 2233
220 273
220 362
220 473
220 822
220 868
220 897
220 903
220 973
220 981
220 1063
220 1142
220 1145
220 1241
220 1384
220 1405
220 1457
220 1607
220 1615
220 1673
220 1894
220 1931
220 2013
220 2076
220 2093
220 2144
220 2206
220 2228
221 225
221 227
221 230
221 231
221 232
221 233
221 249
221 252
221 257
221 266
221 270
221 281
221 285
221 307
221 322
221 337
221 351
221 361
221 380
221 384
221 395
221 397
221 401
221 402
221 403
221 405
221 406
221 417
221 422
221 427
221 436
221 447
221 456
221 462
221 478
221 482
221 491
221 500
221 503
221 508
221 511
221 532
221 538
221 539
221 543
221 547
221 548
221 556
221 565
221 568
221 573
221 577
221 579
221 580
221 589
221 593
221 597
221 598
221 612
221 617
221 620
221 625
221 631
221 634
221 637
221 653
221 656
221 658
221 664
221 665
221 667
221 672
221 677
221 697
221 704
221 707
221 711
221 712
221 723
221 724
221 730
221 749
221 752
221 754
221 763
221 766
221 769
221 770
221 781
221 788
221 792
221 800
221 812
221 814
221 815
221 823
221 828
221 831
221 834
221 839
221 840
221 841
221 844
221 847
221 852
221 858
221 866
221 868
221 876
221 878
221 884
221 914
221 924
221 926
221 929
221 932
221 937
221 938
221 945
221 947
221 948
221 960
221 966
221 973
221 978
221 981
221 987
221 1003
221 1023
221 1028
221 1036
221 1040
221 1050
221 1051
221 1072
221 1080
221 1081
221 1089
221 1096
221 1099
221 1100
221 1106
221 1125
221 1127
221 1133
221 1135
221 1144
221 1146
221 1147
221 1159
221 1160
221 1171
221 1172
221 1173
221 1185
221 1187
221 1189
221 1190
221 1194
221 1198
221 1201
221 1204
221 1208
221 1220
221 1232
221 1236
221 1237
221 1247
221 1249
221 1257
221 1258
221 1268
221 1274
221 1277
221 1314
221 1318
221 1324
221 1335
221 1347
221 1361
221 1367
221 1368
221 1372
221 1382
221 1386
221 1390
221 1398
221 1399
221 1412
221 1413
221 1416
221 1418
221 1422
221 1435
221 1436
221 1439
221 1442
221 1445
221 1446
221 1449
221 1456
221 1465
221 1484
221 1487
221 1490
221 1503
221 1506
221 1534
221 1536
221 1538
221 1541
221 1544
221 1558
221 1577
221 1578
221 1584
221 1585
221 1586
221 1595
221 1596
221 1599
221 1600
221 1609
221 1623
221 1637
221 1639
221 1644
221 1646
221 1653
221 1662
221 1666
221 1667
221 1669
221 1670
221 1672
221 1674
221 1675
221 1676
221 1698
221 1699
221 1702
221 1713
221 1714
221 1725
221 1726
221 1735
221 1745
221 1750
221 1755
221 1767
221 1776
221 1779
221 1780
221 1783
221 1784
221 1792
221 1796
221 1799
221 1813
221 1819
221 1820
221 1823
221 1830
221 1838
221 1841
221 1844
221 1849
221 1857
221 1866
221 1872
221 1876
221 1903
221 1904
221 1907
221 1918
221 1928
221 1929
221 1938
221 1940
221 1942
221 1948
221 1955
221 1956
221 1961
221 1964
221 1967
221 1970
221 1976
221 1977
221 1983
221 1994
221 1997
221 2007
221 2023
221 2031
221 2034
221 2037
221 2045
221 2049
221 2054
221 2061
221 2064
221 2068
221 2104
221 2107
221 2110
221 2111
221 2112
221 2127
221 2131
221 2132
221 2139
221 2145
221 2148
221 2150
221 2156
221 2158
221 2161
221 2168
221 2174
221 2180
221 2181
221 2188
221 2193
221 2208
221 2215
221 2220
221 2223
221 2226
221 2232
222 417
222 640
222 674
222 727
222 794
222 886
222 958
222 1000
222 1025
222 1138
222 1170
222 1189
222 1192
222 1246
222 1277
222 1303
222 1310
222 1321
222 1420
222 1539
222 1627
222 1724
222 1807
222 1827
222 1831
222 1840
222 1844
222 1852
222 1856
222 1900
222 1940
222 1969
222 2080
222 2121
222 2190
223 265
223 387
223 502
223 506
223 586
223 702
223 746
223 754
223 885
223 1129
223 1221
223 1328
223 1402
223 1439
223 1442
223 1477
223 1480
223 1674
223 1777
223 1829
223 2076
224 277
224 307
224 319
224 343
224 352
224 368
224 466
224 528
224 529
224 550
224 585
224 596
224 626
224 649
224 662
224 665
224 671
224 707
224 734
224 785
224 841
224 851
224 866
224 983
224 1001
224 1045
224 1062
224 1087
224 1124
224 1145
224 1151
224 1228
224 1330
224 1351
224 1381
224 1392
224 1464
224 1495
224 1530
224 1544
224 1559
224 1605
224 1606
224 1607
224 1639
224 1676
224 1794
224 1865
224 1970
224 1993
224 2133
224 2154
225 287
225 335
225 476
225 506
225 511
225 512
225 536
225 542
225 552
225 568
225 625
225 628
225 715
225 716
225 769
225 843
225 917
225 931
225 955
225 963
225 1036
225 1055
225 1068
225 1089
225 1123
225 1129
225 1135
225 1155
225 1172
225 1190
225 1196
225 1241
225 1368
225 1371
225 1378
225 1442
225 1448
225 1465
225 1467
225 1475
225 1523
225 1626
225 1644
225 1792
225 1819
225 1829
225 1916
225 2014
225 2034
225 2100
225 2113
225 2119
225 2120
225 2135
226 1659
227 305
227 349
227 365
227 380
227 393
227 439
227 476
227 482
227 511
227 538
227 556
227 565
227 623
227 631
227 653
227 656
227 664
227 692
227 720
227 744
227 772
227 847
227 886
227 892
227 900
227 924
227 929
227 937
227 963
227 1023
227 1039
227 1042
227 1070
227 1105
227 1151
227 1187
227 1212
227 1226
227 1257
227 1268
227 1317
227 1367
227 1372
227 1428
227 1429
227 1438
227 1439
227 1440
227 1450
227 1471
227 1487
227 1491
227 1531
227 1596
227 1617
227 1637
227 1667
227 1672
227 1698
227 1699
227 1765
227 1781
227 1808
227 1826
227 1843
227 1918
227 1921
227 1947
227 2054
227 2085
227 2101
227 2111
227 2116
227 2117
227 2137
227 2148
227 2150
228 279
228 339
228 520
228 533
228 609
228 679
228 703
228 787
228 788
228 1249
228 1278
228 1557
228 1608
228 1850
228 1925
228 1934
228 2096
228 2159
229 475
229 643
229 699
229 843
229 1231
229 1606
229 1663
229 1799
229 1813
229 2049
230 295
230 436
230 451
230 456
230 460
230 503
230 508
230 634
230 658
230 672
230 678
230 684
230 714
230 730
230 743
230 782
230 806
230 841
230 876
230 886
230 952
230 1015
230 1036
230 1060
230 1088
230 1098
230 1341
230 1386
230 1392
230 1416
230 1422
230 1435
230 1449
230 1484
230 1498
230 1556
230 1581
230 1610
230 1638
230 1654
230 1696
230 1799
230 1804
230 1851
230 1955
230 1989
230 2028
230 2098
230 2175
230 2220
231 249
231 250
231 285
231 324
231 335
231 361
231 377
231 401
231 465
231 508
231 509
231 516
231 540
231 548
231 556
231 560
231 577
231 593
231 600
231 658
231 674
231 693
231 697
231 699
231 702
231 707
231 749
231 752
231 772
231 777
231 781
231 803
231 812
231 835
231 836
231 844
231 847
231 868
231 870
231 875
231 920
231 924
231 937
231 958
231 987
231 1000
231 1003
231 1006
231 1015
231 1017
231 1018
231 1028
231 1036
231 1040
231 1042
231 1050
231 1063
231 1072
231 1077
231 1089
231 1100
231 1101
231 1128
231 1145
231 1149
231 1164
231 1172
231 1192
231 1235
231 1238
231 1314
231 1339
231 1371
231 1373
231 1412
231 1439
231 1457
231 1464
231 1472
231 1491
231 1507
231 1524
231 1530
231 1534
231 1535
231 1559
231 1560
231 1584
231 1588
231 1596
231 1602
231 1626
231 1638
231 1644
231 1656
231 1663
231 1667
231 1669
231 1690
231 1699
231 1716
231 1767
231 1776
231 1779
231 1799
231 1804
231 1855
231 1857
231 1918
231 1920
231 1921
231 1935
231 1955
231 1977
231 1983
231 1997
231 2007
231 2008
231 2045
231 2054
231 2064
231 2080
231 2107
231 2108
231 2131
231 2145
231 2163
231 2174
232 238
232 258
232 280
232 287
232 322
232 335
232 337
232 348
232 377
232 381
232 409
232 434
232 448
232 508
232 511
232 548
232 580
232 597
232 613
232 631
232 643
232 656
232 665
232 700
232 711
232 735
232 823
232 866
232 949
232 955
232 1015
232 1018
232 1072
232 1090
232 1115
232 1173
232 1189
232 1316
232 1333
232 1347
232 1371
232 1401
232 1447
232 1449
232 1489
232 1498
232 1507
232 1536
232 1576
232 1578
232 1606
232 1638
232 1667
232 1710
232 1717
232 1812
232 1813
232 1843
232 1844
232 1868
232 1904
232 2001
232 2026
232 2102
232 2148
232 2161
232 2165
232 2220
233 314
233 323
233 405
233 468
233 596
233 717
233 768
233 794
233 948
233 966
233 1070
233 1226
233 1240
233 1316
233 1326
233 1382
233 1411
233 1629
233 1646
233 1667
233 1687
233 1699
233 1779
233 2049
233 2103
234 245
234 258
234 304
234 336
234 379
234 384
234 387
234 409
234 421
234 426
234 490
234 500
234 573
234 594
234 721
234 853
234 855
234 869
234 873
234 885
234 895
234 990
234 1137
234 1196
234 1219
234 1324
234 1357
234 1372
234 1401
234 1410
234 1442
234 1508
234 1571
234 1594
234 1618
234 1626
234 1667
234 1675
234 1719
234 1757
234 1883
234 1936
234 1948
234 1988
234 2088
234 2162
234 2221
234 2233
235 249
235 266
235 275
235 278
235 288
235 302
235 361
235 536
235 560
235 707
235 1017
235 1028
235 1133
235 1185
235 1196
235 1323
235 1384
235 1417
235 1418
235 1445
235 1456
235 1457
235 1490
235 1638
235 1665
235 1726
235 1776
235 1830
235 1841
235 1896
235 1920
235 1966
235 2131
236 391
236 539
236 575
236 609
236 642
236 757
236 805
236 820
236 959
236 1012
236 1148
236 1188
236 1356
236 1398
236 1463
236 1468
236 1557
236 1937
236 1945
236 2040
236 2065
237 238
237 265
237 269
237 285
237 366
237 379
237 387
237 408
237 418
237 420
237 459
237 476
237 536
237 538
237 607
237 624
237 633
237 653
237 746
237 812
237 859
237 867
237 885
237 895
237 990
237 1030
237 1112
237 1123
237 1219
237 1367
237 1391
237 1401
237 1412
237 1439
237 1480
237 1486
237 1493
237 1508
237 1552
237 1558
237 1631
237 1674
237 1677
237 1777
237 1854
237 1861
237 1867
237 1915
237 1928
237 1947
237 1948
237 1949
237 1988
237 2088
237 2111
237 2117
237 2162
237 2174
238 302
238 365
238 380
238 393
238 396
238 403
238 417
238 452
238 468
238 538
238 573
238 577
238 579
238 634
238 637
238 643
238 653
238 658
238 664
238 665
238 685
238 692
238 696
238 702
238 744
238 746
238 752
238 772
238 813
238 823
238 827
238 845
238 847
238 859
238 863
238 910
238 924
238 944
238 966
238 971
238 996
238 1019
238 1023
238 1030
238 1048
238 1055
238 1074
238 1097
238 1125
238 1155
238 1185
238 1187
238 1219
238 1239
238 1240
238 1257
238 1262
238 1291
238 1373
238 1418
238 1422
238 1439
238 1444
238 1446
238 1450
238 1480
238 1487
238 1523
238 1539
238 1563
238 1596
238 1617
238 1638
238 1697
238 1698
238 1745
238 1751
238 1765
238 1818
238 1820
238 1822
238 1849
238 1859
238 1900
238 1903
238 1918
238 1922
238 1942
238 1970
238 1972
238 1976
238 1983
238 2019
238 2026
238 2033
238 2037
238 2049
238 2098
238 2108
238 2132
238 2140
238 2145
238 2148
238 2158
238 2164
238 2174
238 2184
239 384
239 460
239 490
239 498
239 502
239 513
239 590
239 629
239 631
239 677
239 687
239 759
239 769
239 942
239 951
239 966
239 969
239 1026
239 1035
239 1083
239 1128
239 1152
239 1155
239 1204
239 1362
239 1422
239 1442
239 1475
239 1494
239 1523
239 1530
239 1556
239 1578
239 1591
239 1600
239 1645
239 1646
239 1658
239 1667
239 1670
239 1700
239 1721
239 1771
239 1802
239 1819
239 1844
239 1896
239 1944
239 1988
239 1989
239 2135
239 2168
239 2196
240 1276
241 368
241 371
241 381
241 432
241 446
241 449
241 512
241 583
241 596
241 632
241 712
241 850
241 927
241 943
241 984
241 1033
241 1047
241 1055
241 1090
241 1120
241 1180
241 1275
241 1411
241 1464
241 1474
241 1475
241 1485
241 1498
241 1554
241 1571
241 1602
241 1627
241 1680
241 1699
241 1702
241 1717
241 1724
241 1804
241 1905
241 1987
241 2028
241 2033
241 2039
241 2081
241 2100
241 2196
241 2228
242 247
242 262
242 321
242 343
242 447
242 473
242 475
242 511
242 579
242 598
242 653
242 705
242 760
242 814
242 823
242 844
242 847
242 851
242 860
242 914
242 924
242 947
242 948
242 966
242 1023
242 1042
242 1057
242 1077
242 1084
242 1141
242 1151
242 1160
242 1199
242 1240
242 1252
242 1262
242 1310
242 1320
242 1464
242 1511
242 1512
242 1541
242 1556
242 1599
242 1611
242 1654
242 1664
242 1666
242 1667
242 1672
242 1690
242 1699
242 1702
242 1708
242 1718
242 1753
242 1768
242 1805
242 1849
242 1898
242 1929
242 1955
242 1961
242 1970
242 2033
242 2039
242 2045
242 2089
242 2092
242 2182
242 2194
242 2204
242 2217
243 256
243 302
243 335
243 374
243 400
243 465
243 596
243 617
243 632
243 643
243 693
243 710
243 886
243 923
243 949
243 966
243 1060
243 1065
243 1074
243 1088
243 1147
243 1185
243 1270
243 1368
243 1411
243 1421
243 1425
243 1475
243 1541
243 1696
243 1716
243 1799
243 1819
243 1896
243 1907
243 1943
243 1989
243 2012
243 2035
243 2062
243 2228
244 455
244 468
244 508
244 631
244 643
244 675
244 680
244 754
244 944
244 968
244 996
244 1187
244 1246
244 1310
244 1488
244 1606
244 1613
244 1634
244 1637
244 1672
244 1713
244 1753
244 1836
244 1881
244 1900
244 2103
244 2190
245 253
245 278
245 288
245 307
245 309
245 327
245 330
245 352
245 379
245 385
245 412
245 426
245 443
245 466
245 471
245 490
245 492
245 510
245 534
245 548
245 552
245 557
245 559
245 569
245 571
245 600
245 612
245 626
245 633
245 637
245 649
245 653
245 654
245 660
245 682
245 731
245 828
245 855
245 867
245 869
245 905
245 920
245 953
245 981
245 1004
245 1005
245 1006
245 1010
245 1025
245 1056
245 1066
245 1096
245 1101
245 1103
245 1121
245 1124
245 1152
245 1178
245 1195
245 1219
245 1241
245 1249
245 1257
245 1266
245 1270
245 1280
245 1287
245 1294
245 1298
245 1305
245 1310
245 1312
245 1322
245 1328
245 1333
245 1338
245 1358
245 1364
245 1370
245 1372
245 1377
245 1384
245 1388
245 1390
245 1415
245 1417
245 1427
245 1439
245 1446
245 1456
245 1457
245 1460
245 1465
245 1470
245 1489
245 1494
245 1509
245 1519
245 1536
245 1548
245 1560
245 1569
245 1622
245 1639
245 1675
245 1707
245 1738
245 1763
245 1795
245 1796
245 1813
245 1883
245 1911
245 1919
245 1930
245 1936
245 1943
245 1967
245 1970
245 1974
245 1986
245 1994
245 2028
245 2035
245 2053
245 2059
245 2076
245 2105
245 2143
245 2144
245 2150
245 2174
245 2181
245 2188
245 2197
245 2216
245 2218
245 2228
246 253
246 617
246 833
246 998
246 1031
246 1307
246 1500
246 1580
246 1591
246 1636
246 1744
246 1879
246 1999
246 2056
246 2154
247 333
247 508
247 637
247 665
247 711
247 860
247 876
247 880
247 926
247 942
247 952
247 1077
247 1199
247 1233
247 1262
247 1320
247 1446
247 1511
247 1541
247 1556
247 1576
247 1578
247 1641
247 1644
247 1680
247 1694
247 1702
247 1810
247 1819
247 1903
247 2045
247 2089
247 2182
247 2204
248 518
248 525
248 551
248 609
248 755
248 1094
248 1213
248 1244
248 1273
248 1355
248 1476
248 1908
248 1962
248 2030
248 2082
248 2096
249 266
249 288
249 366
249 377
249 387
249 401
249 421
249 427
249 443
249 448
249 476
249 484
249 538
249 580
249 613
249 617
249 622
249 623
249 628
249 656
249 763
249 772
249 801
249 819
249 867
249 883
249 892
249 895
249 924
249 929
249 931
249 938
249 983
249 987
249 1002
249 1003
249 1022
249 1040
249 1041
249 1055
249 1066
249 1072
249 1089
249 1092
249 1096
249 1123
249 1127
249 1147
249 1171
249 1172
249 1183
249 1185
249 1186
249 1208
249 1212
249 1219
249 1256
249 1257
249 1259
249 1309
249 1312
249 1314
249 1323
249 1371
249 1377
249 1384
249 1418
249 1439
249 1486
249 1490
249 1493
249 1552
249 1567
249 1580
249 1602
249 1618
249 1662
249 1667
249 1670
249 1700
249 1726
249 1755
249 1757
249 1784
249 1820
249 1854
249 1867
249 1907
249 1930
249 1935
249 1948
249 1955
249 1982
249 1983
249 2007
249 2034
249 2064
249 2072
249 2087
249 2104
249 2107
249 2111
249 2116
249 2150
249 2158
249 2164
249 2165
249 2174
249 2206
249 2221
250 252
250 336
250 362
250 377
250 383
250 397
250 401
250 411
250 460
250 465
250 507
250 516
250 540
250 560
250 597
250 631
250 637
250 638
250 656
250 658
250 674
250 677
250 693
250 742
250 770
250 781
250 802
250 806
250 834
250 841
250 920
250 924
250 937
250 943
250 947
250 958
250 980
250 996
250 997
250 1003
250 1050
250 1063
250 1077
250 1100
250 1116
250 1120
250 1125
250 1128
250 1129
250 1149
250 1163
250 1192
250 1195
250 1201
250 1211
250 1220
250 1251
250 1256
250 1361
250 1368
250 1373
250 1382
250 1393
250 1408
250 1434
250 1472
250 1474
250 1484
250 1499
250 1500
250 1514
250 1518
250 1524
250 1535
250 1544
250 1584
250 1588
250 1596
250 1653
250 1667
250 1688
250 1690
250 1699
250 1713
250 1716
250 1731
250 1735
250 1776
250 1804
250 1830
250 1855
250 1901
250 1904
250 1905
250 1907
250 1920
250 1921
250 1997
250 2008
250 2011
250 2016
250 2041
250 2064
250 2084
250 2093
250 2108
250 2122
250 2131
250 2150
250 2158
250 2173
250 2174
250 2193
250 2231
251 1223
252 257
252 281
252 335
252 447
252 460
252 464
252 508
252 529
252 543
252 577
252 580
252 590
252 597
252 648
252 659
252 677
252 678
252 754
252 765
252 781
252 830
252 836
252 841
252 844
252 866
252 935
252 947
252 952
252 987
252 1025
252 1035
252 1065
252 1080
252 1101
252 1120
252 1144
252 1189
252 1252
252 1258
252 1368
252 1411
252 1422
252 1436
252 1464
252 1481
252 1492
252 1544
252 1563
252 1585
252 1588
252 1602
252 1606
252 1618
252 1627
252 1629
252 1646
252 1688
252 1713
252 1804
252 1827
252 1904
252 1964
252 1978
252 1997
252 2018
252 2028
252 2196
252 2199
252 2207
252 2220
253 273
253 307
253 308
253 309
253 319
253 326
253 330
253 336
253 341
253 344
253 348
253 352
253 353
253 368
253 372
253 377
253 385
253 394
253 413
253 422
253 426
253 429
253 463
253 471
253 477
253 512
253 514
253 516
253 528
253 546
253 548
253 559
253 571
253 587
253 592
253 594
253 597
253 612
253 644
253 647
253 654
253 661
253 666
253 671
253 689
253 701
253 709
253 710
253 719
253 725
253 731
253 737
253 739
253 741
253 754
253 781
253 785
253 793
253 797
253 804
253 811
253 817
253 825
253 828
253 833
253 844
253 847
253 851
253 866
253 867
253 903
253 905
253 916
253 932
253 942
253 943
253 974
253 977
253 981
253 982
253 983
253 992
253 993
253 994
253 1001
253 1025
253 1026
253 1031
253 1035
253 1041
253 1052
253 1062
253 1063
253 1083
253 1084
253 1087
253 1097
253 1118
253 1130
253 1134
253 1138
253 1145
253 1147
253 1152
253 1164
253 1166
253 1179
253 1184
253 1198
253 1213
253 1214
253 1217
253 1219
253 1243
253 1252
253 1254
253 1258
253 1266
253 1270
253 1280
253 1283
253 1287
253 1294
253 1295
253 1298
253 1299
253 1304
253 1305
253 1307
253 1310
253 1330
253 1333
253 1345
253 1358
253 1370
253 1377
253 1380
253 1384
253 1388
253 1390
253 1403
253 1414
253 1415
253 1422
253 1427
253 1453
253 1457
253 1460
253 1462
253 1470
253 1475
253 1489
253 1494
253 1495
253 1496
253 1499
253 1506
253 1513
253 1536
253 1539
253 1560
253 1561
253 1564
253 1565
253 1578
253 1580
253 1607
253 1613
253 1622
253 1624
253 1626
253 1667
253 1671
253 1680
253 1707
253 1738
253 1745
253 1748
253 1763
253 1771
253 1794
253 1797
253 1801
253 1803
253 1806
253 1814
253 1820
253 1822
253 1823
253 1842
253 1848
253 1860
253 1863
253 1865
253 1883
253 1886
253 1899
253 1911
253 1919
253 1933
253 1934
253 1935
253 1954
253 1957
253 1959
253 1967
253 1970
253 1994
253 2013
253 2016
253 2018
253 2028
253 2029
253 2035
253 2045
253 2055
253 2056
253 2068
253 2070
253 2073
253 2076
253 2086
253 2092
253 2093
253 2094
253 2121
253 2123
253 2125
253 2129
253 2133
253 2138
253 2149
253 2154
253 2174
253 2180
253 2182
253 2187
253 2197
253 2199
253 2204
253 2207
253 2217
253 2227
253 2228
253 2229
254 357
254 677
254 966
254 969
254 1491
254 1724
254 2196
255 266
255 270
255 275
255 285
255 337
255 339
255 349
255 382
255 418
255 624
255 660
255 695
255 729
255 799
255 813
255 859
255 897
255 911
255 971
255 1046
255 1070
255 1153
255 1160
255 1195
255 1259
255 1279
255 1298
255 1309
255 1387
255 1403
255 1437
255 1438
255 1491
255 1509
255 1538
255 1549
255 1620
255 1621
255 1662
255 1682
255 1684
255 1690
255 1762
255 1834
255 1843
255 1977
255 2007
255 2024
255 2037
255 2045
255 2075
255 2131
255 2150
255 2168
255 2188
255 2221
256 280
256 374
256 400
256 503
256 511
256 613
256 635
256 643
256 923
256 1070
256 1074
256 1185
256 1327
256 1410
256 1421
256 1475
256 1713
256 1779
256 1868
256 1923
256 1943
256 2035
256 2068
256 2119
256 2142
256 2173
257 267
257 287
257 324
257 337
257 357
257 361
257 405
257 432
257 448
257 583
257 590
257 593
257 626
257 694
257 718
257 727
257 750
257 752
257 763
257 796
257 834
257 836
257 842
257 850
257 882
257 924
257 938
257 1023
257 1047
257 1065
257 1072
257 1126
257 1138
257 1189
257 1233
257 1323
257 1408
257 1437
257 1464
257 1475
257 1514
257 1539
257 1554
257 1566
257 1595
257 1604
257 1623
257 1640
257 1667
257 1687
257 1699
257 1710
257 1713
257 1724
257 1735
257 1739
257 1813
257 1887
257 1900
257 1922
257 1955
257 1977
257 1987
257 1993
257 2049
257 2091
257 2099
257 2119
257 2121
257 2139
257 2150
257 2181
257 2193
257 2232
258 406
258 477
258 500
258 625
258 647
258 749
258 785
258 799
258 825
258 833
258 851
258 853
258 878
258 880
258 895
258 906
258 971
258 992
258 1018
258 1034
258 1051
258 1120
258 1121
258 1137
258 1140
258 1163
258 1202
258 1219
258 1299
258 1323
258 1355
258 1405
258 1412
258 1431
258 1465
258 1498
258 1499
258 1536
258 1543
258 1570
258 1594
258 1595
258 1602
258 1664
258 1696
258 1724
258 1760
258 1762
258 1771
258 1841
258 1939
258 1966
258 2060
258 2073
258 2079
258 2154
258 2162
258 2165
258 2226
260 306
260 339
260 348
260 609
260 1091
260 1276
260 1278
260 1557
260 1678
260 1703
260 1902
260 2010
260 2048
260 2097
261 272
261 279
261 283
261 339
261 422
261 491
261 533
261 595
261 599
261 609
261 686
261 732
261 737
261 758
261 788
261 822
261 840
261 923
261 960
261 965
261 975
261 1009
261 1054
261 1108
261 1139
261 1172
261 1245
261 1249
261 1265
261 1278
261 1345
261 1369
261 1370
261 1390
261 1441
261 1528
261 1536
261 1608
261 1620
261 1639
261 1736
261 1743
261 1748
261 1828
261 1845
261 1873
261 1908
261 1925
261 1935
261 1958
261 2000
261 2066
261 2096
261 2157
261 2169
261 2183
261 2200
261 2207
262 264
262 295
262 336
262 343
262 355
262 359
262 395
262 451
262 543
262 573
262 585
262 596
262 608
262 616
262 626
262 658
262 672
262 678
262 707
262 743
262 830
262 841
262 844
262 851
262 860
262 866
262 870
262 878
262 890
262 903
262 927
262 931
262 948
262 952
262 996
262 1068
262 1088
262 1140
262 1151
262 1152
262 1193
262 1199
262 1218
262 1262
262 1277
262 1291
262 1380
262 1406
262 1411
262 1453
262 1498
262 1565
262 1571
262 1581
262 1599
262 1602
262 1612
262 1623
262 1636
262 1641
262 1661
262 1696
262 1699
262 1702
262 1726
262 1734
262 1793
262 1804
262 1816
262 1879
262 1904
262 2028
262 2033
262 2148
262 2158
262 2175
262 2220
262 2229
263 754
264 295
264 359
264 413
264 428
264 456
264 532
264 613
264 638
264 678
264 685
264 697
264 734
264 743
264 778
264 860
264 886
264 890
264 1062
264 1152
264 1193
264 1214
264 1237
264 1256
264 1336
264 1341
264 1361
264 1381
264 1386
264 1406
264 1416
264 1479
264 1498
264 1544
264 1579
264 1581
264 1635
264 1646
264 1717
264 1737
264 1767
264 1797
264 1807
264 1823
264 1851
264 1886
264 1898
264 1911
264 1925
264 1940
264 2010
264 2045
264 2089
264 2136
264 2149
264 2165
264 2202
264 2208
264 2229
265 302
265 365
265 436
265 497
265 502
265 511
265 593
265 625
265 643
265 665
265 702
265 740
265 746
265 806
265 885
265 895
265 971
265 1106
265 1112
265 1116
265 1129
265 1145
265 1191
265 1233
265 1251
265 1286
265 1402
265 1435
265 1449
265 1480
265 1508
265 1527
265 1606
265 1638
265 1680
265 1777
265 1812
265 1829
265 1854
265 1949
265 1963
265 1977
265 2088
265 2113
265 2116
265 2162
265 2182
265 2206
266 273
266 448
266 473
266 660
266 1092
266 1185
266 1323
266 1399
266 1418
266 1442
266 1445
266 1457
266 1582
266 1623
266 1826
266 1920
266 1935
266 1966
266 2131
267 300
267 314
267 358
267 406
267 486
267 515
267 529
267 631
267 643
267 696
267 791
267 806
267 830
267 969
267 1117
267 1305
267 1336
267 1392
267 1525
267 1568
267 1610
267 1629
267 1679
267 1717
267 1763
267 1819
267 1820
267 1826
267 1869
267 1875
267 1993
267 1996
267 2016
267 2049
267 2167
267 2184
268 393
268 405
268 468
268 514
268 556
268 612
268 638
268 697
268 711
268 727
268 744
268 752
268 886
268 911
268 966
268 969
268 1062
268 1065
268 1084
268 1101
268 1125
268 1199
268 1240
268 1262
268 1399
268 1475
268 1490
268 1492
268 1582
268 1605
268 1637
268 1638
268 1780
268 1918
268 1929
268 1978
268 2148
268 2149
269 275
269 302
269 382
269 418
269 452
269 572
269 692
269 702
269 729
269 799
269 859
269 897
269 971
269 990
269 1070
269 1219
269 1312
269 1540
269 1621
269 1684
269 1690
269 1843
269 1879
269 2148
270 448
270 540
270 644
270 801
270 806
270 811
270 859
270 997
270 1036
270 1120
270 1128
270 1149
270 1153
270 1174
270 1330
270 1392
270 1474
270 1500
270 1776
270 1879
270 1900
270 1920
270 1940
270 1971
270 1987
270 2028
270 2174
270 2228
271 341
271 367
271 505
271 579
271 609
271 632
271 874
271 923
271 930
271 1385
271 1475
271 1633
271 1839
271 1978
271 2030
271 2094
271 2155
271 2207
272 274
272 279
272 283
272 304
272 306
272 316
272 339
272 356
272 399
272 445
272 487
272 491
272 505
272 520
272 533
272 551
272 554
272 584
272 595
272 599
272 609
272 645
272 663
272 679
272 725
272 731
272 732
272 758
272 783
272 788
272 797
272 840
272 918
272 923
272 957
272 960
272 975
272 1007
272 1009
272 1012
272 1082
272 1104
272 1139
272 1213
272 1244
272 1248
272 1249
272 1297
272 1302
272 1313
272 1331
272 1355
272 1360
272 1369
272 1463
272 1468
272 1501
272 1557
272 1561
272 1562
272 1575
272 1608
272 1628
272 1642
272 1729
272 1748
272 1770
272 1788
272 1798
272 1823
272 1839
272 1842
272 1846
272 1894
272 1902
272 1926
272 1937
272 1998
272 2015
272 2048
272 2057
272 2060
272 2066
272 2074
272 2134
272 2155
272 2159
272 2160
272 2183
272 2203
272 2213
273 280
273 307
273 319
273 330
273 335
273 339
273 348
273 381
273 422
273 460
273 477
273 511
273 514
273 550
273 568
273 571
273 587
273 589
273 612
273 626
273 653
273 666
273 689
273 708
273 744
273 822
273 874
273 910
273 943
273 973
273 974
273 981
273 982
273 984
273 994
273 996
273 1067
273 1087
273 1090
273 1166
273 1173
273 1304
273 1313
273 1388
273 1453
273 1457
273 1489
273 1498
273 1499
273 1513
273 1536
273 1582
273 1584
273 1624
273 1626
273 1699
273 1743
273 1745
273 1763
273 1803
273 1898
273 1919
273 1920
273 1929
273 1976
273 2026
273 2055
273 2129
273 2138
273 2139
273 2145
273 2154
273 2207
273 2226
274 315
274 331
274 338
274 356
274 597
274 671
274 755
274 840
274 902
274 964
274 1244
274 1809
274 1846
274 1873
274 1926
274 2089
275 278
275 285
275 288
275 366
275 379
275 382
275 386
275 418
275 420
275 469
275 473
275 495
275 509
275 593
275 609
275 623
275 624
275 633
275 643
275 653
275 656
275 667
275 699
275 716
275 819
275 843
275 875
275 900
275 911
275 917
275 924
275 966
275 986
275 987
275 1010
275 1028
275 1030
275 1050
275 1055
275 1090
275 1096
275 1114
275 1116
275 1129
275 1195
275 1253
275 1257
275 1266
275 1279
275 1318
275 1325
275 1339
275 1438
275 1439
275 1442
275 1456
275 1465
275 1475
275 1491
275 1503
275 1531
275 1558
275 1615
275 1622
275 1626
275 1646
275 1662
275 1663
275 1674
275 1714
275 1762
275 1784
275 1792
275 1868
275 1880
275 1885
275 1894
275 1900
275 1915
275 1940
275 1952
275 1957
275 1972
275 1983
275 2007
275 2024
275 2053
275 2111
275 2150
275 2168
276 333
276 497
276 506
276 542
276 593
276 665
276 715
276 870
276 1129
276 1155
276 1185
276 1233
276 1450
276 1779
276 1808
276 1829
276 1935
276 2113
277 319
277 466
277 490
277 548
277 654
277 734
277 785
277 876
277 887
277 911
277 939
277 1001
277 1005
277 1010
277 1045
277 1283
277 1298
277 1304
277 1312
277 1381
277 1427
277 1432
277 1457
277 1479
277 1502
277 1559
277 1668
277 1682
277 1794
277 1803
277 1894
277 1899
277 1901
277 1970
277 1980
277 2133
278 288
278 337
278 401
278 473
278 750
278 816
278 916
278 1043
278 1103
278 1129
278 1171
278 1286
278 1373
278 1417
278 1442
278 1558
278 1646
278 1658
278 1900
278 1907
278 2024
278 2163
279 310
279 388
279 422
279 491
279 505
279 533
279 595
279 641
279 642
279 758
279 762
279 790
279 840
279 841
279 856
279 879
279 923
279 957
279 961
279 975
279 1009
279 1154
279 1172
279 1179
279 1213
279 1249
279 1278
279 1313
279 1441
279 1468
279 1476
279 1487
279 1505
279 1515
279 1521
279 1528
279 1601
279 1608
279 1703
279 1729
279 1746
279 1748
279 1770
279 1825
279 1845
279 1866
279 1873
279 1941
279 1960
279 2048
279 2096
279 2097
279 2105
279 2114
279 2157
279 2166
279 2207
280 335
280 377
280 396
280 409
280 448
280 512
280 545
280 548
280 656
280 693
280 720
280 735
280 744
280 823
280 863
280 886
280 910
280 949
280 984
280 989
280 1002
280 1055
280 1090
280 1115
280 1173
280 1187
280 1235
280 1240
280 1312
280 1443
280 1447
280 1475
280 1498
280 1507
280 1518
280 1536
280 1667
280 1699
280 1717
280 1727
280 1797
280 1868
280 1955
280 1976
280 2026
280 2049
280 2091
280 2100
280 2137
280 2148
280 2165
281 359
281 361
281 395
281 484
281 639
281 648
281 678
281 714
281 723
281 730
281 754
281 835
281 869
281 919
281 925
281 932
281 938
281 943
281 996
281 1088
281 1113
281 1199
281 1204
281 1218
281 1236
281 1262
281 1277
281 1324
281 1422
281 1436
281 1437
281 1446
281 1500
281 1506
281 1565
281 1582
281 1650
281 1743
281 1900
281 1905
281 1972
281 2064
281 2150
281 2217
281 2220
282 390
282 415
282 444
282 495
282 603
282 673
282 818
282 967
282 968
282 1209
282 1461
282 1529
282 1585
282 1704
282 2190
283 339
283 356
283 378
283 599
283 609
283 679
283 695
283 732
283 762
283 787
283 788
283 820
283 932
283 1024
283 1101
283 1162
283 1215
283 1228
283 1301
283 1463
283 1466
283 1506
283 1513
283 1527
283 1546
283 1575
283 1628
283 1746
283 1786
283 1788
283 1828
283 1865
283 1925
283 1926
283 1985
283 2004
283 2009
283 2074
283 2105
283 2176
283 2203
284 305
284 312
284 343
284 390
284 495
284 631
284 655
284 673
284 863
284 886
284 896
284 945
284 1146
284 1163
284 1209
284 1310
284 1612
284 1704
284 1773
284 1800
284 1815
284 1834
284 1881
284 1912
284 2046
284 2049
284 2190
285 288
285 323
285 365
285 401
285 420
285 469
285 478
285 540
285 573
285 623
285 633
285 741
285 746
285 792
285 844
285 858
285 867
285 875
285 953
285 987
285 1014
285 1028
285 1040
285 1046
285 1050
285 1195
285 1204
285 1257
285 1266
285 1314
285 1323
285 1372
285 1412
285 1418
285 1437
285 1438
285 1439
285 1457
285 1491
285 1531
285 1570
285 1615
285 1622
285 1626
285 1670
285 1675
285 1677
285 1682
285 1726
285 1784
285 1854
285 1885
285 1894
285 1938
285 1943
285 1949
285 1955
285 1957
285 1972
285 1977
285 2007
285 2054
285 2104
285 2111
285 2131
285 2158
285 2174
286 1329
286 2046
287 299
287 300
287 302
287 324
287 328
287 340
287 343
287 357
287 371
287 381
287 400
287 430
287 449
287 463
287 472
287 475
287 494
287 508
287 511
287 544
287 546
287 556
287 568
287 596
287 608
287 611
287 613
287 616
287 617
287 618
287 643
287 651
287 653
287 662
287 665
287 693
287 713
287 749
287 754
287 761
287 801
287 826
287 842
287 851
287 854
287 870
287 886
287 903
287 910
287 945
287 967
287 978
287 989
287 1015
287 1035
287 1055
287 1065
287 1106
287 1117
287 1128
287 1138
287 1155
287 1163
287 1175
287 1190
287 1235
287 1238
287 1240
287 1271
287 1326
287 1365
287 1378
287 1410
287 1415
287 1436
287 1450
287 1475
287 1518
287 1529
287 1539
287 1568
287 1571
287 1576
287 1578
287 1604
287 1610
287 1611
287 1613
287 1618
287 1626
287 1629
287 1640
287 1663
287 1664
287 1667
287 1680
287 1713
287 1717
287 1733
287 1739
287 1759
287 1760
287 1781
287 1799
287 1804
287 1807
287 1819
287 1824
287 1832
287 1855
287 1857
287 1875
287 1888
287 1897
287 1921
287 1929
287 1987
287 1993
287 2038
287 2062
287 2089
287 2109
287 2120
287 2121
287 2136
287 2139
287 2146
287 2161
287 2184
287 2190
287 2226
287 2232
288 323
288 379
288 403
288 412
288 421
288 433
288 450
288 469
288 473
288 478
288 510
288 538
288 540
288 564
288 573
288 624
288 660
288 752
288 792
288 819
288 852
288 858
288 868
288 869
288 878
288 900
288 916
288 937
288 938
288 951
288 953
288 963
288 987
288 1028
288 1101
288 1127
288 1133
288 1172
288 1183
288 1186
288 1195
288 1204
288 1212
288 1219
288 1253
288 1259
288 1309
288 1314
288 1318
288 1323
288 1368
288 1405
288 1417
288 1437
288 1439
288 1442
288 1445
288 1456
288 1457
288 1465
288 1490
288 1491
288 1538
288 1594
288 1615
288 1639
288 1662
288 1669
288 1670
288 1675
288 1684
288 1690
288 1707
288 1725
288 1726
288 1819
288 1841
288 1936
288 1939
288 1957
288 1972
288 1977
288 2007
288 2024
288 2064
288 2093
288 2116
288 2131
288 2150
288 2156
288 2168
288 2188
289 488
289 652
289 693
289 718
289 771
289 826
289 893
289 967
289 1039
289 1072
289 1291
289 1310
289 1373
289 1382
289 1393
289 1470
289 1475
289 1492
289 1529
289 1649
289 1739
289 1740
289 1800
289 1871
289 1881
289 1894
289 1912
289 2045
289 2049
289 2075
289 2100
289 2108
289 2139
289 2171
289 2190
289 2226
290 295
290 529
290 541
290 677
290 1088
290 1289
290 1420
290 1804
290 2028
291 1407
291 2225
292 369
292 375
292 508
292 543
292 631
292 678
292 714
292 752
292 810
292 847
292 884
292 935
292 942
292 966
292 1060
292 1070
292 1073
292 1102
292 1155
292 1189
292 1197
292 1232
292 1263
292 1303
292 1315
292 1368
292 1411
292 1436
292 1541
292 1568
292 1583
292 1600
292 1634
292 1646
292 1653
292 1710
292 1781
292 1792
292 1844
292 1989
292 2145
292 2168
293 446
293 664
293 913
293 1069
293 1617
293 1634
293 1976
293 2081
293 2132
294 1815
295 384
295 556
295 616
295 634
295 656
295 658
295 672
295 678
295 684
295 694
295 806
295 834
295 841
295 860
295 890
295 948
295 952
295 998
295 1015
295 1088
295 1247
295 1328
295 1406
295 1410
295 1422
295 1436
295 1456
295 1504
295 1534
295 1556
295 1579
295 1613
295 1629
295 1696
295 1804
295 1806
295 1832
295 1898
295 1961
295 2028
296 307
296 385
296 508
296 594
296 701
296 742
296 804
296 862
296 897
296 1010
296 1056
296 1103
296 1124
296 1266
296 1327
296 1333
296 1357
296 1384
296 1457
296 1470
296 1605
296 1607
296 1646
296 1684
296 1762
296 1796
296 1838
296 1911
296 1935
296 1943
296 2010
296 2218
297 313
297 442
297 453
297 518
297 533
297 551
297 562
297 609
297 645
297 671
297 736
297 797
297 820
297 840
297 1082
297 1094
297 1228
297 1355
297 1458
297 1572
297 1616
297 1642
297 1873
297 1933
297 2030
297 2134
297 2157
298 307
298 330
298 368
298 386
298 443
298 552
298 615
298 666
298 735
298 742
298 766
298 851
298 894
298 926
298 981
298 992
298 1008
298 1036
298 1062
298 1067
298 1107
298 1142
298 1160
298 1229
298 1287
298 1304
298 1324
298 1332
298 1361
298 1363
298 1388
298 1411
298 1422
298 1453
298 1496
298 1502
298 1536
298 1557
298 1602
298 1671
298 1758
298 1794
298 1803
298 1870
298 1886
298 1957
298 1989
298 2047
298 2076
298 2179
298 2181
298 2228
299 314
299 350
299 437
299 472
299 512
299 631
299 662
299 677
299 815
299 1037
299 1233
299 1375
299 1781
299 2103
300 308
300 314
300 475
300 486
300 512
300 643
300 824
300 919
300 996
300 1000
300 1036
300 1065
300 1128
300 1149
300 1192
300 1240
300 1289
300 1454
300 1566
300 1602
300 1636
300 1717
300 1799
300 1819
300 1824
300 1875
300 1922
300 1944
300 1963
300 2103
300 2167
301 1149
301 1597
301 1608
301 1738
302 374
302 380
302 382
302 400
302 402
302 408
302 448
302 465
302 508
302 511
302 535
302 554
302 556
302 623
302 631
302 643
302 656
302 664
302 702
302 704
302 729
302 763
302 772
302 809
302 813
302 827
302 855
302 859
302 863
302 892
302 913
302 923
302 1019
302 1023
302 1072
302 1074
302 1092
302 1115
302 1144
302 1155
302 1187
302 1191
302 1251
302 1257
302 1259
302 1260
302 1268
302 1270
302 1371
302 1421
302 1422
302 1439
302 1444
302 1475
302 1509
302 1523
302 1527
302 1626
302 1646
302 1663
302 1665
302 1667
302 1696
302 1713
302 1716
302 1717
302 1739
302 1750
302 1779
302 1808
302 1843
302 1854
302 1858
302 1868
302 1923
302 1988
302 2012
302 2049
302 2075
302 2101
302 2116
302 2117
302 2132
302 2139
302 2146
302 2161
302 2164
302 2173
303 355
303 396
303 423
303 448
303 702
303 834
303 996
303 1699
303 1745
303 1987
303 2145
304 399
304 609
304 641
304 642
304 755
304 783
304 964
304 1139
304 1224
304 1228
304 1295
304 1306
304 1350
304 1359
304 1452
304 1527
304 1548
304 1572
304 1616
304 1642
304 1748
304 1770
304 1828
304 1926
304 1960
304 1991
304 2000
304 2058
304 2082
305 455
305 494
305 608
305 631
305 913
305 944
305 1069
305 1187
305 1250
305 1303
305 1326
305 1516
305 1529
305 1590
305 1711
305 1765
305 1782
305 1836
305 1881
305 1893
305 2012
305 2090
305 2139
305 2230
306 338
306 346
306 348
306 399
306 533
306 674
306 679
306 686
306 777
306 787
306 831
306 961
306 1009
306 1012
306 1094
306 1215
306 1241
306 1249
306 1261
306 1301
306 1355
306 1441
306 1557
306 1575
306 1608
306 1642
306 1703
306 1736
306 1817
306 1846
306 1925
306 1945
306 1962
306 1970
306 2010
306 2065
306 2130
306 2187
307 326
307 327
307 330
307 333
307 339
307 341
307 352
307 361
307 362
307 368
307 372
307 374
307 385
307 407
307 414
307 422
307 426
307 463
307 466
307 477
307 492
307 514
307 516
307 521
307 527
307 550
307 557
307 569
307 571
307 585
307 587
307 594
307 613
307 615
307 643
307 644
307 649
307 654
307 666
307 689
307 691
307 701
307 707
307 708
307 709
307 719
307 739
307 741
307 759
307 780
307 811
307 816
307 828
307 829
307 833
307 851
307 862
307 876
307 887
307 897
307 903
307 905
307 911
307 916
307 939
307 942
307 943
307 973
307 977
307 993
307 1004
307 1006
307 1015
307 1028
307 1031
307 1045
307 1056
307 1057
307 1067
307 1072
307 1087
307 1096
307 1103
307 1107
307 1118
307 1124
307 1134
307 1145
307 1147
307 1149
307 1190
307 1198
307 1202
307 1216
307 1223
307 1241
307 1259
307 1266
307 1270
307 1277
307 1280
307 1283
307 1291
307 1298
307 1299
307 1300
307 1307
307 1312
307 1322
307 1333
307 1336
307 1338
307 1351
307 1370
307 1388
307 1390
307 1403
307 1405
307 1417
307 1420
307 1422
307 1427
307 1436
307 1453
307 1457
307 1460
307 1470
307 1479
307 1483
307 1489
307 1492
307 1493
307 1496
307 1497
307 1506
307 1519
307 1557
307 1560
307 1564
307 1599
307 1607
307 1622
307 1624
307 1640
307 1646
307 1671
307 1673
307 1676
307 1682
307 1684
307 1685
307 1699
307 1713
307 1725
307 1737
307 1744
307 1758
307 1763
307 1769
307 1771
307 1781
307 1794
307 1795
307 1796
307 1801
307 1805
307 1806
307 1820
307 1823
307 1838
307 1841
307 1860
307 1864
307 1870
307 1878
307 1886
307 1899
307 1904
307 1905
307 1911
307 1919
307 1931
307 1934
307 1951
307 1956
307 1957
307 1967
307 1970
307 1972
307 1974
307 1994
307 2013
307 2035
307 2055
307 2059
307 2064
307 2065
307 2070
307 2076
307 2129
307 2133
307 2136
307 2138
307 2144
307 2149
307 2174
307 2188
307 2197
307 2207
307 2228
308 381
308 512
308 558
308 570
308 593
308 605
308 608
308 616
308 618
308 643
308 651
308 754
308 807
308 810
308 812
308 841
308 882
308 954
308 968
308 989
308 1080
308 1289
308 1347
308 1397
308 1422
308 1494
308 1510
308 1529
308 1533
308 1568
308 1571
308 1585
308 1606
308 1612
308 1629
308 1664
308 1667
308 1756
308 1760
308 1768
308 1789
308 1799
308 1816
308 1823
308 1827
308 1855
308 1879
308 2062
308 2190
309 341
309 372
309 426
309 443
309 587
309 594
309 628
309 649
309 654
309 666
309 682
309 689
309 741
309 905
309 920
309 943
309 973
309 981
309 1046
309 1062
309 1066
309 1096
309 1123
309 1145
309 1259
309 1333
309 1358
309 1377
309 1422
309 1457
309 1470
309 1493
309 1605
309 1622
309 1639
309 1712
309 1820
309 1883
309 1935
309 1943
309 1965
309 2059
309 2227
310 388
310 412
310 421
310 487
310 490
310 510
310 517
310 520
310 553
310 557
310 575
310 609
310 641
310 732
310 762
310 840
310 902
310 930
310 957
310 961
310 1005
310 1108
310 1132
310 1219
310 1224
310 1228
310 1244
310 1249
310 1312
310 1369
310 1419
310 1441
310 1468
310 1476
310 1501
310 1557
310 1608
310 1615
310 1729
310 1788
310 1825
310 1868
310 1941
310 1960
310 2000
310 2027
310 2096
310 2105
311 702
312 317
312 322
312 337
312 357
312 508
312 512
312 555
312 570
312 602
312 608
312 651
312 662
312 759
312 766
312 828
312 841
312 914
312 996
312 1029
312 1100
312 1156
312 1264
312 1296
312 1310
312 1529
312 1542
312 1544
312 1576
312 1583
312 1604
312 1612
312 1704
312 1752
312 1775
312 1781
312 1834
312 1901
312 1912
312 1993
312 2016
312 2018
312 2098
312 2173
312 2189
312 2190
313 334
313 404
313 425
313 518
313 551
313 669
313 736
313 798
313 841
313 867
313 1094
313 1228
313 1476
313 1572
313 1647
313 1720
313 2030
313 2155
313 2186
313 2201
314 324
314 355
314 411
314 436
314 437
314 460
314 467
314 472
314 486
314 508
314 512
314 523
314 570
314 611
314 631
314 640
314 643
314 662
314 713
314 748
314 750
314 754
314 841
314 843
314 907
314 954
314 962
314 967
314 980
314 989
314 1037
314 1117
314 1146
314 1203
314 1274
314 1347
314 1368
314 1415
314 1422
314 1482
314 1525
314 1554
314 1578
314 1585
314 1602
314 1606
314 1611
314 1699
314 1713
314 1747
314 1756
314 1781
314 1789
314 1802
314 1823
314 1834
314 1844
314 1951
314 1978
314 2005
314 2010
314 2103
314 2118
314 2177
315 339
315 445
315 499
315 504
315 703
315 734
315 904
315 1091
315 1168
315 1181
315 1213
315 1349
315 1398
315 1422
315 1499
315 1544
315 1616
315 1633
315 1683
315 1692
315 1742
315 1766
315 1839
315 1846
315 1934
315 1962
315 2004
315 2036
315 2048
315 2226
316 539
316 609
316 1012
316 1086
316 1161
316 1463
316 1466
316 1828
317 384
317 390
317 570
317 631
317 655
317 810
317 886
317 968
317 1156
317 1250
317 1529
317 1563
317 1610
317 1629
317 1834
317 1897
317 2184
317 2214
318 2089
319 326
319 333
319 341
319 361
319 377
319 413
319 414
319 447
319 463
319 466
319 514
319 521
319 540
319 560
319 571
319 585
319 597
319 613
319 626
319 636
319 648
319 654
319 671
319 689
319 693
319 707
319 722
319 749
319 780
319 798
319 804
319 805
319 816
319 829
319 851
319 887
319 903
319 911
319 942
319 977
319 1001
319 1005
319 1010
319 1026
319 1057
319 1077
319 1086
319 1101
319 1130
319 1134
319 1145
319 1184
319 1198
319 1214
319 1215
319 1238
319 1279
319 1283
319 1330
319 1361
319 1368
319 1403
319 1417
319 1460
319 1479
319 1483
319 1489
319 1530
319 1569
319 1640
319 1671
319 1685
319 1737
319 1738
319 1767
319 1771
319 1803
319 1805
319 1806
319 1814
319 1823
319 1866
319 1886
319 1899
319 1905
319 1911
319 1934
319 1951
319 1967
319 1972
319 1980
319 1994
319 2008
319 2010
319 2029
319 2031
319 2043
319 2045
319 2055
319 2056
319 2070
319 2108
319 2133
319 2150
319 2156
319 2199
319 2202
319 2227
319 2228
320 371
320 432
320 580
320 866
320 917
320 1144
320 1274
320 1507
320 1535
320 1646
320 1674
320 1843
320 1915
320 1952
320 2018
320 2026
320 2039
320 2099
320 2112
320 2163
321 359
321 596
321 617
321 634
321 678
321 711
321 718
321 830
321 860
321 1020
321 1101
321 1109
321 1199
321 1252
321 1262
321 1277
321 1320
321 1416
321 1446
321 1514
321 1650
321 1724
321 1807
322 355
322 406
322 508
322 511
322 608
322 613
322 614
322 640
322 643
322 699
322 815
322 837
322 841
322 866
322 886
322 967
322 1144
322 1146
322 1425
322 1435
322 1530
322 1646
322 1664
322 1665
322 1676
322 1677
322 1699
322 1710
322 1713
322 1773
322 1804
322 1808
322 1844
322 1881
322 1900
322 1971
322 2052
322 2139
322 2220
323 336
323 401
323 405
323 443
323 468
323 478
323 482
323 531
323 532
323 543
323 559
323 573
323 599
323 617
323 633
323 637
323 653
323 658
323 660
323 664
323 665
323 711
323 752
323 781
323 782
323 823
323 844
323 847
323 863
323 900
323 903
323 924
323 929
323 932
323 937
323 951
323 1014
323 1023
323 1028
323 1050
323 1055
323 1060
323 1101
323 1127
323 1133
323 1160
323 1162
323 1171
323 1172
323 1204
323 1257
323 1260
323 1266
323 1320
323 1323
323 1382
323 1405
323 1422
323 1429
323 1439
323 1446
323 1449
323 1456
323 1487
323 1490
323 1507
323 1531
323 1538
323 1546
323 1577
323 1599
323 1602
323 1617
323 1622
323 1623
323 1626
323 1637
323 1666
323 1669
323 1672
323 1699
323 1702
323 1714
323 1726
323 1753
323 1767
323 1784
323 1804
323 1841
323 1860
323 1880
323 1898
323 1900
323 1907
323 1918
323 1920
323 1928
323 1949
323 1953
323 1955
323 1957
323 1970
323 1972
323 1974
323 1997
323 2007
323 2037
323 2139
323 2158
323 2165
323 2177
323 2221
324 328
324 337
324 369
324 377
324 381
324 414
324 447
324 502
324 511
324 535
324 540
324 544
324 556
324 573
324 611
324 613
324 624
324 653
324 656
324 658
324 659
324 662
324 680
324 697
324 707
324 710
324 717
324 720
324 750
324 763
324 770
324 771
324 812
324 844
324 858
324 866
324 882
324 886
324 893
324 912
324 913
324 945
324 958
324 963
324 978
324 1002
324 1003
324 1011
324 1023
324 1025
324 1026
324 1038
324 1039
324 1042
324 1043
324 1070
324 1072
324 1102
324 1116
324 1126
324 1136
324 1147
324 1153
324 1194
324 1231
324 1239
324 1247
324 1271
324 1291
324 1296
324 1308
324 1317
324 1326
324 1366
324 1378
324 1382
324 1392
324 1422
324 1438
324 1439
324 1518
324 1534
324 1574
324 1578
324 1590
324 1602
324 1612
324 1626
324 1629
324 1661
324 1662
324 1663
324 1667
324 1687
324 1696
324 1698
324 1699
324 1700
324 1713
324 1714
324 1719
324 1724
324 1747
324 1768
324 1797
324 1800
324 1813
324 1822
324 1831
324 1843
324 1847
324 1848
324 1856
324 1869
324 1872
324 1890
324 1929
324 1963
324 1972
324 1997
324 2011
324 2033
324 2039
324 2042
324 2053
324 2075
324 2079
324 2098
324 2121
324 2131
324 2132
324 2145
324 2165
324 2173
324 2174
324 2184
324 2185
324 2189
324 2209
325 628
325 986
325 1014
325 1429
325 1516
325 1558
325 1617
325 1843
325 1861
325 1881
325 1915
326 333
326 341
326 374
326 403
326 426
326 454
326 508
326 571
326 587
326 592
326 612
326 682
326 688
326 701
326 731
326 742
326 759
326 785
326 804
326 828
326 837
326 844
326 851
326 983
326 1026
326 1041
326 1056
326 1057
326 1086
326 1107
326 1147
326 1172
326 1254
326 1287
326 1299
326 1338
326 1351
326 1357
326 1363
326 1384
326 1420
326 1489
326 1496
326 1560
326 1607
326 1624
326 1726
326 1734
326 1785
326 1806
326 1823
326 1864
326 1899
326 1904
326 1911
326 1970
326 1986
326 2028
326 2125
326 2189
326 2228
327 333
327 374
327 394
327 422
327 436
327 466
327 497
327 508
327 514
327 521
327 528
327 548
327 560
327 571
327 597
327 625
327 626
327 659
327 665
327 678
327 682
327 725
327 740
327 765
327 804
327 828
327 837
327 874
327 876
327 901
327 926
327 940
327 967
327 981
327 988
327 1006
327 1026
327 1050
327 1051
327 1086
327 1106
327 1129
327 1149
327 1164
327 1191
327 1233
327 1254
327 1258
327 1270
327 1287
327 1298
327 1310
327 1351
327 1361
327 1370
327 1390
327 1403
327 1449
327 1460
327 1462
327 1501
327 1580
327 1605
327 1613
327 1635
327 1638
327 1644
327 1680
327 1682
327 1699
327 1801
327 1812
327 1829
327 1838
327 1865
327 1894
327 1911
327 1951
327 1962
327 1977
327 1993
327 1994
327 1997
327 2008
327 2016
327 2027
327 2044
327 2050
327 2075
327 2076
327 2125
327 2157
327 2171
327 2183
327 2207
327 2227
328 376
328 400
328 465
328 581
328 661
328 738
328 750
328 770
328 794
328 834
328 978
328 1011
328 1073
328 1194
328 1233
328 1240
328 1271
328 1518
328 1539
328 1588
328 1667
328 1713
328 1759
328 1799
328 1875
328 1929
328 1950
328 1987
328 2080
328 2119
328 2136
328 2145
328 2184
329 486
329 674
329 717
329 727
329 761
329 794
329 980
329 1000
329 1025
329 1059
329 1177
329 1217
329 1229
329 1321
329 1340
329 1454
329 1645
329 1827
329 1844
329 1901
329 1993
329 2005
329 2080
329 2091
329 2121
329 2231
330 341
330 362
330 422
330 466
330 508
330 514
330 534
330 541
330 548
330 560
330 569
330 571
330 626
330 644
330 647
330 677
330 785
330 804
330 811
330 851
330 887
330 905
330 911
330 920
330 942
330 952
330 973
330 981
330 1001
330 1026
330 1045
330 1063
330 1067
330 1084
330 1103
330 1145
330 1147
330 1149
330 1184
330 1198
330 1241
330 1269
330 1300
330 1307
330 1333
330 1353
330 1361
330 1384
330 1390
330 1420
330 1432
330 1453
330 1457
330 1513
330 1536
330 1559
330 1580
330 1624
330 1803
330 1804
330 1805
330 1806
330 1814
330 1865
330 1870
330 1931
330 1940
330 1957
330 1965
330 2010
330 2011
330 2013
330 2056
330 2076
330 2093
330 2125
330 2174
330 2179
330 2199
330 2206
330 2207
331 338
331 442
331 533
331 538
331 599
331 637
331 788
331 808
331 840
331 872
331 1244
331 1249
331 1278
331 1385
331 1459
331 1546
331 1557
331 1608
331 1609
331 1642
331 1651
331 1696
331 1703
331 1828
331 1845
331 1902
331 1926
331 1933
331 1960
331 1962
331 1977
331 2097
331 2226
332 503
332 617
332 635
332 967
332 1229
332 1238
332 1258
332 2190
333 339
333 394
333 422
333 436
333 438
333 447
333 451
333 587
333 593
333 625
333 626
333 665
333 682
333 697
333 725
333 735
333 740
333 816
333 851
333 876
333 901
333 903
333 926
333 940
333 942
333 977
333 983
333 998
333 1001
333 1005
333 1041
333 1057
333 1062
333 1086
333 1106
333 1115
333 1134
333 1145
333 1149
333 1153
333 1192
333 1211
333 1221
333 1233
333 1279
333 1289
333 1330
333 1353
333 1388
333 1417
333 1427
333 1435
333 1501
333 1505
333 1560
333 1561
333 1638
333 1639
333 1644
333 1680
333 1732
333 1735
333 1742
333 1771
333 1814
333 1821
333 1829
333 1863
333 1899
333 1908
333 1931
333 1934
333 1962
333 1963
333 2027
333 2056
333 2092
333 2096
333 2106
333 2133
333 2183
333 2199
334 392
334 425
334 609
334 841
334 856
334 1154
334 2097
334 2160
335 348
335 351
335 355
335 371
335 375
335 377
335 396
335 401
335 414
335 434
335 475
335 490
335 502
335 506
335 511
335 512
335 552
335 565
335 568
335 579
335 587
335 589
335 613
335 622
335 624
335 625
335 640
335 659
335 660
335 710
335 715
335 735
335 812
335 819
335 823
335 830
335 835
335 843
335 870
335 886
335 897
335 899
335 910
335 931
335 945
335 986
335 994
335 1004
335 1018
335 1028
335 1035
335 1043
335 1055
335 1065
335 1067
335 1089
335 1114
335 1120
335 1123
335 1135
335 1144
335 1151
335 1155
335 1172
335 1179
335 1190
335 1238
335 1241
335 1310
335 1332
335 1333
335 1371
335 1378
335 1387
335 1390
335 1421
335 1426
335 1432
335 1438
335 1443
335 1449
335 1450
335 1464
335 1467
335 1494
335 1499
335 1507
335 1523
335 1535
335 1541
335 1588
335 1600
335 1626
335 1639
335 1658
335 1662
335 1674
335 1677
335 1684
335 1688
335 1699
335 1717
335 1725
335 1730
335 1745
335 1750
335 1757
335 1771
335 1779
335 1792
335 1796
335 1804
335 1806
335 1815
335 1819
335 1868
335 1876
335 1878
335 1879
335 1899
335 1904
335 1907
335 1916
335 1939
335 1943
335 1971
335 2014
335 2018
335 2026
335 2038
335 2049
335 2075
335 2119
335 2120
335 2131
335 2161
335 2163
335 2167
335 2168
335 2194
335 2210
335 2220
336 373
336 447
336 463
336 532
336 543
336 593
336 613
336 637
336 639
336 678
336 684
336 730
336 743
336 781
336 802
336 814
336 815
336 860
336 880
336 932
336 947
336 1015
336 1020
336 1080
336 1088
336 1101
336 1140
336 1160
336 1199
336 1216
336 1247
336 1252
336 1258
336 1291
336 1323
336 1341
336 1422
336 1492
336 1506
336 1541
336 1582
336 1602
336 1641
336 1646
336 1650
336 1653
336 1670
336 1713
336 1743
336 1745
336 1754
336 1804
336 1851
336 1860
336 1920
336 1929
336 1987
336 1994
336 1999
336 2001
336 2004
336 2050
336 2122
336 2141
336 2145
336 2206
336 2217
336 2221
336 2228
337 343
337 369
337 381
337 384
337 400
337 406
337 407
337 417
337 428
337 430
337 447
337 448
337 468
337 476
337 482
337 498
337 508
337 511
337 512
337 555
337 556
337 589
337 598
337 608
337 616
337 635
337 637
337 643
337 653
337 656
337 674
337 697
337 710
337 714
337 718
337 720
337 730
337 743
337 761
337 766
337 777
337 781
337 800
337 806
337 812
337 814
337 823
337 841
337 847
337 854
337 863
337 882
337 886
337 912
337 913
337 914
337 924
337 948
337 958
337 966
337 968
337 978
337 1011
337 1025
337 1029
337 1030
337 1038
337 1047
337 1065
337 1068
337 1070
337 1097
337 1100
337 1113
337 1126
337 1141
337 1146
337 1153
337 1160
337 1163
337 1184
337 1192
337 1194
337 1235
337 1250
337 1256
337 1271
337 1285
337 1296
337 1303
337 1308
337 1310
337 1315
337 1326
337 1343
337 1373
337 1393
337 1399
337 1406
337 1434
337 1439
337 1444
337 1499
337 1506
337 1514
337 1516
337 1518
337 1529
337 1534
337 1542
337 1566
337 1568
337 1578
337 1581
337 1583
337 1590
337 1591
337 1598
337 1602
337 1604
337 1606
337 1612
337 1654
337 1659
337 1661
337 1672
337 1687
337 1696
337 1699
337 1700
337 1701
337 1710
337 1711
337 1714
337 1717
337 1733
337 1735
337 1739
337 1779
337 1781
337 1797
337 1800
337 1823
337 1834
337 1843
337 1848
337 1855
337 1856
337 1869
337 1875
337 1876
337 1901
337 1903
337 1914
337 1918
337 1921
337 1929
337 1932
337 1997
337 2011
337 2049
337 2062
337 2080
337 2090
337 2112
337 2139
337 2145
337 2171
337 2173
337 2174
337 2180
337 2181
337 2185
337 2190
337 2204
337 2206
337 2220
338 361
338 377
338 378
338 388
338 445
338 487
338 505
338 520
338 526
338 554
338 595
338 599
338 609
338 641
338 732
338 758
338 797
338 820
338 848
338 935
338 937
338 957
338 1006
338 1007
338 1009
338 1024
338 1064
338 1082
338 1091
338 1139
338 1182
338 1215
338 1242
338 1249
338 1270
338 1295
338 1356
338 1441
338 1468
338 1476
338 1505
338 1528
338 1608
338 1628
338 1639
338 1642
338 1746
338 1788
338 1828
338 1842
338 1845
338 1866
338 1876
338 1926
338 1935
338 1991
338 2048
338 2060
338 2096
338 2155
338 2157
338 2159
338 2200
338 2203
339 356
339 378
339 388
339 397
339 463
339 505
339 510
339 516
339 518
339 520
339 533
339 539
339 540
339 548
339 551
339 553
339 554
339 575
339 582
339 595
339 599
339 609
339 612
339 634
339 641
339 642
339 645
339 669
339 695
339 703
339 725
339 732
339 733
339 737
339 757
339 765
339 786
339 798
339 814
339 820
339 840
339 844
339 851
339 856
339 867
339 879
339 901
339 902
339 905
339 908
339 911
339 930
339 942
339 946
339 957
339 960
339 965
339 975
339 977
339 981
339 1009
339 1018
339 1026
339 1053
339 1091
339 1094
339 1108
339 1110
339 1121
339 1124
339 1132
339 1134
339 1139
339 1147
339 1168
339 1182
339 1228
339 1242
339 1245
339 1249
339 1265
339 1276
339 1278
339 1282
339 1297
339 1299
339 1302
339 1307
339 1312
339 1313
339 1317
339 1328
339 1330
339 1349
339 1353
339 1356
339 1357
339 1359
339 1369
339 1390
339 1398
339 1417
339 1425
339 1439
339 1441
339 1457
339 1459
339 1463
339 1466
339 1500
339 1521
339 1527
339 1530
339 1548
339 1562
339 1572
339 1622
339 1628
339 1673
339 1678
339 1722
339 1723
339 1730
339 1748
339 1796
339 1805
339 1814
339 1828
339 1839
339 1845
339 1846
339 1853
339 1873
339 1902
339 1908
339 1917
339 1925
339 1958
339 1959
339 1960
339 1962
339 2004
339 2008
339 2015
339 2016
339 2043
339 2048
339 2058
339 2060
339 2062
339 2065
339 2069
339 2070
339 2092
339 2105
339 2106
339 2108
339 2116
339 2154
339 2155
339 2159
339 2160
339 2164
339 2183
339 2192
339 2203
339 2228
340 393
340 402
340 749
340 826
340 1065
340 1235
340 1382
340 1448
340 1543
340 2216
341 374
341 407
341 422
341 429
341 508
341 548
341 644
341 671
341 677
341 689
341 701
341 708
341 734
341 735
341 737
341 739
341 741
341 804
341 811
341 816
341 851
341 874
341 887
341 983
341 1031
341 1045
341 1057
341 1084
341 1118
341 1134
341 1145
341 1147
341 1157
341 1198
341 1254
341 1266
341 1270
341 1280
341 1283
341 1287
341 1322
341 1328
341 1330
341 1357
341 1358
341 1361
341 1370
341 1388
341 1403
341 1417
341 1420
341 1502
341 1506
341 1535
341 1536
341 1560
341 1564
341 1580
341 1607
341 1638
341 1671
341 1682
341 1699
341 1820
341 1860
341 1886
341 1894
341 1899
341 1930
341 1931
341 1951
341 1961
341 1970
341 1994
341 2008
341 2011
341 2029
341 2035
341 2045
341 2047
341 2059
341 2076
341 2092
341 2125
341 2129
341 2133
341 2149
341 2197
341 2227
341 2228
342 502
342 580
342 586
342 653
342 1039
342 1429
342 1480
342 1617
342 1674
342 1776
342 1843
342 1921
342 1982
342 2168
342 2233
343 384
343 395
343 434
343 475
343 512
343 585
343 590
343 596
343 629
343 653
343 659
343 665
343 699
343 724
343 785
343 914
343 966
343 998
343 999
343 1042
343 1097
343 1128
343 1138
343 1145
343 1146
343 1352
343 1404
343 1422
343 1446
343 1464
343 1473
343 1475
343 1483
343 1506
343 1514
343 1526
343 1529
343 1604
343 1606
343 1664
343 1694
343 1702
343 1834
343 1844
343 1874
343 1887
343 1918
343 1963
343 1970
343 2010
343 2033
343 2052
343 2056
343 2089
343 2118
343 2190
343 2194
343 2226
344 438
344 644
344 811
344 851
344 1031
344 1086
344 1198
344 1279
344 2073
344 2228
345 372
345 386
345 420
345 473
345 538
345 699
345 700
345 734
345 736
345 829
345 867
345 876
345 905
345 911
345 939
345 983
345 1010
345 1045
345 1168
345 1381
345 1427
345 1479
345 1493
345 1519
345 1558
345 1682
345 1685
345 1896
345 1980
345 1994
345 2024
345 2092
345 2155
345 2186
346 352
346 360
346 504
346 599
346 609
346 634
346 795
346 820
346 964
346 1012
346 1108
346 1161
346 1181
346 1182
346 1278
346 1301
346 1328
346 1369
346 1398
346 1521
346 1692
346 1748
346 1770
346 1798
346 1991
346 2036
346 2096
346 2158
347 393
347 482
347 579
347 814
347 942
347 966
347 1073
347 1141
347 1153
347 1506
347 1512
347 1630
347 1664
347 1717
348 377
348 381
348 407
348 422
348 466
348 490
348 492
348 511
348 516
348 526
348 528
348 560
348 571
348 626
348 649
348 689
348 708
348 734
348 735
348 737
348 804
348 851
348 876
348 887
348 910
348 930
348 939
348 967
348 981
348 994
348 1001
348 1006
348 1010
348 1045
348 1051
348 1064
348 1066
348 1072
348 1090
348 1145
348 1173
348 1178
348 1254
348 1259
348 1357
348 1371
348 1380
348 1390
348 1427
348 1443
348 1457
348 1475
348 1479
348 1517
348 1536
348 1561
348 1668
348 1682
348 1699
348 1703
348 1707
348 1745
348 1779
348 1794
348 1795
348 1865
348 1868
348 1894
348 1899
348 1933
348 1943
348 1960
348 1967
348 1970
348 1994
348 2026
348 2035
348 2086
348 2133
348 2144
348 2149
348 2161
348 2187
349 365
349 382
349 418
349 459
349 623
349 721
349 723
349 809
349 813
349 859
349 971
349 990
349 1015
349 1019
349 1030
349 1172
349 1257
349 1279
349 1438
349 1531
349 1549
349 1621
349 1662
349 1699
349 1762
349 2127
349 2150
349 2152
349 2164
350 378
350 406
350 437
350 486
350 508
350 512
350 523
350 546
350 558
350 617
350 618
350 643
350 693
350 752
350 754
350 759
350 792
350 804
350 807
350 834
350 841
350 845
350 945
350 962
350 1126
350 1141
350 1199
350 1203
350 1347
350 1392
350 1415
350 1422
350 1494
350 1510
350 1518
350 1554
350 1556
350 1568
350 1606
350 1629
350 1687
350 1756
350 1759
350 1768
350 1789
350 1799
350 1815
350 1834
350 2103
350 2209
351 366
351 428
351 434
351 446
351 476
351 502
351 506
351 536
351 543
351 573
351 586
351 587
351 613
351 624
351 625
351 628
351 656
351 697
351 704
351 715
351 716
351 760
351 769
351 841
351 867
351 870
351 895
351 917
351 955
351 984
351 986
351 1000
351 1015
351 1028
351 1046
351 1055
351 1067
351 1068
351 1089
351 1123
351 1127
351 1151
351 1171
351 1172
351 1239
351 1312
351 1324
351 1325
351 1371
351 1382
351 1413
351 1421
351 1430
351 1445
351 1465
351 1558
351 1609
351 1615
351 1626
351 1644
351 1674
351 1699
351 1702
351 1708
351 1712
351 1745
351 1776
351 1779
351 1784
351 1808
351 1844
351 1861
351 1867
351 1918
351 1930
351 1938
351 1976
351 2014
351 2034
351 2072
351 2116
351 2163
352 407
352 550
352 785
352 828
352 860
352 911
352 1057
352 1107
352 1124
352 1145
352 1307
352 1320
352 1427
352 1481
352 1592
352 1641
352 1650
352 1653
352 1685
352 1717
352 1734
352 1738
352 1744
352 1758
352 1810
352 1823
352 1831
352 1860
352 1864
352 1929
352 2070
352 2086
352 2125
352 2129
352 2133
352 2199
353 357
353 371
353 406
353 447
353 449
353 512
353 576
353 828
353 866
353 1065
353 1114
353 1138
353 1151
353 1189
353 1334
353 1627
353 1645
353 1655
353 1679
353 1826
353 1840
353 1993
353 2028
353 2121
354 356
354 609
354 1245
354 1249
354 1274
354 1505
354 1548
354 1770
354 1850
354 2040
354 2060
354 2069
355 371
355 430
355 449
355 515
355 590
355 677
355 713
355 731
355 815
355 958
355 969
355 984
355 1038
355 1088
355 1120
355 1152
355 1163
355 1199
355 1262
355 1275
355 1291
355 1347
355 1392
355 1425
355 1494
355 1500
355 1514
355 1585
355 1636
355 1650
355 1688
355 1689
355 1717
355 1783
355 1816
355 1887
355 1939
355 2028
355 2033
355 2039
355 2091
355 2121
355 2149
355 2210
355 2217
356 378
356 520
356 522
356 609
356 797
356 820
356 1012
356 1091
356 1149
356 1261
356 1297
356 1575
356 1608
356 1628
356 1642
356 1817
356 1866
356 1902
356 1926
356 1945
356 1985
356 2060
356 2065
356 2176
356 2213
357 371
357 400
357 414
357 447
357 449
357 464
357 486
357 507
357 512
357 513
357 530
357 543
357 556
357 570
357 576
357 590
357 598
357 622
357 629
357 631
357 635
357 638
357 639
357 659
357 662
357 665
357 671
357 677
357 681
357 687
357 713
357 714
357 717
357 727
357 740
357 749
357 750
357 759
357 769
357 782
357 794
357 807
357 830
357 834
357 851
357 886
357 893
357 907
357 924
357 934
357 958
357 966
357 969
357 974
357 980
357 996
357 1021
357 1047
357 1065
357 1079
357 1090
357 1100
357 1114
357 1120
357 1128
357 1146
357 1151
357 1163
357 1192
357 1199
357 1216
357 1217
357 1238
357 1246
357 1271
357 1274
357 1305
357 1310
357 1340
357 1363
357 1399
357 1408
357 1410
357 1426
357 1434
357 1454
357 1464
357 1469
357 1474
357 1475
357 1494
357 1499
357 1500
357 1511
357 1514
357 1529
357 1535
357 1543
357 1544
357 1563
357 1568
357 1576
357 1598
357 1604
357 1618
357 1624
357 1627
357 1635
357 1645
357 1688
357 1691
357 1713
357 1724
357 1757
357 1775
357 1827
357 1834
357 1840
357 1844
357 1872
357 1879
357 1887
357 1897
357 1900
357 1916
357 1944
357 2016
357 2033
357 2039
357 2049
357 2091
357 2112
357 2184
357 2190
357 2193
357 2196
357 2210
357 2214
357 2231
358 384
358 434
358 468
358 513
358 605
358 638
358 677
358 713
358 806
358 860
358 903
358 914
358 954
358 969
358 1080
358 1109
358 1289
358 1425
358 1446
358 1514
358 1525
358 1529
358 1568
358 1578
358 1604
358 1679
358 1709
358 1793
358 1901
358 2033
359 383
359 577
359 596
359 606
359 639
359 672
359 678
359 684
359 707
359 714
359 730
359 743
359 815
359 880
359 890
359 925
359 952
359 996
359 1052
359 1101
359 1120
359 1160
359 1189
359 1193
359 1199
359 1256
359 1262
359 1277
359 1336
359 1341
359 1386
359 1435
359 1446
359 1474
359 1576
359 1579
359 1581
359 1613
359 1638
359 1696
359 1731
359 1780
359 1797
359 1804
359 1851
359 1855
359 1901
359 1903
359 1940
359 2028
359 2081
359 2194
359 2217
359 2220
359 2229
360 504
360 520
360 533
360 562
360 609
360 671
360 679
360 805
360 961
360 1032
360 1139
360 1154
360 1328
360 1786
360 1839
360 1846
360 1985
360 2030
360 2060
360 2094
361 362
361 377
361 401
361 428
361 432
361 490
361 498
361 536
361 540
361 560
361 600
361 613
361 629
361 660
361 697
361 707
361 743
361 749
361 776
361 781
361 792
361 812
361 829
361 839
361 854
361 878
361 887
361 927
361 943
361 970
361 997
361 1005
361 1015
361 1017
361 1051
361 1060
361 1062
361 1081
361 1092
361 1101
361 1123
361 1134
361 1149
361 1195
361 1204
361 1252
361 1256
361 1283
361 1292
361 1323
361 1335
361 1368
361 1372
361 1406
361 1418
361 1445
361 1449
361 1479
361 1498
361 1506
361 1538
361 1579
361 1581
361 1582
361 1584
361 1595
361 1596
361 1602
361 1611
361 1635
361 1676
361 1699
361 1713
361 1737
361 1767
361 1778
361 1807
361 1848
361 1886
361 1904
361 1940
361 1955
361 1956
361 1972
361 1977
361 1981
361 2010
361 2045
361 2047
361 2054
361 2064
361 2084
361 2099
361 2104
361 2127
361 2131
361 2149
361 2156
361 2165
361 2171
361 2181
361 2199
361 2204
361 2206
362 372
362 448
362 473
362 548
362 560
362 569
362 592
362 612
362 735
362 742
362 763
362 789
362 801
362 803
362 829
362 868
362 887
362 981
362 1149
362 1241
362 1267
362 1276
362 1333
362 1361
362 1384
362 1457
362 1489
362 1513
362 1639
362 1682
362 1796
362 1870
362 1905
362 1940
362 1951
362 2016
362 2093
362 2145
362 2163
362 2174
362 2193
362 2228
363 447
363 495
363 580
363 593
363 720
363 763
363 768
363 967
363 1123
363 1126
363 1255
363 1442
363 1461
363 1507
363 1529
363 1551
363 1634
363 1667
363 1733
363 1739
363 1765
363 1843
363 1867
363 1900
363 2168
364 390
364 444
364 495
364 655
364 673
364 818
364 967
364 1156
364 1520
364 2126
364 2190
365 379
365 381
365 420
365 476
365 624
365 633
365 653
365 746
365 859
365 895
365 900
365 906
365 929
365 953
365 1014
365 1044
365 1112
365 1185
365 1186
365 1260
365 1266
365 1309
365 1317
365 1412
365 1438
365 1457
365 1480
365 1491
365 1508
365 1531
365 1637
365 1677
365 1854
365 1867
365 1880
365 1885
365 1947
365 2088
365 2116
365 2162
366 382
366 387
366 401
366 408
366 418
366 420
366 421
366 448
366 469
366 535
366 548
366 565
366 607
366 628
366 656
366 664
366 716
366 799
366 819
366 873
366 895
366 931
366 963
366 1017
366 1022
366 1030
366 1121
366 1171
366 1186
366 1241
366 1259
366 1309
366 1371
366 1418
366 1439
366 1442
366 1445
366 1450
366 1464
366 1474
366 1487
366 1509
366 1517
366 1552
366 1575
366 1626
366 1631
366 1639
366 1646
366 1675
366 1677
366 1829
366 1867
366 1880
366 1915
366 1947
366 1949
366 1966
366 1974
366 1982
366 2088
366 2116
366 2162
366 2174
367 378
367 575
367 663
367 795
367 797
367 805
367 808
367 923
367 1213
367 1276
367 1297
367 1306
367 1839
367 1853
367 2213
368 381
368 386
368 405
368 432
368 546
368 548
368 615
368 666
368 739
368 741
368 742
368 785
368 847
368 861
368 894
368 903
368 927
368 977
368 983
368 989
368 992
368 1036
368 1062
368 1067
368 1068
368 1142
368 1145
368 1254
368 1330
368 1341
368 1380
368 1384
368 1390
368 1399
368 1411
368 1453
368 1474
368 1475
368 1536
368 1641
368 1671
368 1739
368 1742
368 1793
368 1803
368 1805
368 1810
368 1814
368 1851
368 1965
368 2028
368 2033
368 2056
368 2081
368 2208
368 2228
369 427
369 482
369 488
369 503
369 556
369 579
369 603
369 638
369 768
369 802
369 824
369 847
369 935
369 1026
369 1029
369 1039
369 1059
369 1097
369 1100
369 1184
369 1227
369 1239
369 1255
369 1362
369 1422
369 1541
369 1566
369 1568
369 1745
369 1779
369 1781
369 1799
369 1823
369 1897
369 1922
369 1976
369 2025
369 2093
369 2145
369 2174
369 2184
369 2219
369 2231
370 460
370 529
370 648
370 970
370 1499
370 1581
370 1679
371 405
371 406
371 446
371 482
371 497
371 507
371 512
371 515
371 530
371 542
371 544
371 546
371 558
371 579
371 596
371 598
371 629
371 638
371 647
371 659
371 665
371 693
371 696
371 699
371 717
371 724
371 749
371 750
371 753
371 768
371 769
371 800
371 817
371 825
371 826
371 835
371 850
371 910
371 924
371 927
371 932
371 941
371 945
371 966
371 969
371 984
371 999
371 1000
371 1023
371 1029
371 1042
371 1047
371 1055
371 1059
371 1065
371 1070
371 1098
371 1101
371 1114
371 1129
371 1138
371 1187
371 1193
371 1196
371 1233
371 1235
371 1237
371 1262
371 1303
371 1308
371 1336
371 1341
371 1366
371 1386
371 1396
371 1399
371 1411
371 1421
371 1426
371 1443
371 1464
371 1475
371 1491
371 1506
371 1514
371 1529
371 1571
371 1578
371 1585
371 1598
371 1600
371 1604
371 1606
371 1618
371 1626
371 1627
371 1634
371 1638
371 1646
371 1688
371 1700
371 1702
371 1704
371 1713
371 1717
371 1719
371 1725
371 1727
371 1739
371 1745
371 1749
371 1765
371 1778
371 1781
371 1799
371 1802
371 1804
371 1815
371 1819
371 1829
371 1844
371 1869
371 1878
371 1892
371 1893
371 1895
371 1903
371 1918
371 1993
371 1997
371 2021
371 2028
371 2033
371 2039
371 2046
371 2081
371 2121
371 2163
371 2190
371 2194
371 2196
371 2204
372 386
372 426
372 429
372 443
372 463
372 473
372 534
372 538
372 552
372 623
372 654
372 689
372 708
372 741
372 772
372 812
372 823
372 851
372 866
372 867
372 932
372 1055
372 1057
372 1067
372 1096
372 1145
372 1147
372 1172
372 1184
372 1202
372 1280
372 1328
372 1330
372 1358
372 1372
372 1377
372 1390
372 1439
372 1457
372 1470
372 1489
372 1493
372 1535
372 1558
372 1560
372 1609
372 1611
372 1667
372 1669
372 1712
372 1726
372 1748
372 1750
372 1762
372 1796
372 1879
372 1972
372 1994
372 1997
372 2000
372 2010
372 2011
372 2024
372 2026
372 2049
372 2073
372 2096
372 2112
372 2144
372 2164
372 2180
372 2188
372 2227
372 2228
373 379
373 389
373 400
373 401
373 423
373 465
373 502
373 568
373 581
373 587
373 603
373 622
373 670
373 674
373 702
373 716
373 724
373 763
373 769
373 802
373 819
373 834
373 870
373 882
373 899
373 931
373 955
373 963
373 985
373 1002
373 1059
373 1073
373 1183
373 1190
373 1191
373 1192
373 1194
373 1226
373 1231
373 1233
373 1235
373 1241
373 1372
373 1387
373 1402
373 1410
373 1431
373 1442
373 1450
373 1465
373 1518
373 1523
373 1524
373 1539
373 1547
373 1566
373 1644
373 1663
373 1690
373 1713
373 1799
373 1813
373 1815
373 1819
373 1835
373 1862
373 1872
373 1888
373 1906
373 1922
373 1976
373 1993
373 2038
373 2041
373 2043
373 2078
373 2119
373 2145
373 2173
373 2193
373 2223
374 426
374 454
374 508
374 530
374 562
374 593
374 678
374 682
374 731
374 780
374 798
374 837
374 920
374 923
374 926
374 973
374 1026
374 1041
374 1074
374 1086
374 1134
374 1145
374 1164
374 1191
374 1211
374 1214
374 1233
374 1269
374 1351
374 1357
374 1370
374 1403
374 1417
374 1496
374 1560
374 1646
374 1665
374 1738
374 1812
374 1828
374 1943
374 2031
374 2035
374 2068
374 2125
374 2227
375 468
375 497
375 531
375 559
375 589
375 622
375 629
375 667
375 714
375 792
375 966
375 1018
375 1043
375 1065
375 1083
375 1125
375 1155
375 1208
375 1220
375 1232
375 1368
375 1422
375 1431
375 1442
375 1535
375 1541
375 1578
375 1599
375 1658
375 1757
375 1822
375 1844
375 1852
375 1896
375 1907
375 1916
375 1989
375 2038
375 2045
375 2062
375 2068
375 2168
375 2220
376 494
376 631
376 913
376 1039
376 1150
376 1393
376 1629
376 1689
376 1843
376 1906
377 381
377 383
377 397
377 401
377 414
377 460
377 540
377 548
377 560
377 589
377 613
377 643
377 734
377 735
377 741
377 766
377 886
377 910
377 952
377 973
377 981
377 987
377 1048
377 1051
377 1055
377 1072
377 1077
377 1097
377 1172
377 1208
377 1256
377 1292
377 1357
377 1368
377 1371
377 1390
377 1406
377 1416
377 1457
377 1479
377 1498
377 1507
377 1534
377 1571
377 1581
377 1602
377 1626
377 1635
377 1690
377 1699
377 1713
377 1745
377 1767
377 1797
377 1804
377 1807
377 1830
377 1904
377 1905
377 1940
377 2007
377 2011
377 2054
377 2099
377 2136
377 2146
377 2156
377 2161
377 2174
377 2181
377 2202
377 2227
378 483
378 489
378 505
378 520
378 539
378 599
378 609
378 610
378 634
378 641
378 642
378 820
378 838
378 872
378 918
378 930
378 943
378 961
378 1009
378 1012
378 1024
378 1032
378 1154
378 1161
378 1188
378 1248
378 1249
378 1278
378 1295
378 1306
378 1313
378 1331
378 1356
378 1360
378 1385
378 1422
378 1463
378 1466
378 1557
378 1575
378 1608
378 1628
378 1629
378 1742
378 1842
378 1846
378 1853
378 1866
378 1934
378 1945
378 2027
378 2057
378 2060
378 2065
378 2069
378 2228
379 382
379 387
379 408
379 409
379 418
379 421
379 538
379 573
379 623
379 633
379 660
379 716
379 869
379 900
379 905
379 906
379 929
379 937
379 939
379 963
379 987
379 990
379 1014
379 1030
379 1074
379 1101
379 1112
379 1116
379 1133
379 1137
379 1178
379 1187
379 1191
379 1195
379 1219
379 1231
379 1257
379 1387
379 1401
379 1422
379 1438
379 1450
379 1477
379 1486
379 1491
379 1508
379 1509
379 1531
379 1552
379 1594
379 1637
379 1682
379 1719
379 1854
379 1883
379 1894
379 1936
379 1939
379 1947
379 1949
379 2088
379 2143
379 2162
379 2216
379 2221
379 2233
380 396
380 448
380 455
380 461
380 468
380 482
380 502
380 511
380 579
380 612
380 664
380 680
380 692
380 704
380 728
380 729
380 744
380 746
380 754
380 768
380 781
380 804
380 814
380 823
380 843
380 844
380 847
380 855
380 859
380 910
380 924
380 969
380 989
380 1019
380 1023
380 1038
380 1101
380 1112
380 1113
380 1141
380 1173
380 1185
380 1239
380 1240
380 1490
380 1541
380 1653
380 1666
380 1667
380 1698
380 1699
380 1708
380 1717
380 1727
380 1733
380 1745
380 1849
380 1854
380 1860
380 1890
380 1918
380 1928
380 1942
380 1971
380 1982
380 2026
380 2033
380 2049
380 2103
380 2108
380 2145
380 2158
380 2174
380 2190
381 396
381 406
381 423
381 446
381 482
381 502
381 508
381 511
381 512
381 542
381 543
381 544
381 558
381 593
381 613
381 631
381 632
381 662
381 696
381 744
381 754
381 800
381 823
381 825
381 851
381 854
381 886
381 910
381 929
381 945
381 949
381 984
381 989
381 996
381 999
381 1023
381 1047
381 1069
381 1090
381 1109
381 1115
381 1126
381 1173
381 1185
381 1233
381 1239
381 1271
381 1308
381 1326
381 1347
381 1382
381 1443
381 1474
381 1475
381 1514
381 1536
381 1571
381 1578
381 1606
381 1646
381 1659
381 1661
381 1663
381 1680
381 1699
381 1710
381 1717
381 1739
381 1745
381 1760
381 1799
381 1824
381 1869
381 1890
381 1904
381 1971
381 1993
381 2026
381 2045
381 2049
381 2075
381 2081
381 2089
381 2103
381 2109
381 2146
381 2165
381 2196
381 2214
382 418
382 480
382 624
382 723
382 772
382 813
382 863
382 897
382 900
382 911
382 971
382 990
382 1022
382 1030
382 1046
382 1070
382 1074
382 1279
382 1317
382 1490
382 1491
382 1509
382 1538
382 1540
382 1549
382 1621
382 1662
382 1677
382 1684
382 1698
382 1719
382 1813
382 1947
382 1977
382 1983
382 1988
382 2037
382 2045
382 2081
382 2116
382 2148
382 2164
382 2188
383 511
383 577
383 631
383 665
383 730
383 748
383 760
383 847
383 988
383 1090
383 1098
383 1208
383 1256
383 1341
383 1426
383 1436
383 1484
383 1524
383 1585
383 1638
383 1654
383 1667
383 1696
383 1699
383 1779
383 1797
383 1804
383 1898
383 1904
383 1976
383 2127
383 2145
383 2217
384 423
384 444
384 486
384 503
384 508
384 512
384 546
384 590
384 606
384 651
384 662
384 673
384 675
384 677
384 684
384 696
384 759
384 825
384 841
384 850
384 860
384 881
384 882
384 907
384 909
384 914
384 954
384 968
384 996
384 998
384 1020
384 1095
384 1109
384 1117
384 1146
384 1151
384 1176
384 1206
384 1209
384 1216
384 1229
384 1237
384 1247
384 1250
384 1252
384 1264
384 1289
384 1303
384 1305
384 1310
384 1347
384 1352
384 1397
384 1422
384 1434
384 1499
384 1504
384 1514
384 1529
384 1532
384 1542
384 1576
384 1578
384 1589
384 1602
384 1606
384 1610
384 1612
384 1618
384 1626
384 1629
384 1661
384 1679
384 1702
384 1717
384 1731
384 1749
384 1775
384 1824
384 1834
384 1901
384 1904
384 1927
384 1961
384 1993
384 1996
384 1997
384 1999
384 2001
384 2005
384 2016
384 2018
384 2049
384 2123
384 2141
384 2173
384 2190
384 2208
385 422
385 429
385 528
385 529
385 550
385 571
385 592
385 626
385 644
385 671
385 716
385 737
385 739
385 742
385 833
385 851
385 874
385 911
385 1004
385 1006
385 1103
385 1270
385 1289
385 1417
385 1420
385 1426
385 1460
385 1481
385 1495
385 1559
385 1561
385 1624
385 1696
385 1717
385 1734
385 1763
385 1814
385 1838
385 1860
385 1863
385 1879
385 1994
385 2056
385 2086
385 2199
385 2207
385 2228
386 443
386 473
386 534
386 538
386 548
386 612
386 615
386 666
386 734
386 742
386 812
386 911
386 926
386 942
386 1001
386 1004
386 1045
386 1056
386 1121
386 1142
386 1172
386 1283
386 1304
386 1332
386 1358
386 1384
386 1422
386 1439
386 1451
386 1470
386 1536
386 1558
386 1570
386 1615
386 1671
386 1682
386 1758
386 1762
386 1772
386 1784
386 1805
386 1837
386 1880
386 1886
386 1894
386 1896
386 1935
386 1965
386 1974
386 1986
386 2011
386 2024
386 2047
386 2076
386 2096
386 2111
386 2116
386 2164
386 2179
386 2181
386 2188
387 401
387 403
387 443
387 476
387 536
387 538
387 565
387 586
387 607
387 624
387 660
387 697
387 746
387 873
387 883
387 895
387 990
387 1112
387 1121
387 1123
387 1171
387 1183
387 1219
387 1259
387 1309
387 1317
387 1324
387 1368
387 1377
387 1384
387 1394
387 1401
387 1436
387 1438
387 1465
387 1486
387 1493
387 1508
387 1509
387 1517
387 1558
387 1567
387 1631
387 1669
387 1675
387 1777
387 1784
387 1793
387 1854
387 1930
387 1942
387 1948
387 1949
387 1966
387 1982
387 2033
387 2087
387 2088
387 2215
388 418
388 429
388 553
388 566
388 723
388 732
388 762
388 856
388 957
388 1030
388 1241
388 1242
388 1244
388 1249
388 1337
388 1459
388 1466
388 1501
388 1515
388 1620
388 1729
388 1935
388 2096
388 2164
388 2169
388 2200
388 2203
389 643
389 652
389 661
389 662
389 682
389 914
389 962
389 1002
389 1073
389 1196
389 1217
389 1833
389 1969
390 603
390 651
390 673
390 818
390 1156
390 1209
390 1303
390 1461
390 1529
390 1704
390 1984
390 2005
390 2126
391 539
391 609
391 686
391 808
391 872
391 918
391 1154
391 1248
391 1297
391 1385
391 1530
391 1575
391 1633
391 1998
391 2069
391 2092
392 489
392 1505
392 1978
392 2207
393 405
393 427
393 461
393 482
393 511
393 579
393 598
393 643
393 653
393 749
393 781
393 814
393 820
393 823
393 847
393 863
393 866
393 910
393 924
393 966
393 978
393 979
393 996
393 999
393 1042
393 1073
393 1097
393 1101
393 1105
393 1141
393 1190
393 1439
393 1506
393 1617
393 1637
393 1698
393 1699
393 1713
393 1717
393 1751
393 1753
393 1855
393 1878
393 1890
393 1893
393 1928
393 1929
393 1932
393 1953
393 1975
393 1976
393 2019
393 2022
393 2103
393 2132
393 2145
394 451
394 460
394 497
394 593
394 643
394 693
394 740
394 876
394 1034
394 1106
394 1115
394 1129
394 1145
394 1191
394 1233
394 1392
394 1403
394 1435
394 1574
394 1606
394 1638
394 1646
394 1680
394 1779
394 1812
394 1829
394 1843
394 1852
394 1977
394 2120
394 2182
395 403
395 421
395 461
395 468
395 503
395 531
395 532
395 579
395 634
395 637
395 658
395 752
395 814
395 847
395 880
395 932
395 948
395 999
395 1081
395 1127
395 1152
395 1160
395 1199
395 1218
395 1236
395 1277
395 1291
395 1320
395 1324
395 1372
395 1422
395 1437
395 1446
395 1456
395 1504
395 1544
395 1556
395 1564
395 1565
395 1582
395 1623
395 1650
395 1653
395 1725
395 1743
395 1780
395 1844
395 1898
395 1905
395 1938
395 1964
395 1972
395 2019
395 2049
395 2064
395 2150
395 2181
395 2204
395 2208
396 475
396 511
396 573
396 579
396 613
396 643
396 656
396 664
396 690
396 711
396 744
396 801
396 827
396 863
396 910
396 913
396 937
396 996
396 1038
396 1055
396 1101
396 1113
396 1141
396 1172
396 1173
396 1272
396 1316
396 1320
396 1326
396 1439
396 1443
396 1512
396 1529
396 1541
396 1606
396 1630
396 1666
396 1667
396 1702
396 1745
396 1779
396 1781
396 1849
396 1890
396 1942
396 1971
396 1976
396 2019
396 2045
396 2049
396 2132
396 2148
397 401
397 411
397 465
397 509
397 516
397 579
397 638
397 674
397 693
397 697
397 766
397 875
397 920
397 987
397 1003
397 1015
397 1036
397 1063
397 1077
397 1101
397 1127
397 1145
397 1172
397 1208
397 1235
397 1559
397 1582
397 1588
397 1668
397 1716
397 1830
397 1956
397 2029
397 2045
397 2053
397 2054
397 2062
397 2098
397 2122
397 2144
397 2174
397 2181
397 2202
398 631
398 892
398 913
398 1143
398 1185
398 1286
398 1367
398 1402
398 1428
398 1779
398 1836
398 1923
398 1982
398 2054
398 2117
399 585
399 599
399 604
399 623
399 820
399 957
399 965
399 1064
399 1101
399 1108
399 1127
399 1244
399 1249
399 1278
399 1282
399 1301
399 1369
399 1395
399 1414
399 1446
399 1452
399 1463
399 1506
399 1521
399 1557
399 1572
399 1575
399 1633
399 1678
399 1798
399 1817
399 1846
399 1917
399 1918
399 1933
399 1934
399 1935
399 1985
399 1991
399 1994
399 2000
399 2158
399 2183
399 2203
400 465
400 495
400 511
400 581
400 593
400 629
400 635
400 643
400 665
400 671
400 674
400 724
400 744
400 750
400 761
400 771
400 794
400 834
400 893
400 899
400 935
400 968
400 1002
400 1059
400 1070
400 1073
400 1109
400 1116
400 1152
400 1155
400 1233
400 1246
400 1310
400 1327
400 1387
400 1393
400 1410
400 1422
400 1444
400 1450
400 1475
400 1492
400 1507
400 1518
400 1523
400 1618
400 1664
400 1667
400 1713
400 1747
400 1754
400 1757
400 1781
400 1799
400 1868
400 1872
400 1874
400 1897
400 1904
400 1943
400 1969
400 1993
400 2022
400 2062
400 2098
400 2119
400 2142
400 2184
400 2209
400 2223
401 421
401 427
401 476
401 484
401 534
401 538
401 556
401 582
401 622
401 658
401 667
401 716
401 844
401 858
401 866
401 869
401 892
401 931
401 951
401 983
401 986
401 987
401 1002
401 1003
401 1026
401 1030
401 1036
401 1040
401 1055
401 1072
401 1089
401 1121
401 1125
401 1147
401 1172
401 1208
401 1219
401 1231
401 1241
401 1309
401 1314
401 1368
401 1422
401 1439
401 1442
401 1445
401 1450
401 1465
401 1477
401 1487
401 1490
401 1493
401 1552
401 1580
401 1666
401 1669
401 1670
401 1714
401 1726
401 1755
401 1778
401 1779
401 1805
401 1829
401 1841
401 1854
401 1862
401 1936
401 1940
401 1943
401 1948
401 1955
401 1972
401 1997
401 2025
401 2034
401 2064
401 2087
401 2111
401 2163
401 2174
401 2202
401 2204
402 403
402 439
402 448
402 506
402 511
402 586
402 697
402 702
402 724
402 738
402 763
402 801
402 809
402 882
402 924
402 1002
402 1019
402 1023
402 1070
402 1171
402 1185
402 1187
402 1196
402 1284
402 1324
402 1371
402 1377
402 1518
402 1665
402 1699
402 1701
402 1712
402 1713
402 1808
402 1815
402 1855
402 1930
402 1955
402 1976
402 2116
403 429
403 461
403 462
403 468
403 476
403 500
403 502
403 506
403 534
403 538
403 548
403 560
403 615
403 633
403 660
403 664
403 704
403 723
403 751
403 752
403 781
403 852
403 859
403 863
403 867
403 900
403 916
403 937
403 963
403 964
403 1004
403 1015
403 1023
403 1038
403 1055
403 1081
403 1096
403 1125
403 1127
403 1162
403 1171
403 1172
403 1185
403 1195
403 1196
403 1259
403 1267
403 1272
403 1309
403 1312
403 1418
403 1437
403 1445
403 1456
403 1465
403 1470
403 1547
403 1558
403 1609
403 1623
403 1638
403 1663
403 1667
403 1669
403 1675
403 1697
403 1698
403 1699
403 1702
403 1712
403 1725
403 1777
403 1820
403 1841
403 1849
403 1854
403 1867
403 1904
403 1918
403 1930
403 1939
403 1942
403 1943
403 1948
403 1957
403 1976
403 1982
403 1993
403 2001
403 2037
403 2101
403 2107
403 2116
403 2132
403 2148
403 2188
404 551
404 669
404 798
404 1094
404 1228
404 1355
404 1458
404 1647
404 1722
404 1723
404 1825
404 1908
404 1910
404 2030
404 2192
405 414
405 461
405 481
405 482
405 511
405 531
405 543
405 580
405 585
405 637
405 653
405 658
405 664
405 753
405 827
405 847
405 863
405 924
405 932
405 948
405 966
405 999
405 1023
405 1042
405 1063
405 1090
405 1097
405 1102
405 1105
405 1125
405 1226
405 1240
405 1340
405 1399
405 1411
405 1446
405 1490
405 1617
405 1623
405 1626
405 1637
405 1638
405 1640
405 1659
405 1666
405 1672
405 1699
405 1708
405 1745
405 1844
405 1851
405 1878
405 1890
405 1898
405 1918
405 1964
405 2033
405 2103
405 2145
405 2196
405 2204
406 447
406 448
406 465
406 508
406 542
406 556
406 558
406 613
406 631
406 640
406 643
406 693
406 697
406 707
406 724
406 730
406 746
406 754
406 800
406 847
406 854
406 863
406 886
406 914
406 945
406 989
406 996
406 1018
406 1047
406 1070
406 1190
406 1192
406 1194
406 1246
406 1296
406 1326
406 1341
406 1366
406 1382
406 1391
406 1411
406 1506
406 1507
406 1541
406 1554
406 1571
406 1574
406 1578
406 1602
406 1606
406 1610
406 1629
406 1646
406 1680
406 1687
406 1700
406 1739
406 1781
406 1797
406 1799
406 1804
406 1852
406 1855
406 1900
406 1955
406 1989
406 2033
406 2038
406 2062
406 2091
406 2103
406 2108
406 2139
406 2146
406 2165
406 2171
406 2185
406 2196
406 2204
406 2209
406 2232
407 466
407 490
407 516
407 548
407 550
407 600
407 691
407 785
407 841
407 876
407 886
407 887
407 903
407 939
407 941
407 1001
407 1010
407 1026
407 1051
407 1066
407 1124
407 1130
407 1145
407 1179
407 1223
407 1259
407 1279
407 1298
407 1312
407 1380
407 1381
407 1422
407 1427
407 1432
407 1479
407 1534
407 1605
407 1640
407 1668
407 1682
407 1795
407 1823
407 1831
407 1864
407 1865
407 1967
407 1970
407 1972
407 2133
407 2144
407 2149
407 2154
407 2187
408 420
408 433
408 502
408 527
408 538
408 556
408 573
408 594
408 624
408 633
408 658
408 660
408 720
408 721
408 754
408 766
408 852
408 855
408 878
408 895
408 897
408 905
408 906
408 963
408 1019
408 1133
408 1185
408 1186
408 1212
408 1219
408 1253
408 1257
408 1312
408 1317
408 1364
408 1387
408 1438
408 1439
408 1442
408 1450
408 1465
408 1477
408 1480
408 1487
408 1508
408 1531
408 1552
408 1626
408 1631
408 1662
408 1677
408 1818
408 1854
408 1867
408 1880
408 1938
408 1947
408 2088
408 2108
408 2116
408 2162
408 2174
408 2188
408 2221
409 412
409 418
409 421
409 426
409 548
409 624
409 633
409 656
409 660
409 670
409 721
409 799
409 855
409 859
409 886
409 916
409 939
409 949
409 990
409 1000
409 1018
409 1028
409 1046
409 1074
409 1137
409 1178
409 1185
409 1342
409 1371
409 1418
409 1442
409 1594
409 1596
409 1626
409 1674
409 1675
409 1677
409 1719
409 1841
409 1867
409 1868
409 1915
409 1923
409 1936
409 1982
409 1988
409 2059
409 2075
409 2131
409 2137
409 2161
410 1022
411 465
411 490
411 496
411 547
411 560
411 597
411 670
411 770
411 834
411 870
411 980
411 992
411 1018
411 1059
411 1077
411 1106
411 1129
411 1192
411 1235
411 1373
411 1409
411 1472
411 1500
411 1525
411 1535
411 1667
411 1699
411 1735
411 1795
411 1906
411 1944
411 1952
411 1969
411 2008
411 2041
411 2204
412 426
412 454
412 477
412 492
412 508
412 510
412 534
412 557
412 594
412 600
412 660
412 731
412 737
412 804
412 852
412 853
412 869
412 897
412 905
412 939
412 1096
412 1103
412 1127
412 1133
412 1137
412 1178
412 1202
412 1241
412 1259
412 1294
412 1299
412 1312
412 1372
412 1384
412 1509
412 1536
412 1548
412 1639
412 1795
412 1820
412 1894
412 1931
412 1935
412 1974
412 1994
412 2188
412 2216
412 2218
413 600
413 626
413 671
413 734
413 792
413 829
413 998
413 1005
413 1057
413 1060
413 1087
413 1184
413 1198
413 1328
413 1361
413 1403
413 1420
413 1427
413 1556
413 1581
413 1635
413 1767
413 1899
413 2029
413 2073
413 2133
413 2149
413 2156
414 465
414 466
414 498
414 538
414 556
414 560
414 593
414 600
414 613
414 670
414 671
414 693
414 697
414 710
414 763
414 782
414 886
414 893
414 934
414 935
414 968
414 991
414 1041
414 1047
414 1062
414 1070
414 1100
414 1128
414 1146
414 1189
414 1190
414 1269
414 1310
414 1361
414 1487
414 1498
414 1529
414 1547
414 1555
414 1604
414 1629
414 1661
414 1799
414 1848
414 1869
414 1886
414 1893
414 1905
414 2045
414 2054
414 2100
414 2102
414 2108
414 2121
414 2136
414 2149
414 2156
414 2165
414 2174
414 2185
414 2189
414 2190
414 2202
415 495
415 718
415 720
415 896
415 968
415 1095
415 1289
415 1393
415 1529
415 1680
415 1704
415 2003
415 2167
415 2170
415 2190
416 966
417 428
417 593
417 629
417 670
417 674
417 677
417 717
417 756
417 794
417 830
417 886
417 917
417 966
417 996
417 1025
417 1128
417 1151
417 1192
417 1217
417 1246
417 1305
417 1340
417 1363
417 1425
417 1454
417 1568
417 1583
417 1602
417 1713
417 1781
417 1827
417 1831
417 1844
417 1856
417 1900
417 1969
417 2091
417 2121
417 2189
417 2226
418 459
418 476
418 566
418 582
418 660
418 697
418 729
418 813
418 895
418 900
418 931
418 965
418 971
418 1030
418 1046
418 1123
418 1186
418 1259
418 1279
418 1312
418 1317
418 1401
418 1438
418 1442
418 1477
418 1509
418 1538
418 1549
418 1557
418 1620
418 1621
418 1762
418 1777
418 1843
418 1854
418 1880
418 1943
418 1947
418 2045
418 2152
418 2164
418 2174
418 2188
418 2200
419 596
420 433
420 478
420 479
420 538
420 565
420 623
420 628
420 633
420 716
420 746
420 763
420 812
420 867
420 873
420 875
420 889
420 892
420 900
420 931
420 963
420 1002
420 1014
420 1028
420 1030
420 1072
420 1089
420 1092
420 1112
420 1121
420 1123
420 1186
420 1195
420 1257
420 1259
420 1412
420 1418
420 1442
420 1475
420 1477
420 1491
420 1493
420 1531
420 1552
420 1558
420 1631
420 1658
420 1677
420 1705
420 1777
420 1841
420 1854
420 1861
420 1880
420 1885
420 1896
420 1915
420 1935
420 1949
420 1957
420 2088
420 2111
420 2116
420 2162
420 2174
420 2181
420 2215
421 473
421 477
421 478
421 490
421 534
421 538
421 556
421 564
421 573
421 594
421 624
421 634
421 637
421 707
421 723
421 754
421 812
421 852
421 855
421 869
421 878
421 905
421 927
421 937
421 939
421 951
421 987
421 1089
421 1135
421 1137
421 1172
421 1178
421 1183
421 1212
421 1219
421 1259
421 1309
421 1323
421 1324
421 1333
421 1364
421 1372
421 1412
421 1418
421 1445
421 1456
421 1487
421 1538
421 1615
421 1637
421 1639
421 1662
421 1669
421 1670
421 1696
421 1776
421 1813
421 1867
421 1883
421 1936
421 1938
421 1964
421 1977
421 1997
421 2104
421 2131
421 2143
421 2150
421 2158
421 2188
421 2216
421 2221
422 490
422 508
422 514
422 521
422 522
422 528
422 542
422 592
422 597
422 626
422 689
422 701
422 708
422 711
422 732
422 737
422 741
422 790
422 798
422 806
422 822
422 828
422 829
422 851
422 867
422 874
422 876
422 902
422 920
422 965
422 993
422 1004
422 1005
422 1006
422 1010
422 1026
422 1045
422 1051
422 1057
422 1124
422 1145
422 1151
422 1172
422 1190
422 1198
422 1238
422 1247
422 1254
422 1261
422 1267
422 1298
422 1300
422 1307
422 1333
422 1338
422 1388
422 1403
422 1414
422 1441
422 1460
422 1462
422 1479
422 1481
422 1489
422 1560
422 1570
422 1575
422 1605
422 1624
422 1628
422 1646
422 1653
422 1671
422 1699
422 1717
422 1738
422 1763
422 1770
422 1787
422 1796
422 1823
422 1831
422 1951
422 1958
422 1965
422 2008
422 2065
422 2086
422 2133
422 2134
422 2199
422 2207
422 2227
423 568
423 613
423 629
423 670
423 769
423 847
423 870
423 1000
423 1042
423 1047
423 1090
423 1172
423 1173
423 1410
423 1450
423 1464
423 1529
423 1638
423 1653
423 1699
423 1745
423 1751
423 1757
423 1829
423 1872
423 1900
423 1906
423 1918
423 1939
423 1944
423 1976
423 1993
423 2033
423 2049
424 1999
425 663
425 841
425 924
425 1295
425 1582
425 2105
426 548
426 594
426 731
426 739
426 851
426 905
426 916
426 920
426 1025
426 1041
426 1066
426 1124
426 1134
426 1137
426 1178
426 1184
426 1214
426 1270
426 1322
426 1333
426 1338
426 1380
426 1403
426 1405
426 1422
426 1457
426 1489
426 1509
426 1560
426 1622
426 1738
426 1746
426 1796
426 1806
426 1811
426 1820
426 1894
426 1934
426 1935
426 1936
426 1967
426 1974
426 1986
426 2035
426 2043
426 2059
426 2154
426 2218
426 2227
426 2228
427 502
427 503
427 506
427 519
427 631
427 635
427 638
427 667
427 720
427 754
427 798
427 892
427 983
427 1002
427 1020
427 1022
427 1026
427 1039
427 1073
427 1147
427 1258
427 1372
427 1434
427 1442
427 1480
427 1518
427 1566
427 1567
427 1580
427 1602
427 1684
427 1779
427 1854
427 1862
427 1890
427 1903
427 1916
427 1922
427 1947
427 2019
427 2054
427 2215
428 447
428 506
428 640
428 660
428 674
428 743
428 841
428 958
428 960
428 1025
428 1074
428 1088
428 1160
428 1163
428 1406
428 1421
428 1422
428 1425
428 1475
428 1514
428 1568
428 1581
428 1606
428 1646
428 1665
428 1696
428 1724
428 1731
428 1781
428 1807
428 1827
428 1831
428 1943
428 1997
428 2098
428 2121
428 2165
428 2185
428 2202
428 2220
429 442
429 443
429 448
429 490
429 510
429 536
429 537
429 548
429 586
429 594
429 633
429 649
429 654
429 671
429 678
429 682
429 741
429 759
429 781
429 801
429 867
429 905
429 919
429 977
429 981
429 1005
429 1006
429 1009
429 1010
429 1017
429 1056
429 1066
429 1103
429 1121
429 1241
429 1254
429 1266
429 1270
429 1298
429 1304
429 1328
429 1333
429 1338
429 1347
429 1354
429 1357
429 1358
429 1370
429 1377
429 1384
429 1390
429 1403
429 1405
429 1414
429 1422
429 1441
429 1452
429 1457
429 1470
429 1486
429 1489
429 1493
429 1517
429 1519
429 1536
429 1561
429 1567
429 1570
429 1646
429 1669
429 1712
429 1717
429 1726
429 1738
429 1795
429 1796
429 1809
429 1820
429 1846
429 1861
429 1930
429 1935
429 1937
429 1966
429 1967
429 1974
429 2035
429 2045
429 2075
429 2087
429 2188
429 2227
430 512
430 544
430 593
430 694
430 750
430 791
430 912
430 924
430 1038
430 1070
430 1194
430 1196
430 1231
430 1240
430 1291
430 1308
430 1475
430 1539
430 1606
430 1619
430 1737
430 1799
430 1844
430 1973
430 2039
430 2053
430 2100
430 2184
431 549
431 617
431 631
431 675
431 907
431 909
431 914
431 918
431 1128
431 1264
431 1289
431 1397
431 1532
431 1667
431 1999
432 462
432 596
432 632
432 647
432 712
432 785
432 792
432 807
432 850
432 927
432 938
432 984
432 987
432 988
432 1082
432 1140
432 1164
432 1172
432 1291
432 1308
432 1341
432 1380
432 1386
432 1475
432 1492
432 1495
432 1498
432 1534
432 1571
432 1582
432 1595
432 1602
432 1623
432 1636
432 1698
432 1702
432 1718
432 1743
432 1760
432 1793
432 1804
432 1824
432 1903
432 1904
432 2028
432 2033
432 2081
432 2138
432 2158
432 2175
432 2196
432 2217
432 2221
433 469
433 500
433 573
433 623
433 624
433 660
433 764
433 852
433 867
433 878
433 900
433 1019
433 1127
433 1186
433 1212
433 1364
433 1372
433 1538
433 1558
433 1559
433 1569
433 1646
433 1771
433 1938
433 1974
433 2113
433 2174
433 2221
434 461
434 482
434 513
434 531
434 585
434 593
434 598
434 616
434 634
434 637
434 664
434 697
434 707
434 711
434 727
434 781
434 835
434 863
434 866
434 966
434 969
434 999
434 1020
434 1023
434 1042
434 1102
434 1105
434 1141
434 1307
434 1320
434 1341
434 1344
434 1404
434 1411
434 1422
434 1425
434 1456
434 1500
434 1506
434 1514
434 1585
434 1602
434 1606
434 1612
434 1626
434 1635
434 1646
434 1664
434 1667
434 1702
434 1708
434 1717
434 1721
434 1768
434 1844
434 1918
434 1929
434 1953
434 2001
434 2002
434 2005
434 2049
434 2075
434 2091
434 2112
434 2158
434 2204
434 2210
435 627
435 720
435 841
435 1689
435 1727
435 1808
436 438
436 451
436 460
436 512
436 530
436 554
436 593
436 625
436 643
436 697
436 725
436 786
436 806
436 876
436 886
436 901
436 917
436 926
436 988
436 1013
436 1018
436 1034
436 1049
436 1106
436 1117
436 1145
436 1153
436 1189
436 1191
436 1221
436 1233
436 1251
436 1368
436 1422
436 1449
436 1501
436 1539
436 1558
436 1585
436 1638
436 1644
436 1646
436 1812
436 1816
436 1829
436 1843
436 1852
436 1908
436 1951
436 1952
436 1962
436 1963
436 2027
436 2050
436 2120
436 2157
436 2182
436 2194
437 472
437 512
437 662
437 1494
437 1760
437 1824
438 441
438 514
438 596
438 644
438 671
438 697
438 743
438 798
438 811
438 816
438 856
438 973
438 977
438 998
438 1031
438 1060
438 1086
438 1147
438 1198
438 1211
438 1216
438 1237
438 1322
438 1330
438 1403
438 1417
438 1420
438 1483
438 1610
438 1673
438 1744
438 1812
438 1814
438 1823
438 2056
438 2070
438 2092
438 2123
438 2229
439 446
439 506
439 628
439 810
439 870
439 889
439 1022
439 1089
439 1115
439 1185
439 1187
439 1371
439 1450
439 1474
439 1558
439 1705
439 1750
439 1779
439 1808
439 1854
439 2101
440 1263
440 1893
441 447
441 463
441 471
441 529
441 550
441 636
441 688
441 697
441 716
441 722
441 778
441 816
441 851
441 856
441 903
441 942
441 973
441 977
441 998
441 1107
441 1134
441 1157
441 1211
441 1307
441 1330
441 1357
441 1370
441 1380
441 1388
441 1414
441 1417
441 1483
441 1511
441 1556
441 1569
441 1591
441 1638
441 1640
441 1680
441 1721
441 1732
441 1767
441 1771
441 1803
441 1810
441 1899
441 1905
441 1999
441 2031
441 2043
441 2070
441 2092
441 2154
441 2165
441 2208
441 2228
442 453
442 533
442 840
442 902
442 1158
442 1616
442 1722
442 1809
442 1902
442 1959
442 2069
442 2089
442 2159
442 2203
443 476
443 490
443 534
443 548
443 586
443 600
443 628
443 649
443 654
443 697
443 704
443 741
443 742
443 801
443 867
443 897
443 905
443 1004
443 1066
443 1067
443 1096
443 1123
443 1171
443 1259
443 1298
443 1358
443 1377
443 1384
443 1390
443 1486
443 1493
443 1502
443 1517
443 1519
443 1558
443 1564
443 1567
443 1609
443 1669
443 1671
443 1712
443 1726
443 1750
443 1784
443 1795
443 1796
443 1805
443 1820
443 1861
443 1880
443 1886
443 1930
443 1943
443 1948
443 1957
443 1974
443 2076
443 2161
443 2164
444 486
444 495
444 503
444 651
444 672
444 806
444 847
444 1000
444 1320
444 1363
444 1426
444 1585
444 1602
444 1618
444 1804
444 1900
444 1904
444 2173
444 2175
445 518
445 609
445 641
445 642
445 798
445 923
445 957
445 1071
445 1248
445 1297
445 1374
445 1468
446 449
446 464
446 506
446 512
446 543
446 632
446 643
446 769
446 817
446 825
446 870
446 927
446 984
446 989
446 1047
446 1055
446 1180
446 1196
446 1272
446 1341
446 1371
446 1382
446 1396
446 1426
446 1448
446 1529
446 1558
446 1578
446 1627
446 1667
446 1702
446 1739
446 1745
446 1807
446 1829
446 1929
446 1976
446 1993
446 2014
446 2026
446 2028
446 2033
446 2039
446 2081
446 2113
446 2196
447 468
447 508
447 512
447 543
447 544
447 558
447 559
447 580
447 593
447 598
447 605
447 612
447 662
447 708
447 718
447 754
447 800
447 816
447 843
447 851
447 886
447 913
447 914
447 924
447 942
447 948
447 952
447 967
447 989
447 998
447 1015
447 1025
447 1026
447 1047
447 1070
447 1090
447 1102
447 1152
447 1175
447 1185
447 1189
447 1192
447 1211
447 1252
447 1255
447 1310
447 1320
447 1328
447 1341
447 1347
447 1387
447 1411
447 1417
447 1434
447 1474
447 1475
447 1514
447 1563
447 1568
447 1583
447 1591
447 1612
447 1646
447 1650
447 1658
447 1672
447 1687
447 1699
447 1710
447 1713
447 1721
447 1724
447 1744
447 1781
447 1799
447 1804
447 1819
447 1827
447 1852
447 1875
447 1896
447 1901
447 1940
447 1989
447 1999
447 2026
447 2028
447 2033
447 2043
447 2049
447 2070
447 2121
447 2158
447 2165
447 2168
447 2174
447 2182
447 2204
447 2206
447 2207
447 2226
448 476
448 502
448 511
448 548
448 556
448 565
448 586
448 628
448 643
448 656
448 664
448 702
448 704
448 712
448 750
448 763
448 834
448 882
448 883
448 945
448 949
448 979
448 1000
448 1002
448 1006
448 1028
448 1072
448 1092
448 1096
448 1112
448 1123
448 1126
448 1171
448 1185
448 1187
448 1191
448 1250
448 1281
448 1303
448 1342
448 1365
448 1371
448 1377
448 1387
448 1422
448 1450
448 1457
448 1486
448 1489
448 1518
448 1663
448 1677
448 1687
448 1695
448 1700
448 1713
448 1733
448 1747
448 1750
448 1777
448 1779
448 1818
448 1820
448 1836
448 1854
448 1859
448 1861
448 1869
448 1923
448 1930
448 1935
448 1948
448 1955
448 1966
448 1971
448 1974
448 1976
448 1982
448 1987
448 2039
448 2059
448 2136
448 2163
448 2223
449 464
449 486
449 512
449 543
449 591
449 605
449 657
449 659
449 662
449 717
449 718
449 794
449 835
449 851
449 927
449 984
449 1047
449 1126
449 1138
449 1146
449 1177
449 1180
449 1243
449 1275
449 1340
449 1408
449 1421
449 1475
449 1500
449 1514
449 1543
449 1574
449 1635
449 1664
449 1713
449 1717
449 1739
449 1816
449 1874
449 1887
449 2028
449 2033
449 2100
449 2210
450 899
450 963
450 1318
450 2135
451 456
451 497
451 530
451 625
451 665
451 672
451 678
451 694
451 740
451 782
451 836
451 841
451 844
451 860
451 876
451 926
451 988
451 1036
451 1052
451 1060
451 1098
451 1101
451 1145
451 1152
451 1199
451 1201
451 1247
451 1252
451 1320
451 1341
451 1403
451 1435
451 1446
451 1492
451 1556
451 1579
451 1581
451 1599
451 1635
451 1638
451 1680
451 1899
451 1977
451 1980
451 1999
451 2031
451 2050
451 2175
451 2204
451 2217
452 631
452 653
452 692
452 728
452 729
452 892
452 990
452 1092
452 1250
452 1603
452 1621
452 1700
452 1711
452 1716
452 1843
452 2116
453 533
453 599
453 609
453 671
453 820
453 1575
453 1616
453 1642
453 1722
453 1806
453 2069
454 508
454 780
454 905
454 1084
454 1287
454 1351
454 1384
454 1420
454 1496
454 2125
455 579
455 631
455 658
455 680
455 690
455 744
455 845
455 863
455 893
455 934
455 996
455 1029
455 1069
455 1113
455 1141
455 1263
455 1310
455 1315
455 1392
455 1394
455 1529
455 1653
455 1745
455 1833
455 1836
455 1893
455 1929
455 2052
455 2190
456 583
456 634
456 635
456 651
456 677
456 678
456 743
456 789
456 814
456 842
456 844
456 850
456 860
456 952
456 1015
456 1036
456 1050
456 1052
456 1079
456 1088
456 1098
456 1124
456 1128
456 1152
456 1160
456 1218
456 1238
456 1247
456 1252
456 1277
456 1341
456 1366
456 1368
456 1386
456 1410
456 1416
456 1434
456 1449
456 1456
456 1492
456 1534
456 1556
456 1581
456 1595
456 1618
456 1638
456 1654
456 1702
456 1724
456 1731
456 1797
456 1804
456 1823
456 1904
456 1920
456 1999
456 2028
456 2078
456 2089
456 2149
456 2175
456 2206
456 2220
456 2229
457 795
457 1282
457 2048
457 2058
458 1142
459 600
459 729
459 849
459 859
459 892
459 972
459 1022
459 1030
459 1259
459 1442
459 1621
459 1867
459 1947
459 2164
460 467
460 503
460 530
460 555
460 577
460 653
460 671
460 677
460 714
460 729
460 752
460 815
460 836
460 869
460 911
460 926
460 932
460 947
460 974
460 988
460 998
460 1015
460 1025
460 1030
460 1043
460 1050
460 1055
460 1060
460 1070
460 1083
460 1088
460 1097
460 1101
460 1106
460 1147
460 1185
460 1208
460 1247
460 1323
460 1333
460 1335
460 1341
460 1368
460 1370
460 1372
460 1403
460 1436
460 1499
460 1549
460 1606
460 1611
460 1626
460 1638
460 1714
460 1725
460 1771
460 1780
460 1792
460 1799
460 1830
460 1831
460 1868
460 1904
460 1918
460 1965
460 1967
460 1976
460 1981
460 2025
460 2068
460 2098
460 2127
460 2132
460 2139
460 2142
460 2164
460 2194
460 2204
460 2220
460 2226
461 468
461 482
461 579
461 653
461 664
461 711
461 781
461 814
461 827
461 863
461 900
461 924
461 937
461 966
461 1042
461 1101
461 1125
461 1128
461 1141
461 1239
461 1316
461 1320
461 1384
461 1439
461 1506
461 1512
461 1582
461 1637
461 1638
461 1719
461 1745
461 1911
461 1942
461 1964
461 2148
461 2158
462 476
462 536
462 537
462 628
462 660
462 752
462 792
462 819
462 859
462 873
462 939
462 986
462 1022
462 1028
462 1123
462 1127
462 1185
462 1231
462 1286
462 1371
462 1384
462 1387
462 1437
462 1445
462 1493
462 1669
462 1930
462 1974
462 2116
462 2131
462 2181
462 2221
463 466
463 477
463 514
463 516
463 521
463 528
463 560
463 571
463 592
463 597
463 612
463 626
463 654
463 671
463 682
463 689
463 691
463 731
463 735
463 785
463 837
463 851
463 862
463 867
463 903
463 932
463 942
463 943
463 992
463 1025
463 1045
463 1067
463 1096
463 1124
463 1142
463 1145
463 1157
463 1164
463 1166
463 1172
463 1179
463 1198
463 1199
463 1283
463 1298
463 1299
463 1312
463 1322
463 1330
463 1348
463 1357
463 1361
463 1370
463 1388
463 1422
463 1453
463 1457
463 1489
463 1514
463 1536
463 1560
463 1561
463 1592
463 1605
463 1622
463 1624
463 1682
463 1685
463 1734
463 1762
463 1763
463 1764
463 1796
463 1801
463 1823
463 1860
463 1865
463 1919
463 1934
463 1957
463 1967
463 1970
463 2010
463 2011
463 2044
463 2055
463 2056
463 2070
463 2073
463 2076
463 2093
463 2125
463 2144
463 2154
463 2197
463 2207
463 2228
464 552
464 593
464 629
464 667
464 767
464 772
464 843
464 924
464 984
464 1021
464 1042
464 1059
464 1066
464 1072
464 1080
464 1097
464 1114
464 1128
464 1138
464 1151
464 1163
464 1185
464 1235
464 1259
464 1329
464 1340
464 1399
464 1408
464 1410
464 1426
464 1454
464 1464
464 1469
464 1472
464 1475
464 1486
464 1518
464 1535
464 1568
464 1589
464 1596
464 1674
464 1699
464 1713
464 1717
464 1878
464 1903
464 1916
464 1918
464 1966
464 1967
464 1974
464 2039
464 2049
464 2081
464 2102
464 2121
464 2145
464 2174
464 2180
465 516
465 540
465 558
465 589
465 631
465 632
465 664
465 674
465 761
465 770
465 777
465 794
465 816
465 834
465 882
465 887
465 920
465 980
465 987
465 992
465 1000
465 1018
465 1040
465 1050
465 1063
465 1077
465 1114
465 1127
465 1145
465 1147
465 1184
465 1235
465 1362
465 1366
465 1368
465 1373
465 1387
465 1391
465 1431
465 1433
465 1450
465 1472
465 1500
465 1518
465 1541
465 1547
465 1588
465 1596
465 1602
465 1667
465 1668
465 1747
465 1781
465 1799
465 1819
465 1856
465 1872
465 1907
465 1915
465 1918
465 1921
465 2038
465 2053
465 2064
465 2068
465 2080
465 2108
465 2132
465 2139
465 2163
465 2168
465 2173
465 2174
465 2209
465 2220
466 521
466 528
466 548
466 560
466 612
466 654
466 677
466 689
466 701
466 735
466 739
466 759
466 785
466 822
466 828
466 829
466 836
466 851
466 868
466 911
466 916
466 1001
466 1010
466 1015
466 1062
466 1124
466 1145
466 1273
466 1330
466 1380
466 1427
466 1439
466 1460
466 1479
466 1534
466 1668
466 1682
466 1794
466 1795
466 1831
466 1870
466 1894
466 1951
466 1967
466 1970
466 2013
466 2086
466 2133
466 2138
466 2154
466 2164
467 542
467 631
467 834
467 1128
467 1194
467 1539
467 1566
467 1815
467 1906
467 1922
468 481
468 511
468 524
468 531
468 578
468 580
468 598
468 599
468 605
468 616
468 622
468 629
468 634
468 637
468 665
468 667
468 678
468 690
468 711
468 744
468 753
468 760
468 769
468 781
468 800
468 814
468 827
468 847
468 900
468 924
468 929
468 932
468 944
468 966
468 969
468 984
468 999
468 1020
468 1023
468 1029
468 1030
468 1065
468 1084
468 1097
468 1101
468 1102
468 1105
468 1125
468 1127
468 1138
468 1141
468 1162
468 1163
468 1210
468 1226
468 1239
468 1240
468 1257
468 1262
468 1268
468 1274
468 1316
468 1320
468 1325
468 1341
468 1343
468 1347
468 1352
468 1399
468 1411
468 1422
468 1426
468 1439
468 1443
468 1446
468 1464
468 1490
468 1506
468 1512
468 1538
468 1578
468 1585
468 1598
468 1623
468 1626
468 1635
468 1638
468 1653
468 1659
468 1666
468 1667
468 1672
468 1676
468 1697
468 1699
468 1702
468 1704
468 1717
468 1718
468 1745
468 1750
468 1751
468 1753
468 1757
468 1799
468 1844
468 1890
468 1898
468 1907
468 1914
468 1916
468 1918
468 1928
468 1929
468 1942
468 1953
468 1964
468 1972
468 1976
468 1989
468 1997
468 2033
468 2039
468 2112
468 2118
468 2121
468 2132
468 2148
468 2158
469 624
469 628
469 633
469 653
469 665
469 716
469 729
469 746
469 766
469 792
469 875
469 895
469 900
469 937
469 987
469 1116
469 1138
469 1186
469 1195
469 1204
469 1412
469 1442
469 1465
469 1491
469 1631
469 1714
469 1841
469 1854
469 1867
469 1880
469 1894
469 1915
469 1949
469 1957
469 2024
469 2104
469 2116
469 2148
470 610
470 783
470 808
470 821
470 872
470 923
470 1161
470 2057
471 678
471 833
471 894
471 903
471 942
471 1062
471 1130
471 1145
471 1216
471 1307
471 1322
471 1370
471 1388
471 1622
471 1671
471 1763
471 1934
471 2010
471 2055
471 2056
471 2129
471 2154
471 2197
472 486
472 700
472 863
472 1347
472 1375
472 1494
472 1606
472 1875
472 2109
473 537
473 538
473 633
473 667
473 699
473 832
473 867
473 875
473 878
473 1149
473 1273
473 1309
473 1367
473 1491
473 1493
473 1541
473 1556
473 1558
473 1639
473 1679
473 1725
473 1735
473 1750
473 1776
473 1778
473 1792
473 1876
473 1896
473 1907
473 1916
473 1928
473 1940
473 1948
473 1983
473 2024
473 2045
473 2064
473 2107
473 2111
473 2116
474 1290
474 1632
475 511
475 512
475 531
475 544
475 559
475 585
475 590
475 596
475 643
475 661
475 662
475 699
475 724
475 744
475 768
475 823
475 834
475 854
475 882
475 899
475 912
475 945
475 1002
475 1105
475 1119
475 1130
475 1151
475 1159
475 1194
475 1233
475 1262
475 1286
475 1305
475 1316
475 1366
475 1439
475 1464
475 1483
475 1494
475 1523
475 1606
475 1619
475 1664
475 1702
475 1760
475 1799
475 1816
475 1819
475 1843
475 1862
475 1893
475 2049
475 2088
475 2089
475 2119
475 2163
475 2189
475 2194
475 2209
476 497
476 519
476 536
476 548
476 556
476 565
476 582
476 586
476 589
476 607
476 622
476 623
476 628
476 633
476 653
476 660
476 716
476 751
476 819
476 841
476 844
476 873
476 885
476 889
476 895
476 900
476 906
476 924
476 986
476 990
476 1002
476 1010
476 1014
476 1017
476 1019
476 1028
476 1044
476 1058
476 1070
476 1092
476 1112
476 1121
476 1123
476 1171
476 1172
476 1236
476 1268
476 1377
476 1384
476 1394
476 1401
476 1405
476 1418
476 1438
476 1442
476 1445
476 1477
476 1487
476 1503
476 1508
476 1509
476 1517
476 1519
476 1552
476 1567
476 1596
476 1603
476 1626
476 1631
476 1639
476 1669
476 1670
476 1677
476 1700
476 1712
476 1784
476 1808
476 1820
476 1841
476 1861
476 1935
476 1936
476 1947
476 1948
476 1949
476 1966
476 1972
476 1974
476 1982
476 1988
476 1997
476 2010
476 2104
476 2111
476 2113
476 2129
476 2164
476 2168
477 514
477 571
477 587
477 594
477 737
477 874
477 939
477 1004
477 1137
477 1145
477 1147
477 1178
477 1202
477 1270
477 1322
477 1364
477 1384
477 1433
477 1538
477 1559
477 1561
477 1569
477 1578
477 1615
477 1763
477 1771
477 1994
477 2016
477 2121
477 2154
477 2207
477 2228
478 502
478 565
478 623
478 633
478 723
478 878
478 938
478 953
478 987
478 1017
478 1030
478 1044
478 1125
478 1127
478 1162
478 1172
478 1249
478 1257
478 1318
478 1401
478 1418
478 1439
478 1442
478 1480
478 1486
478 1487
478 1490
478 1538
478 1594
478 1639
478 1648
478 1667
478 1674
478 1716
478 1777
478 1784
478 1808
478 1849
478 1854
478 1857
478 1880
478 1904
478 1935
478 1940
478 1948
478 1949
478 2007
478 2087
478 2104
478 2111
478 2125
478 2131
478 2148
478 2150
478 2188
479 484
479 900
479 963
479 1043
479 1153
479 1246
479 1304
479 1312
479 1432
479 1438
479 1730
479 1813
479 1907
479 2131
479 2150
480 609
480 799
480 911
480 1279
480 1432
480 1619
480 1682
480 1762
480 2164
481 482
481 744
481 863
481 910
481 966
481 989
481 1316
481 1506
481 1507
481 1571
481 1667
481 1978
482 511
482 531
482 556
482 579
482 585
482 598
482 621
482 638
482 643
482 661
482 664
482 730
482 754
482 760
482 768
482 814
482 823
482 847
482 913
482 935
482 978
482 999
482 1020
482 1023
482 1026
482 1029
482 1105
482 1106
482 1113
482 1184
482 1196
482 1227
482 1239
482 1262
482 1320
482 1341
482 1382
482 1384
482 1422
482 1424
482 1443
482 1444
482 1446
482 1507
482 1512
482 1518
482 1584
482 1596
482 1626
482 1637
482 1659
482 1661
482 1663
482 1667
482 1676
482 1698
482 1699
482 1704
482 1725
482 1728
482 1739
482 1753
482 1806
482 1813
482 1819
482 1823
482 1844
482 1855
482 1878
482 1890
482 1893
482 1898
482 1903
482 1914
482 1928
482 1929
482 1953
482 1957
482 1964
482 1975
482 1976
482 1994
482 2019
482 2033
482 2098
482 2103
482 2109
482 2110
482 2118
482 2132
482 2174
482 2184
482 2227
483 520
483 679
483 1154
483 1188
483 1295
483 1866
483 2030
483 2065
483 2069
484 569
484 613
484 624
484 799
484 841
484 862
484 892
484 931
484 963
484 1002
484 1153
484 1279
484 1304
484 1309
484 1314
484 1338
484 1432
484 1438
484 1445
484 1457
484 1705
484 1730
484 1776
484 1854
484 1907
484 2054
484 2064
484 2156
485 609
485 695
485 964
485 1161
485 1521
485 1720
486 542
486 558
486 593
486 603
486 662
486 670
486 673
486 675
486 693
486 718
486 810
486 826
486 854
486 945
486 954
486 968
486 989
486 1065
486 1128
486 1167
486 1177
486 1217
486 1233
486 1258
486 1271
486 1274
486 1305
486 1422
486 1475
486 1554
486 1606
486 1618
486 1709
486 1756
486 1819
486 1844
486 1886
486 1904
486 1944
486 2010
486 2062
486 2091
486 2209
486 2232
487 525
487 599
487 638
487 641
487 695
487 820
487 911
487 923
487 960
487 965
487 1009
487 1120
487 1228
487 1244
487 1266
487 1276
487 1278
487 1295
487 1528
487 1559
487 1633
487 1648
487 1651
487 1692
487 1770
487 1828
487 1845
487 1846
487 1866
487 1894
487 1910
487 1941
487 1979
487 2082
487 2096
487 2130
487 2169
487 2203
488 593
488 614
488 631
488 668
488 754
488 771
488 935
488 945
488 968
488 1100
488 1165
488 1194
488 1233
488 1263
488 1303
488 1366
488 1423
488 1426
488 1461
488 1464
488 1518
488 1542
488 1551
488 1554
488 1568
488 1598
488 1659
488 1665
488 1704
488 1710
488 1781
488 1783
488 1799
488 1833
488 1881
488 1912
488 1984
488 1993
488 2033
488 2049
488 2098
488 2118
488 2184
489 539
489 918
490 492
490 510
490 516
490 528
490 534
490 536
490 556
490 560
490 579
490 589
490 594
490 600
490 625
490 691
490 741
490 785
490 812
490 813
490 849
490 868
490 869
490 876
490 897
490 905
490 911
490 916
490 939
490 953
490 981
490 1004
490 1006
490 1010
490 1015
490 1022
490 1045
490 1062
490 1066
490 1096
490 1102
490 1103
490 1105
490 1124
490 1145
490 1147
490 1149
490 1164
490 1178
490 1179
490 1259
490 1298
490 1312
490 1333
490 1372
490 1384
490 1405
490 1427
490 1432
490 1457
490 1493
490 1509
490 1519
490 1523
490 1534
490 1596
490 1605
490 1609
490 1620
490 1622
490 1668
490 1669
490 1712
490 1726
490 1792
490 1795
490 1819
490 1844
490 1857
490 1865
490 1883
490 1894
490 1899
490 1935
490 1936
490 1965
490 1967
490 1974
490 1989
490 1994
490 2011
490 2050
490 2096
490 2133
490 2138
490 2143
490 2227
491 533
491 609
491 641
491 732
491 758
491 856
491 923
491 1024
491 1054
491 1154
491 1213
491 1249
491 1505
491 1530
491 1575
491 1682
491 1800
491 1828
491 1866
491 1962
491 2097
491 2105
491 2169
492 527
492 534
492 563
492 594
492 734
492 869
492 886
492 905
492 911
492 916
492 937
492 939
492 1019
492 1219
492 1259
492 1312
492 1364
492 1384
492 1438
492 1493
492 1559
492 1569
492 1771
492 1883
492 1899
492 1974
492 1994
492 2188
492 2221
493 671
493 724
493 777
493 1047
493 1320
493 1606
493 2205
494 760
494 810
494 893
494 1059
494 1250
494 1340
494 1422
494 1689
494 1706
494 1733
494 1782
494 1815
494 1835
494 1837
494 1843
494 1987
494 1993
495 608
495 614
495 629
495 631
495 651
495 673
495 819
495 967
495 1209
495 1250
495 1325
495 1329
495 1389
495 1393
495 1423
495 1491
495 1520
495 1529
495 1590
495 1659
495 1695
495 1704
495 1921
495 1953
495 1984
495 2046
495 2167
495 2189
495 2190
496 576
496 631
496 670
496 834
496 844
496 980
496 1340
496 1566
496 1696
496 1855
496 1922
496 1932
496 1944
496 1969
496 2041
496 2231
497 506
497 515
497 530
497 624
497 625
497 643
497 697
497 716
497 740
497 777
497 806
497 841
497 870
497 899
497 913
497 917
497 963
497 986
497 988
497 1000
497 1013
497 1034
497 1046
497 1106
497 1129
497 1145
497 1153
497 1155
497 1191
497 1221
497 1251
497 1371
497 1373
497 1403
497 1435
497 1449
497 1475
497 1523
497 1635
497 1644
497 1646
497 1680
497 1829
497 1843
497 1908
497 1952
497 1963
497 1997
497 2031
497 2064
497 2096
497 2120
498 605
498 613
498 659
498 670
498 674
498 681
498 748
498 756
498 767
498 1000
498 1128
498 1289
498 1406
498 1524
498 1699
498 1724
498 1757
498 1900
498 1944
498 2041
498 2099
498 2231
499 739
499 747
499 851
499 1392
499 1481
499 1565
499 1686
499 1739
499 1793
499 1806
499 1814
499 2159
500 573
500 578
500 623
500 624
500 633
500 658
500 660
500 751
500 852
500 858
500 937
500 1133
500 1183
500 1186
500 1312
500 1464
500 1465
500 1697
500 1818
500 1880
500 1939
500 2174
501 764
501 827
501 863
501 2071
502 508
502 556
502 565
502 569
502 605
502 622
502 640
502 643
502 658
502 660
502 664
502 677
502 720
502 743
502 746
502 823
502 827
502 855
502 863
502 866
502 897
502 906
502 911
502 931
502 951
502 986
502 1018
502 1028
502 1089
502 1113
502 1115
502 1116
502 1129
502 1172
502 1185
502 1191
502 1196
502 1204
502 1221
502 1231
502 1240
502 1241
502 1251
502 1285
502 1333
502 1387
502 1401
502 1402
502 1439
502 1450
502 1465
502 1477
502 1480
502 1486
502 1606
502 1658
502 1667
502 1670
502 1677
502 1699
502 1719
502 1776
502 1808
502 1829
502 1852
502 1854
502 1857
502 1861
502 1872
502 1915
502 1940
502 1982
502 1988
502 2039
502 2049
502 2113
502 2116
502 2132
502 2164
502 2165
502 2168
502 2216
503 571
503 596
503 635
503 648
503 665
503 672
503 684
503 694
503 714
503 730
503 743
503 752
503 754
503 797
503 806
503 947
503 952
503 1000
503 1015
503 1059
503 1124
503 1232
503 1238
503 1341
503 1406
503 1410
503 1436
503 1524
503 1576
503 1581
503 1618
503 1623
503 1626
503 1629
503 1635
503 1778
503 1794
503 1904
503 1957
503 1977
503 2093
503 2098
503 2158
504 599
504 957
504 1633
505 562
505 601
505 609
505 641
505 732
505 797
505 898
505 918
505 959
505 1104
505 1110
505 1313
505 1385
505 1466
505 1766
505 1828
505 1926
505 1998
505 2105
506 511
506 542
506 552
506 587
506 625
506 704
506 715
506 716
506 760
506 769
506 804
506 819
506 823
506 843
506 859
506 870
506 873
506 889
506 911
506 917
506 931
506 951
506 955
506 971
506 984
506 986
506 1055
506 1067
506 1081
506 1089
506 1123
506 1135
506 1172
506 1185
506 1231
506 1272
506 1324
506 1371
506 1382
506 1387
506 1396
506 1402
506 1465
506 1467
506 1480
506 1626
506 1674
506 1690
506 1725
506 1745
506 1776
506 1777
506 1779
506 1819
506 1829
506 1854
506 1867
506 1872
506 1916
506 1939
506 1983
506 2014
506 2049
506 2072
506 2081
506 2113
506 2116
506 2163
507 598
507 674
507 753
507 756
507 817
507 1138
507 1243
507 1258
507 1475
507 1514
507 1563
507 1635
507 1802
507 1890
507 1900
507 2039
507 2109
507 2121
508 511
508 512
508 528
508 530
508 541
508 556
508 558
508 570
508 585
508 593
508 597
508 598
508 605
508 611
508 613
508 627
508 640
508 653
508 656
508 659
508 662
508 665
508 668
508 670
508 677
508 688
508 693
508 694
508 696
508 697
508 701
508 707
508 720
508 724
508 731
508 748
508 759
508 773
508 777
508 780
508 804
508 806
508 836
508 849
508 860
508 880
508 886
508 897
508 914
508 924
508 935
508 942
508 945
508 948
508 954
508 958
508 967
508 981
508 983
508 989
508 1015
508 1020
508 1025
508 1026
508 1034
508 1056
508 1057
508 1077
508 1086
508 1101
508 1109
508 1126
508 1144
508 1146
508 1153
508 1165
508 1189
508 1190
508 1198
508 1223
508 1246
508 1262
508 1266
508 1269
508 1274
508 1277
508 1289
508 1299
508 1307
508 1310
508 1320
508 1326
508 1330
508 1335
508 1338
508 1341
508 1347
508 1351
508 1357
508 1366
508 1375
508 1384
508 1397
508 1415
508 1420
508 1422
508 1425
508 1434
508 1444
508 1446
508 1467
508 1484
508 1494
508 1496
508 1497
508 1499
508 1504
508 1506
508 1529
508 1534
508 1541
508 1556
508 1568
508 1574
508 1578
508 1583
508 1585
508 1599
508 1602
508 1606
508 1607
508 1610
508 1618
508 1622
508 1626
508 1628
508 1638
508 1646
508 1658
508 1659
508 1661
508 1667
508 1684
508 1699
508 1700
508 1710
508 1713
508 1721
508 1754
508 1769
508 1779
508 1794
508 1796
508 1804
508 1812
508 1813
508 1819
508 1823
508 1827
508 1831
508 1834
508 1843
508 1852
508 1889
508 1900
508 1903
508 1911
508 1932
508 1940
508 1943
508 1951
508 1961
508 1983
508 1984
508 1994
508 2005
508 2008
508 2010
508 2045
508 2049
508 2059
508 2075
508 2080
508 2098
508 2099
508 2103
508 2110
508 2121
508 2124
508 2125
508 2136
508 2141
508 2168
508 2181
508 2189
508 2226
508 2230
509 516
509 531
509 540
509 631
509 667
509 748
509 770
509 781
509 868
509 882
509 887
509 920
509 1018
509 1040
509 1059
509 1063
509 1077
509 1090
509 1114
509 1235
509 1362
509 1368
509 1373
509 1425
509 1500
509 1518
509 1588
509 1626
509 1663
509 1699
509 1702
509 1709
509 1735
509 1799
509 1916
509 2008
509 2041
509 2062
509 2092
509 2093
510 534
510 557
510 654
510 660
510 772
510 852
510 867
510 905
510 916
510 937
510 938
510 939
510 963
510 1004
510 1030
510 1096
510 1121
510 1137
510 1178
510 1195
510 1241
510 1253
510 1312
510 1364
510 1372
510 1470
510 1569
510 1615
510 1639
510 1726
510 1771
510 1883
510 1930
510 1936
510 1974
510 2143
510 2150
510 2188
510 2218
510 2221
511 542
511 556
511 613
511 616
511 634
511 637
511 643
511 653
511 664
511 665
511 689
511 690
511 693
511 702
511 704
511 710
511 720
511 728
511 729
511 735
511 744
511 769
511 823
511 843
511 851
511 855
511 863
511 870
511 886
511 912
511 966
511 967
511 999
511 1019
511 1038
511 1042
511 1055
511 1065
511 1090
511 1101
511 1113
511 1116
511 1172
511 1185
511 1196
511 1233
511 1235
511 1239
511 1240
511 1316
511 1320
511 1366
511 1371
511 1378
511 1382
511 1431
511 1448
511 1456
511 1464
511 1467
511 1498
511 1506
511 1507
511 1512
511 1541
511 1547
511 1571
511 1578
511 1629
511 1653
511 1659
511 1667
511 1672
511 1698
511 1699
511 1702
511 1708
511 1710
511 1713
511 1739
511 1751
511 1753
511 1781
511 1799
511 1818
511 1819
511 1843
511 1844
511 1875
511 1878
511 1890
511 1918
511 1929
511 1953
511 1955
511 1963
511 1971
511 1976
511 1987
511 1993
511 2014
511 2026
511 2033
511 2034
511 2038
511 2049
511 2062
511 2148
511 2158
511 2161
511 2173
512 521
512 523
512 542
512 544
512 546
512 568
512 570
512 590
512 593
512 596
512 608
512 612
512 618
512 631
512 632
512 651
512 662
512 687
512 696
512 710
512 713
512 724
512 731
512 749
512 754
512 789
512 817
512 823
512 825
512 826
512 851
512 870
512 880
512 882
512 903
512 935
512 945
512 954
512 989
512 1021
512 1029
512 1038
512 1047
512 1077
512 1096
512 1100
512 1102
512 1109
512 1119
512 1126
512 1138
512 1141
512 1156
512 1180
512 1194
512 1214
512 1217
512 1233
512 1243
512 1271
512 1274
512 1275
512 1296
512 1310
512 1316
512 1347
512 1415
512 1439
512 1475
512 1494
512 1514
512 1525
512 1529
512 1554
512 1571
512 1576
512 1596
512 1599
512 1600
512 1602
512 1606
512 1610
512 1629
512 1645
512 1652
512 1663
512 1680
512 1704
512 1710
512 1717
512 1739
512 1756
512 1789
512 1799
512 1819
512 1869
512 1898
512 1912
512 2012
512 2018
512 2022
512 2028
512 2046
512 2049
512 2053
512 2075
512 2090
512 2109
512 2120
512 2121
512 2171
512 2177
512 2196
512 2202
512 2209
512 2217
512 2227
512 2228
513 590
513 677
513 696
513 847
513 969
513 1097
513 1293
513 1382
513 1464
513 1475
513 1491
513 1585
513 1598
513 1612
513 1635
513 1676
513 1694
513 1718
513 1900
513 2021
514 528
514 548
514 579
514 585
514 592
514 639
514 671
514 682
514 709
514 719
514 742
514 780
514 785
514 814
514 822
514 833
514 851
514 862
514 867
514 874
514 876
514 887
514 911
514 941
514 942
514 973
514 993
514 994
514 1004
514 1006
514 1041
514 1042
514 1045
514 1051
514 1087
514 1093
514 1101
514 1103
514 1118
514 1130
514 1137
514 1145
514 1164
514 1190
514 1199
514 1214
514 1267
514 1298
514 1304
514 1305
514 1320
514 1361
514 1380
514 1390
514 1414
514 1433
514 1453
514 1460
514 1462
514 1489
514 1496
514 1504
514 1513
514 1561
514 1570
514 1580
514 1592
514 1610
514 1622
514 1624
514 1656
514 1671
514 1682
514 1724
514 1806
514 1814
514 1838
514 1860
514 1863
514 1864
514 1865
514 1899
514 1957
514 1970
514 2008
514 2013
514 2047
514 2056
514 2065
514 2129
514 2149
514 2154
514 2164
514 2187
514 2204
514 2208
514 2227
514 2228
514 2229
515 532
515 543
515 558
515 581
515 590
515 616
515 632
515 639
515 643
515 665
515 685
515 693
515 694
515 713
515 727
515 826
515 830
515 870
515 969
515 1080
515 1098
515 1101
515 1109
515 1120
515 1163
515 1194
515 1240
515 1291
515 1305
515 1406
515 1411
515 1446
515 1464
515 1475
515 1514
515 1534
515 1554
515 1563
515 1571
515 1600
515 1604
515 1627
515 1629
515 1688
515 1721
515 1793
515 1804
515 1807
515 1816
515 1920
515 1997
515 2018
515 2028
515 2196
516 540
516 552
516 609
516 691
516 734
516 752
516 816
516 876
516 887
516 911
516 920
516 992
516 1001
516 1006
516 1037
516 1067
516 1077
516 1124
516 1179
516 1312
516 1333
516 1338
516 1362
516 1370
516 1422
516 1472
516 1479
516 1559
516 1588
516 1668
516 1682
516 1794
516 1795
516 1899
516 1974
516 2008
516 2053
516 2062
516 2092
516 2108
516 2144
516 2174
517 574
517 902
517 908
517 1024
517 1053
517 1132
517 1242
517 1244
517 1452
517 1501
517 1515
517 1625
517 1642
517 1770
517 1788
517 2203
518 551
518 584
518 599
518 645
518 669
518 733
518 755
518 840
518 1228
518 1248
518 1295
518 1355
518 1468
518 1647
518 1720
518 1809
518 1825
518 1866
518 1908
518 2000
518 2030
518 2036
518 2060
518 2066
518 2138
518 2157
518 2200
519 661
519 967
519 1002
519 1196
519 1367
519 1843
519 2168
520 522
520 599
520 641
520 669
520 725
520 797
520 805
520 820
520 901
520 939
520 970
520 1007
520 1172
520 1261
520 1295
520 1388
520 1441
520 1463
520 1683
520 1787
520 1866
520 1980
520 2040
520 2060
520 2065
520 2069
520 2105
520 2115
520 2129
520 2176
520 2207
520 2213
521 571
521 587
521 597
521 626
521 654
521 689
521 874
521 1152
521 1164
521 1460
521 1570
521 1624
521 1671
521 1757
521 1801
521 1899
521 2008
521 2013
521 2149
521 2207
521 2228
522 532
522 946
522 956
522 1261
522 1313
522 1686
522 1806
523 662
523 834
523 882
523 914
523 962
523 1036
523 1117
523 1217
523 1756
523 1826
523 1834
523 1879
524 590
524 629
524 639
524 665
524 687
524 713
524 756
524 919
524 1000
524 1102
524 1246
524 1256
524 1339
524 1343
524 1426
524 1464
524 1514
524 1577
524 1596
524 1600
524 1635
524 1652
524 1708
524 1721
524 1822
524 1879
524 1983
524 1989
524 1997
524 2021
524 2112
525 599
525 609
525 953
525 960
525 1244
525 1249
525 1457
525 1515
525 1651
525 1894
526 548
526 562
526 758
526 788
526 848
526 879
526 905
526 933
526 1009
526 1278
526 1528
526 1536
526 1746
526 1828
526 1868
526 1960
527 534
527 538
527 573
527 658
527 852
527 867
527 900
527 905
527 937
527 1127
527 1186
527 1212
527 1219
527 1372
527 1487
527 1491
527 1538
527 1569
527 1771
527 1994
527 2125
527 2174
527 2188
527 2221
528 593
528 605
528 612
528 734
528 785
528 841
528 851
528 876
528 886
528 1026
528 1062
528 1080
528 1124
528 1145
528 1198
528 1241
528 1254
528 1287
528 1291
528 1351
528 1361
528 1380
528 1422
528 1432
528 1506
528 1556
528 1559
528 1602
528 1605
528 1640
528 1668
528 1682
528 1699
528 1713
528 1724
528 1734
528 1738
528 1831
528 1899
528 1934
528 1994
528 1999
528 2082
528 2125
528 2133
528 2149
528 2187
528 2207
528 2228
529 532
529 543
529 550
529 617
529 685
529 694
529 716
529 836
529 880
529 919
529 970
529 1025
529 1252
529 1327
529 1335
529 1342
529 1344
529 1435
529 1449
529 1484
529 1499
529 1544
529 1611
529 1679
529 1709
529 1721
529 1734
529 1785
529 1804
529 1826
529 1831
529 1920
529 1940
529 1996
529 1999
529 2028
529 2049
529 2091
529 2141
529 2148
529 2206
529 2208
530 554
530 559
530 593
530 624
530 693
530 740
530 794
530 882
530 926
530 944
530 966
530 987
530 988
530 1013
530 1034
530 1106
530 1129
530 1191
530 1214
530 1220
530 1221
530 1251
530 1368
530 1464
530 1465
530 1475
530 1505
530 1544
530 1591
530 1635
530 1797
530 1852
530 1900
530 1908
530 1955
530 1977
530 2021
530 2027
530 2031
530 2033
530 2101
530 2120
530 2157
530 2182
530 2196
531 598
531 605
531 637
531 653
531 658
531 664
531 752
531 768
531 769
531 781
531 870
531 932
531 999
531 1023
531 1026
531 1042
531 1090
531 1101
531 1105
531 1113
531 1127
531 1151
531 1193
531 1232
531 1240
531 1262
531 1382
531 1399
531 1456
531 1490
531 1507
531 1523
531 1600
531 1617
531 1618
531 1623
531 1638
531 1667
531 1699
531 1708
531 1717
531 1725
531 1792
531 1819
531 1844
531 1881
531 1896
531 1898
531 1900
531 1918
531 1929
531 1953
531 1964
531 1975
531 1989
531 2033
531 2112
531 2148
531 2163
531 2168
532 617
532 637
532 672
532 678
532 685
532 705
532 712
532 747
532 815
532 836
532 841
532 860
532 890
532 909
532 946
532 969
532 970
532 1015
532 1035
532 1052
532 1057
532 1060
532 1088
532 1140
532 1166
532 1193
532 1218
532 1258
532 1291
532 1320
532 1368
532 1392
532 1416
532 1420
532 1553
532 1578
532 1586
532 1611
532 1613
532 1636
532 1667
532 1679
532 1702
532 1713
532 1804
532 1826
532 1849
532 1903
532 1907
532 1920
532 1996
532 2001
532 2039
532 2049
532 2148
532 2175
532 2184
532 2221
532 2228
533 562
533 609
533 622
533 725
533 840
533 848
533 902
533 957
533 1009
533 1018
533 1082
533 1144
533 1172
533 1278
533 1295
533 1476
533 1505
533 1557
533 1575
533 1642
533 1748
533 1809
533 1846
533 1873
533 1933
533 1937
533 1941
533 2157
533 2213
534 557
534 564
534 569
534 594
534 660
534 721
534 751
534 852
534 853
534 867
534 868
534 869
534 905
534 916
534 937
534 938
534 939
534 951
534 973
534 981
534 1004
534 1019
534 1121
534 1127
534 1133
534 1149
534 1178
534 1202
534 1219
534 1257
534 1259
534 1284
534 1299
534 1332
534 1358
534 1372
534 1377
534 1384
534 1390
534 1405
534 1465
534 1470
534 1487
534 1536
534 1569
534 1637
534 1639
534 1719
534 1726
534 1771
534 1795
534 1796
534 1865
534 1883
534 1931
534 1935
534 1939
534 2007
534 2093
534 2150
534 2174
534 2218
534 2228
535 538
535 556
535 608
535 613
535 631
535 653
535 656
535 729
535 766
535 771
535 810
535 849
535 935
535 986
535 1034
535 1069
535 1097
535 1234
535 1239
535 1250
535 1257
535 1268
535 1303
535 1439
535 1516
535 1583
535 1590
535 1596
535 1646
535 1674
535 1677
535 1843
535 1857
535 1875
535 1929
535 2054
535 2139
535 2163
535 2193
536 628
536 660
536 730
536 801
536 844
536 869
536 883
536 885
536 943
536 1017
536 1066
536 1089
536 1092
536 1096
536 1124
536 1127
536 1172
536 1185
536 1266
536 1281
536 1309
536 1324
536 1335
536 1384
536 1445
536 1567
536 1579
536 1605
536 1631
536 1677
536 1761
536 1820
536 1861
536 1901
536 1904
536 1915
536 1958
536 1966
536 2087
536 2116
536 2131
536 2163
537 628
537 649
537 654
537 1066
537 1121
537 1377
537 1493
537 1633
537 1712
537 1784
537 1841
537 1930
537 1943
537 1974
538 556
538 565
538 573
538 613
538 617
538 624
538 633
538 656
538 699
538 704
538 723
538 766
538 812
538 852
538 858
538 863
538 867
538 878
538 885
538 900
538 929
538 937
538 986
538 987
538 1028
538 1039
538 1040
538 1046
538 1089
538 1092
538 1121
538 1123
538 1127
538 1133
538 1135
538 1136
538 1212
538 1253
538 1257
538 1259
538 1260
538 1309
538 1318
538 1371
538 1401
538 1418
538 1438
538 1442
538 1476
538 1487
538 1508
538 1509
538 1531
538 1596
538 1599
538 1666
538 1670
538 1714
538 1750
538 1784
538 1804
538 1843
538 1849
538 1854
538 1857
538 1861
538 1876
538 1896
538 1915
538 1928
538 1936
538 1938
538 1939
538 1940
538 1947
538 1948
538 1949
538 1955
538 1982
538 1997
538 2007
538 2026
538 2034
538 2049
538 2054
538 2072
538 2096
538 2116
538 2158
538 2162
538 2174
538 2181
538 2188
538 2201
538 2208
539 575
539 610
539 663
539 755
539 757
539 961
539 1012
539 1032
539 1161
539 1215
539 1248
539 1346
539 1356
539 1360
539 1385
539 1468
539 1557
539 1809
539 1853
539 1978
539 2060
539 2069
539 2178
540 600
540 658
540 660
540 674
540 693
540 697
540 707
540 730
540 763
540 770
540 777
540 792
540 812
540 816
540 868
540 869
540 875
540 882
540 887
540 920
540 937
540 987
540 1003
540 1006
540 1015
540 1028
540 1036
540 1040
540 1050
540 1063
540 1070
540 1072
540 1077
540 1089
540 1114
540 1133
540 1135
540 1149
540 1172
540 1195
540 1201
540 1211
540 1217
540 1235
540 1314
540 1323
540 1324
540 1339
540 1362
540 1368
540 1406
540 1422
540 1433
540 1489
540 1491
540 1492
540 1536
540 1538
540 1588
540 1602
540 1607
540 1626
540 1638
540 1644
540 1658
540 1666
540 1667
540 1668
540 1669
540 1670
540 1690
540 1696
540 1713
540 1714
540 1716
540 1754
540 1755
540 1784
540 1797
540 1804
540 1830
540 1862
540 1928
540 1972
540 2007
540 2008
540 2014
540 2023
540 2029
540 2034
540 2045
540 2054
540 2062
540 2064
540 2080
540 2087
540 2107
540 2108
540 2127
540 2131
540 2142
540 2144
540 2145
540 2156
540 2158
540 2174
540 2202
540 2206
540 2220
541 677
541 874
541 887
541 1347
541 1504
541 1557
541 1676
541 1961
542 544
542 552
542 558
542 593
542 597
542 616
542 632
542 643
542 659
542 662
542 693
542 754
542 781
542 825
542 850
542 870
542 876
542 910
542 932
542 967
542 980
542 989
542 1004
542 1023
542 1055
542 1079
542 1126
542 1135
542 1144
542 1185
542 1190
542 1194
542 1271
542 1378
542 1391
542 1448
542 1529
542 1554
542 1571
542 1578
542 1606
542 1661
542 1680
542 1698
542 1739
542 1779
542 1819
542 1869
542 1976
542 1977
542 2026
542 2033
542 2038
542 2081
542 2109
542 2165
542 2171
542 2184
542 2189
542 2190
542 2209
542 2232
543 583
543 589
543 593
543 596
543 598
543 605
543 617
543 632
543 637
543 639
543 640
543 662
543 730
543 753
543 760
543 800
543 817
543 841
543 886
543 935
543 958
543 984
543 996
543 1065
543 1090
543 1098
543 1125
543 1163
543 1175
543 1189
543 1247
543 1305
543 1341
543 1352
543 1368
543 1436
543 1475
543 1499
543 1514
543 1583
543 1604
543 1611
543 1627
543 1635
543 1672
543 1708
543 1724
543 1793
543 1797
543 1804
543 1900
543 1920
543 1923
543 1929
543 1964
543 1989
543 2018
543 2026
543 2028
543 2046
543 2081
543 2091
543 2100
543 2103
543 2118
543 2121
543 2196
543 2221
544 558
544 613
544 643
544 659
544 662
544 693
544 851
544 854
544 945
544 996
544 1038
544 1047
544 1065
544 1070
544 1106
544 1126
544 1231
544 1233
544 1240
544 1271
544 1303
544 1308
544 1326
544 1366
544 1382
544 1391
544 1431
544 1475
544 1518
544 1547
544 1554
544 1571
544 1574
544 1610
544 1629
544 1667
544 1680
544 1687
544 1737
544 1739
544 1848
544 1869
544 2038
544 2049
544 2081
544 2121
544 2165
544 2171
544 2185
544 2189
544 2196
544 2209
545 949
545 1185
545 1695
545 1858
546 558
546 593
546 612
546 632
546 637
546 662
546 713
546 828
546 850
546 945
546 989
546 1035
546 1047
546 1109
546 1169
546 1411
546 1494
546 1554
546 1578
546 1606
546 1610
546 1612
546 1629
546 1677
546 1717
546 1760
546 1764
546 1804
546 1824
546 1848
546 1875
546 1993
546 2033
546 2049
546 2081
546 2190
547 568
547 631
547 670
547 769
547 835
547 847
547 963
547 1000
547 1018
547 1084
547 1145
547 1256
547 1325
547 1368
547 1408
547 1524
547 1596
547 1644
547 1699
547 1708
547 1713
547 1776
547 1855
547 1859
547 1976
547 2049
547 2061
547 2119
547 2193
548 560
548 569
548 573
548 580
548 587
548 594
548 597
548 612
548 613
548 615
548 617
548 624
548 643
548 649
548 654
548 656
548 665
548 666
548 735
548 742
548 744
548 851
548 863
548 867
548 868
548 876
548 886
548 887
548 897
548 905
548 910
548 924
548 926
548 942
548 953
548 973
548 981
548 983
548 984
548 986
548 987
548 994
548 1001
548 1004
548 1005
548 1006
548 1010
548 1015
548 1055
548 1056
548 1067
548 1083
548 1090
548 1103
548 1124
548 1134
548 1142
548 1145
548 1147
548 1149
548 1173
548 1184
548 1185
548 1192
548 1202
548 1219
548 1241
548 1270
548 1283
548 1298
548 1304
548 1312
548 1332
548 1333
548 1338
548 1342
548 1358
548 1361
548 1368
548 1403
548 1405
548 1418
548 1422
548 1432
548 1442
548 1443
548 1469
548 1470
548 1489
548 1493
548 1507
548 1509
548 1517
548 1519
548 1527
548 1535
548 1536
548 1557
548 1571
548 1602
548 1605
548 1607
548 1622
548 1639
548 1671
548 1702
548 1745
548 1750
548 1771
548 1795
548 1796
548 1820
548 1830
548 1854
548 1868
548 1898
548 1904
548 1930
548 1931
548 1933
548 1935
548 1938
548 1943
548 1951
548 1957
548 1965
548 1967
548 1970
548 1974
548 1976
548 1977
548 2011
548 2026
548 2039
548 2047
548 2054
548 2059
548 2076
548 2093
548 2107
548 2149
548 2164
548 2174
548 2181
548 2188
548 2202
548 2227
549 675
549 754
549 882
549 1263
549 1305
549 1392
549 1488
549 1832
549 1834
550 636
550 716
550 829
550 876
550 887
550 1001
550 1045
550 1087
550 1152
550 1420
550 1427
550 1602
550 1605
550 1664
550 1721
550 1794
550 1899
550 1920
550 1961
550 1986
550 2133
551 609
551 669
551 736
551 797
551 848
551 856
551 957
551 1024
551 1094
551 1154
551 1213
551 1244
551 1313
551 1355
551 1374
551 1458
551 1476
551 1647
551 1720
551 1723
551 1804
551 1825
551 2010
551 2030
551 2097
551 2130
551 2155
552 587
552 625
552 735
552 819
552 926
552 931
552 981
552 997
552 1004
552 1068
552 1089
552 1121
552 1135
552 1155
552 1172
552 1185
552 1241
552 1259
552 1304
552 1333
552 1371
552 1384
552 1387
552 1390
552 1399
552 1448
552 1453
552 1457
552 1465
552 1467
552 1486
552 1502
552 1517
552 1519
552 1523
552 1536
552 1626
552 1661
552 1662
552 1796
552 1805
552 1871
552 1903
552 1930
552 1935
552 1967
552 1977
552 2014
552 2034
552 2076
552 2144
553 609
553 645
553 732
553 755
553 965
553 1314
553 1356
553 1359
553 1458
553 1476
553 1528
553 1601
553 1620
553 1771
553 1845
553 2096
553 2157
553 2207
554 609
554 694
554 732
554 786
554 806
554 926
554 957
554 988
554 1154
554 1242
554 1244
554 1295
554 1441
554 1459
554 1557
554 1638
554 1648
554 1821
554 1846
554 1868
554 1908
554 1926
554 1977
554 2031
554 2105
554 2133
554 2157
555 577
555 718
555 766
555 935
555 1120
555 1250
555 1303
555 1434
555 1576
555 1604
555 1634
555 1661
555 1711
555 1857
555 2090
555 2098
555 2139
555 2145
555 2189
555 2223
556 617
556 624
556 633
556 643
556 656
556 678
556 702
556 707
556 720
556 729
556 746
556 804
556 806
556 819
556 835
556 886
556 924
556 931
556 932
556 937
556 958
556 968
556 981
556 987
556 1011
556 1019
556 1022
556 1030
556 1039
556 1042
556 1058
556 1065
556 1112
556 1133
556 1183
556 1231
556 1238
556 1239
556 1258
556 1259
556 1268
556 1310
556 1312
556 1326
556 1384
556 1457
556 1480
556 1506
556 1509
556 1518
556 1523
556 1534
556 1546
556 1578
556 1615
556 1639
556 1646
556 1667
556 1672
556 1687
556 1699
556 1777
556 1795
556 1799
556 1808
556 1813
556 1818
556 1819
556 1843
556 1867
556 1876
556 1915
556 1929
556 1936
556 1943
556 1994
556 1997
556 2011
556 2038
556 2045
556 2054
556 2150
556 2168
556 2189
556 2209
556 2226
557 563
557 569
557 660
557 841
557 867
557 868
557 916
557 939
557 1127
557 1137
557 1147
557 1178
557 1202
557 1294
557 1312
557 1332
557 1405
557 1457
557 1493
557 1536
557 1615
557 1670
557 1771
557 1883
557 1931
557 1935
557 1957
557 1994
557 2221
558 593
558 611
558 613
558 616
558 631
558 662
558 693
558 696
558 863
558 899
558 945
558 967
558 989
558 1106
558 1115
558 1125
558 1141
558 1233
558 1320
558 1382
558 1391
558 1554
558 1571
558 1606
558 1610
558 1629
558 1667
558 1710
558 1717
558 1739
558 1754
558 1799
558 1844
558 1921
558 1929
558 1993
558 2033
558 2038
558 2109
558 2174
558 2177
558 2196
558 2209
558 2232
559 579
559 590
559 620
559 622
559 683
559 702
559 712
559 749
559 772
559 794
559 834
559 987
559 997
559 1052
559 1073
559 1083
559 1160
559 1162
559 1184
559 1192
559 1201
559 1220
559 1413
559 1442
559 1472
559 1490
559 1535
559 1552
559 1577
559 1589
559 1653
559 1658
559 1677
559 1733
559 1735
559 1797
559 1823
559 1852
559 1860
559 1907
559 1940
559 2039
559 2068
559 2080
559 2103
559 2180
559 2181
560 600
560 613
560 626
560 697
560 707
560 712
560 734
560 735
560 742
560 777
560 792
560 804
560 806
560 816
560 834
560 839
560 868
560 876
560 887
560 911
560 916
560 943
560 980
560 997
560 1000
560 1001
560 1005
560 1010
560 1017
560 1026
560 1056
560 1062
560 1066
560 1077
560 1086
560 1087
560 1124
560 1134
560 1145
560 1149
560 1172
560 1217
560 1235
560 1259
560 1287
560 1298
560 1313
560 1351
560 1361
560 1373
560 1408
560 1418
560 1425
560 1427
560 1432
560 1457
560 1479
560 1524
560 1534
560 1535
560 1556
560 1584
560 1607
560 1668
560 1707
560 1726
560 1738
560 1794
560 1812
560 1825
560 1831
560 1838
560 1904
560 1905
560 1911
560 1935
560 1965
560 1981
560 1994
560 1997
560 2016
560 2045
560 2084
560 2093
560 2114
560 2125
560 2136
560 2145
560 2149
560 2150
560 2165
560 2181
560 2197
560 2202
560 2228
561 571
561 872
561 918
561 2207
562 734
562 745
562 797
562 820
562 848
562 1110
562 1118
562 1545
562 1548
562 1561
562 1699
562 1746
562 1828
562 1846
562 1849
562 1919
562 1954
562 1998
562 2048
562 2094
562 2105
563 573
563 855
563 859
563 863
563 905
563 906
563 1116
563 1127
563 1178
563 1212
563 1219
563 1569
563 1615
563 1637
563 1791
563 1818
563 2007
563 2188
563 2221
564 573
564 594
564 600
564 658
564 660
564 937
564 1028
564 1069
564 1133
564 1136
564 1183
564 1212
564 1219
564 1253
564 1256
564 1257
564 1270
564 1364
564 1372
564 1438
564 1456
564 1490
564 1538
564 1615
564 1726
564 1804
564 1939
564 2148
564 2174
565 633
565 653
565 656
565 664
565 723
565 729
565 852
565 855
565 897
565 900
565 911
565 931
565 937
565 986
565 1014
565 1030
565 1046
565 1123
565 1128
565 1241
565 1371
565 1382
565 1438
565 1442
565 1465
565 1480
565 1490
565 1567
565 1596
565 1648
565 1674
565 1677
565 1861
565 1915
565 1966
565 2116
565 2125
565 2137
565 2164
566 723
566 965
566 1016
566 1030
566 1337
566 1438
566 1515
566 1762
566 1843
566 2131
566 2164
566 2200
567 614
567 1255
567 1843
567 2067
568 587
568 598
568 657
568 670
568 703
568 715
568 761
568 769
568 870
568 924
568 1000
568 1023
568 1042
568 1059
568 1101
568 1128
568 1160
568 1172
568 1196
568 1378
568 1396
568 1408
568 1422
568 1450
568 1464
568 1489
568 1529
568 1626
568 1644
568 1916
568 1918
568 1929
568 1939
568 1976
568 2014
568 2037
568 2041
568 2049
568 2061
568 2091
568 2119
568 2120
568 2158
568 2184
568 2190
569 612
569 624
569 708
569 741
569 742
569 789
569 799
569 804
569 868
569 973
569 1055
569 1149
569 1153
569 1259
569 1300
569 1304
569 1353
569 1361
569 1384
569 1437
569 1438
569 1442
569 1489
569 1513
569 1519
569 1567
569 1622
569 1639
569 1726
569 1796
569 1805
569 1813
569 1931
569 1935
569 1947
569 1951
569 1997
569 2011
569 2013
569 2093
569 2131
569 2150
569 2164
569 2188
569 2206
570 574
570 651
570 655
570 662
570 778
570 841
570 886
570 1079
570 1109
570 1117
570 1120
570 1163
570 1209
570 1310
570 1347
570 1422
570 1488
570 1529
570 1610
570 1661
570 1667
570 1702
570 1797
570 1819
570 1834
570 1901
570 2005
570 2016
570 2018
570 2125
570 2165
570 2189
570 2190
570 2220
571 587
571 596
571 597
571 612
571 626
571 654
571 656
571 671
571 678
571 684
571 691
571 785
571 828
571 833
571 837
571 851
571 903
571 905
571 942
571 998
571 1004
571 1008
571 1057
571 1103
571 1118
571 1137
571 1149
571 1160
571 1162
571 1164
571 1199
571 1267
571 1270
571 1284
571 1300
571 1304
571 1330
571 1332
571 1348
571 1361
571 1388
571 1414
571 1422
571 1432
571 1496
571 1513
571 1560
571 1561
571 1568
571 1570
571 1602
571 1607
571 1624
571 1646
571 1663
571 1744
571 1763
571 1794
571 1823
571 1831
571 1832
571 1838
571 1860
571 1911
571 1925
571 1929
571 1934
571 1970
571 2008
571 2016
571 2043
571 2047
571 2065
571 2076
571 2086
571 2129
571 2142
571 2149
571 2154
571 2173
571 2197
571 2207
571 2228
572 643
572 702
572 720
572 967
572 1023
572 1257
572 1268
572 1439
572 1529
572 1621
572 1660
572 1909
572 2190
573 616
573 623
573 628
573 634
573 658
573 660
573 664
573 707
573 744
573 752
573 764
573 792
573 844
573 852
573 855
573 858
573 863
573 866
573 869
573 878
573 900
573 916
573 929
573 937
573 939
573 951
573 987
573 1003
573 1019
573 1040
573 1050
573 1101
573 1112
573 1133
573 1136
573 1137
573 1162
573 1178
573 1186
573 1187
573 1195
573 1199
573 1204
573 1212
573 1219
573 1236
573 1256
573 1257
573 1309
573 1341
573 1372
573 1384
573 1387
573 1396
573 1418
573 1438
573 1439
573 1465
573 1487
573 1509
573 1512
573 1538
573 1544
573 1559
573 1615
573 1620
573 1626
573 1637
573 1638
573 1662
573 1669
573 1675
573 1690
573 1697
573 1698
573 1699
573 1743
573 1750
573 1771
573 1791
573 1804
573 1811
573 1872
573 1883
573 1885
573 1920
573 1938
573 1939
573 1948
573 1949
573 1955
573 1957
573 1964
573 1999
573 2049
573 2068
573 2104
573 2111
573 2132
573 2150
573 2158
573 2174
573 2188
573 2208
573 2218
573 2221
574 575
574 609
574 610
574 734
574 961
574 964
574 1060
574 1064
574 1146
574 1163
574 1265
574 1274
574 1295
574 1297
574 1458
574 1633
574 2164
575 609
575 795
575 805
575 1161
575 1224
575 1297
575 1357
575 1530
575 1742
575 1770
575 2029
575 2058
575 2178
576 591
576 629
576 638
576 659
576 767
576 824
576 1021
576 1055
576 1059
576 1128
576 1152
576 1454
576 1535
576 1543
576 1566
576 1645
576 1646
576 1826
576 1840
576 1855
576 1892
576 1900
576 1904
576 1932
576 1993
576 2026
576 2145
576 2167
576 2219
576 2231
577 596
577 631
577 707
577 712
577 714
577 730
577 765
577 804
577 823
577 843
577 844
577 886
577 926
577 927
577 955
577 1033
577 1035
577 1055
577 1090
577 1098
577 1113
577 1162
577 1172
577 1208
577 1217
577 1256
577 1262
577 1341
577 1368
577 1416
577 1436
577 1492
577 1544
577 1590
577 1599
577 1602
577 1606
577 1623
577 1626
577 1638
577 1654
577 1696
577 1731
577 1797
577 1804
577 1834
577 1840
577 1903
577 1904
577 1918
577 2045
577 2049
577 2054
577 2122
577 2158
577 2202
577 2206
577 2220
578 677
578 1252
578 1460
578 1630
578 1717
578 2158
579 589
579 599
579 612
579 634
579 637
579 639
579 640
579 643
579 661
579 664
579 711
579 744
579 752
579 754
579 769
579 781
579 812
579 827
579 828
579 847
579 863
579 866
579 899
579 924
579 932
579 942
579 966
579 996
579 999
579 1029
579 1035
579 1084
579 1098
579 1101
579 1102
579 1105
579 1113
579 1125
579 1141
579 1147
579 1153
579 1155
579 1162
579 1196
579 1199
579 1232
579 1277
579 1316
579 1320
579 1333
579 1382
579 1384
579 1399
579 1411
579 1422
579 1438
579 1446
579 1490
579 1492
579 1498
579 1506
579 1514
579 1538
579 1541
579 1564
579 1581
579 1582
579 1588
579 1600
579 1623
579 1624
579 1630
579 1646
579 1650
579 1656
579 1667
579 1699
579 1702
579 1708
579 1717
579 1721
579 1725
579 1743
579 1804
579 1810
579 1819
579 1823
579 1843
579 1844
579 1849
579 1851
579 1856
579 1860
579 1865
579 1896
579 1898
579 1907
579 1912
579 1918
579 1940
579 1951
579 1957
579 1964
579 1989
579 2033
579 2049
579 2068
579 2084
579 2107
579 2148
579 2156
579 2164
579 2168
579 2204
579 2220
580 587
580 593
580 603
580 653
580 658
580 711
580 720
580 724
580 744
580 761
580 771
580 772
580 781
580 834
580 843
580 863
580 866
580 917
580 974
580 1001
580 1018
580 1039
580 1055
580 1072
580 1102
580 1184
580 1189
580 1192
580 1298
580 1299
580 1320
580 1333
580 1347
580 1366
580 1372
580 1390
580 1407
580 1446
580 1457
580 1469
580 1474
580 1535
580 1578
580 1600
580 1634
580 1646
580 1658
580 1667
580 1702
580 1710
580 1713
580 1733
580 1739
580 1760
580 1804
580 1894
580 1898
580 1900
580 1914
580 1916
580 1918
580 1921
580 1957
580 1972
580 1984
580 2007
580 2011
580 2046
580 2049
580 2054
580 2099
580 2139
580 2146
580 2148
580 2170
580 2174
580 2206
580 2220
581 631
581 750
581 1144
581 1185
581 1233
581 1240
581 1271
581 1444
581 1539
581 1687
581 1713
581 1855
581 2119
581 2184
582 631
582 772
582 799
582 810
582 849
582 889
582 1022
582 1030
582 1039
582 1230
582 1268
582 1367
582 1471
582 1477
582 1487
582 1516
582 1621
582 1705
582 1779
582 1808
582 1843
582 1854
582 1857
582 1881
582 1921
582 1982
583 659
583 749
583 927
583 1120
583 1180
583 1192
583 1499
583 1595
583 1699
583 1701
583 1724
583 1877
583 1950
583 1987
583 2091
583 2220
584 609
584 733
584 757
584 959
584 1287
584 1463
584 1608
584 1962
585 596
585 599
585 612
585 626
585 637
585 653
585 688
585 759
585 780
585 781
585 804
585 814
585 837
585 847
585 851
585 867
585 983
585 1062
585 1084
585 1101
585 1102
585 1125
585 1130
585 1149
585 1151
585 1162
585 1262
585 1299
585 1307
585 1320
585 1330
585 1384
585 1420
585 1427
585 1463
585 1464
585 1483
585 1490
585 1499
585 1506
585 1512
585 1513
585 1544
585 1606
585 1607
585 1622
585 1646
585 1676
585 1702
585 1717
585 1753
585 1760
585 1769
585 1806
585 1814
585 1823
585 1860
585 1864
585 1898
585 1899
585 1963
585 1970
585 2008
585 2049
585 2073
585 2076
585 2089
585 2125
585 2138
585 2149
585 2179
585 2199
585 2228
586 628
586 704
586 716
586 873
586 986
586 1017
586 1096
586 1115
586 1116
586 1123
586 1185
586 1191
586 1221
586 1250
586 1251
586 1259
586 1377
586 1402
586 1442
586 1445
586 1480
586 1527
586 1552
586 1567
586 1609
586 1669
586 1674
586 1725
586 1750
586 1784
586 1808
586 1820
586 1843
586 1854
586 1861
586 1868
586 1935
586 1948
586 1962
586 1966
586 1982
586 1983
586 2165
587 597
587 612
587 617
587 626
587 704
587 715
587 719
587 828
587 833
587 847
587 851
587 870
587 876
587 931
587 932
587 939
587 943
587 993
587 994
587 1063
587 1067
587 1080
587 1089
587 1114
587 1137
587 1155
587 1172
587 1179
587 1185
587 1219
587 1241
587 1254
587 1267
587 1270
587 1299
587 1304
587 1332
587 1333
587 1361
587 1378
587 1384
587 1387
587 1396
587 1457
587 1460
587 1462
587 1467
587 1470
587 1513
587 1536
587 1561
587 1580
587 1582
587 1624
587 1644
587 1661
587 1743
587 1763
587 1779
587 1794
587 1796
587 1801
587 1899
587 1911
587 1916
587 1929
587 1935
587 1951
587 1976
587 1997
587 2014
587 2016
587 2047
587 2113
587 2121
587 2144
587 2145
587 2207
587 2228
588 1978
589 624
589 714
589 792
589 804
589 826
589 942
589 973
589 1002
589 1015
589 1026
589 1043
589 1072
589 1098
589 1102
589 1147
589 1149
589 1153
589 1155
589 1172
589 1189
589 1232
589 1341
589 1368
589 1384
589 1432
589 1438
589 1450
589 1452
589 1523
589 1582
589 1653
589 1673
589 1705
589 1784
589 1792
589 1804
589 1805
589 1813
589 1844
589 1847
589 1881
589 1896
589 1907
589 1985
589 1989
589 2131
589 2188
589 2208
589 2221
590 617
590 665
590 677
590 687
590 726
590 731
590 747
590 754
590 817
590 847
590 914
590 936
590 966
590 969
590 989
590 1035
590 1052
590 1151
590 1175
590 1189
590 1199
590 1252
590 1256
590 1277
590 1291
590 1310
590 1343
590 1425
590 1454
590 1464
590 1474
590 1475
590 1481
590 1494
590 1495
590 1514
590 1539
590 1545
590 1598
590 1611
590 1627
590 1699
590 1819
590 1840
590 1844
590 1879
590 1900
590 1903
590 2021
590 2028
590 2033
590 2091
590 2121
590 2167
590 2196
590 2217
590 2222
591 605
591 802
591 824
591 835
591 841
591 1080
591 1128
591 1238
591 1243
591 1404
591 1473
591 1500
591 1526
591 1556
591 1612
591 1664
591 1694
591 1718
591 1768
591 1816
591 1840
591 1874
591 1879
591 1887
591 2122
591 2210
591 2231
592 597
592 626
592 654
592 677
592 759
592 833
592 874
592 897
592 903
592 942
592 981
592 983
592 1004
592 1006
592 1045
592 1057
592 1103
592 1134
592 1137
592 1147
592 1164
592 1211
592 1219
592 1266
592 1267
592 1298
592 1330
592 1333
592 1351
592 1361
592 1384
592 1388
592 1403
592 1414
592 1417
592 1460
592 1462
592 1561
592 1570
592 1580
592 1605
592 1607
592 1624
592 1762
592 1796
592 1801
592 1823
592 1860
592 1863
592 1886
592 1951
592 2016
592 2076
592 2125
592 2149
592 2227
592 2228
593 598
593 614
593 616
593 617
593 625
593 631
593 640
593 643
593 659
593 668
593 681
593 693
593 697
593 711
593 715
593 718
593 724
593 740
593 746
593 761
593 763
593 802
593 806
593 807
593 825
593 830
593 841
593 854
593 866
593 876
593 910
593 913
593 917
593 924
593 926
593 932
593 935
593 947
593 954
593 958
593 966
593 967
593 987
593 988
593 989
593 991
593 1000
593 1013
593 1018
593 1020
593 1034
593 1038
593 1042
593 1049
593 1055
593 1070
593 1099
593 1100
593 1101
593 1102
593 1106
593 1117
593 1120
593 1129
593 1144
593 1145
593 1146
593 1170
593 1187
593 1221
593 1233
593 1240
593 1251
593 1255
593 1277
593 1289
593 1308
593 1319
593 1329
593 1347
593 1362
593 1366
593 1375
593 1390
593 1392
593 1403
593 1425
593 1435
593 1444
593 1446
593 1449
593 1457
593 1464
593 1475
593 1482
593 1484
593 1499
593 1506
593 1507
593 1516
593 1518
593 1527
593 1535
593 1539
593 1544
593 1571
593 1574
593 1598
593 1604
593 1634
593 1638
593 1665
593 1667
593 1674
593 1680
593 1702
593 1713
593 1717
593 1739
593 1777
593 1779
593 1780
593 1799
593 1812
593 1819
593 1843
593 1849
593 1855
593 1867
593 1900
593 1921
593 1963
593 1972
593 1976
593 1977
593 1984
593 1987
593 1997
593 2001
593 2007
593 2028
593 2033
593 2045
593 2046
593 2050
593 2054
593 2062
593 2075
593 2080
593 2081
593 2091
593 2096
593 2098
593 2100
593 2102
593 2103
593 2112
593 2145
593 2148
593 2150
593 2165
593 2173
593 2182
593 2206
593 2209
593 2228
593 2230
594 660
594 682
594 739
594 741
594 851
594 905
594 916
594 939
594 1005
594 1041
594 1045
594 1056
594 1127
594 1186
594 1214
594 1219
594 1338
594 1357
594 1364
594 1370
594 1372
594 1470
594 1489
594 1509
594 1538
594 1560
594 1569
594 1646
594 1684
594 1699
594 1771
594 1894
594 1911
594 1930
594 1943
594 2010
594 2143
594 2197
594 2216
594 2218
594 2221
595 609
595 645
595 923
595 965
595 1168
595 1190
595 1244
595 1249
595 1273
595 1276
595 1295
595 1312
595 1476
595 1527
595 1546
595 1628
595 1633
595 1736
595 1828
595 1866
595 1880
595 1891
595 1894
595 2000
595 2027
595 2066
595 2094
595 2183
595 2186
596 606
596 608
596 616
596 617
596 638
596 639
596 648
596 653
596 677
596 711
596 713
596 778
596 814
596 823
596 841
596 844
596 850
596 851
596 860
596 880
596 914
596 924
596 948
596 956
596 966
596 1101
596 1107
596 1119
596 1130
596 1147
596 1149
596 1151
596 1152
596 1160
596 1237
596 1238
596 1240
596 1252
596 1262
596 1320
596 1341
596 1386
596 1411
596 1427
596 1483
596 1544
596 1554
596 1556
596 1565
596 1589
596 1591
596 1595
596 1602
596 1606
596 1611
596 1612
596 1622
596 1635
596 1641
596 1650
596 1676
596 1702
596 1717
596 1781
596 1806
596 1810
596 1816
596 1851
596 1856
596 1874
596 1892
596 1950
596 1951
596 1963
596 1989
596 1996
596 2028
596 2033
596 2052
596 2056
596 2081
596 2089
596 2129
596 2194
596 2196
596 2217
596 2221
596 2226
597 612
597 626
597 677
597 691
597 709
597 719
597 828
597 834
597 836
597 837
597 851
597 862
597 874
597 876
597 887
597 980
597 993
597 1004
597 1006
597 1051
597 1080
597 1103
597 1145
597 1149
597 1166
597 1184
597 1192
597 1252
597 1267
597 1270
597 1304
597 1305
597 1330
597 1333
597 1336
597 1361
597 1380
597 1460
597 1462
597 1489
597 1494
597 1496
597 1524
597 1535
597 1564
597 1570
597 1599
597 1624
597 1639
597 1699
597 1709
597 1735
597 1757
597 1758
597 1763
597 1801
597 1804
597 1838
597 1863
597 1865
597 1870
597 1892
597 1944
597 1951
597 2008
597 2016
597 2043
597 2068
597 2086
597 2122
597 2187
597 2196
597 2197
597 2199
597 2207
597 2228
598 629
598 632
598 633
598 640
598 653
598 665
598 711
598 728
598 753
598 769
598 781
598 827
598 847
598 945
598 948
598 966
598 984
598 999
598 1015
598 1029
598 1042
598 1055
598 1072
598 1090
598 1097
598 1101
598 1105
598 1113
598 1114
598 1125
598 1128
598 1138
598 1151
598 1175
598 1189
598 1239
598 1246
598 1296
598 1305
598 1320
598 1325
598 1339
598 1396
598 1399
598 1422
598 1464
598 1475
598 1490
598 1491
598 1506
598 1512
598 1514
598 1541
598 1568
598 1635
598 1637
598 1638
598 1646
598 1653
598 1658
598 1672
598 1713
598 1717
598 1718
598 1721
598 1745
598 1753
598 1807
598 1829
598 1831
598 1844
598 1852
598 1890
598 1916
598 1918
598 1989
598 2011
598 2033
598 2118
598 2121
598 2148
598 2174
599 609
599 623
599 634
599 641
599 653
599 679
599 762
599 820
599 840
599 847
599 902
599 948
599 957
599 961
599 964
599 999
599 1009
599 1024
599 1054
599 1064
599 1082
599 1108
599 1132
599 1139
599 1172
599 1182
599 1199
599 1213
599 1242
599 1249
599 1278
599 1282
599 1360
599 1395
599 1424
599 1439
599 1441
599 1446
599 1463
599 1476
599 1490
599 1505
599 1521
599 1527
599 1557
599 1608
599 1622
599 1623
599 1625
599 1633
599 1638
599 1678
599 1714
599 1729
599 1770
599 1786
599 1788
599 1798
599 1806
599 1817
599 1898
599 1918
599 1925
599 1942
599 1957
599 1985
599 1991
599 1994
599 2000
599 2066
599 2096
599 2105
599 2155
599 2158
599 2200
599 2203
600 633
600 660
600 734
600 741
600 785
600 792
600 819
600 867
600 868
600 876
600 897
600 911
600 916
600 939
600 953
600 1004
600 1005
600 1010
600 1017
600 1045
600 1062
600 1063
600 1066
600 1096
600 1121
600 1124
600 1133
600 1145
600 1164
600 1172
600 1178
600 1219
600 1259
600 1284
600 1294
600 1298
600 1312
600 1333
600 1412
600 1427
600 1439
600 1493
600 1517
600 1559
600 1596
600 1615
600 1620
600 1621
600 1639
600 1669
600 1684
600 1712
600 1726
600 1750
600 1767
600 1791
600 1795
600 1935
600 1936
600 1938
600 1940
600 1943
600 1967
600 1997
600 2045
600 2104
600 2143
600 2144
600 2149
600 2188
600 2206
602 631
602 907
602 996
602 1775
602 2214
603 668
603 675
603 720
603 767
603 913
603 935
603 967
603 1011
603 1059
603 1095
603 1100
603 1229
603 1263
603 1393
603 1407
603 1529
603 2003
603 2145
603 2219
604 940
604 1245
604 1608
604 2122
605 618
605 659
605 665
605 667
605 727
605 748
605 815
605 830
605 835
605 844
605 851
605 907
605 925
605 1055
605 1090
605 1160
605 1171
605 1189
605 1212
605 1229
605 1238
605 1243
605 1262
605 1277
605 1334
605 1362
605 1404
605 1421
605 1425
605 1468
605 1473
605 1500
605 1506
605 1526
605 1532
605 1585
605 1586
605 1599
605 1606
605 1612
605 1664
605 1676
605 1691
605 1694
605 1713
605 1724
605 1760
605 1768
605 1783
605 1804
605 1816
605 1832
605 1869
605 1880
605 1887
605 1900
605 1940
605 1944
605 1989
605 2001
605 2005
605 2028
605 2039
605 2049
605 2091
605 2112
605 2129
605 2148
605 2206
605 2210
605 2226
606 678
606 778
606 841
606 866
606 936
606 1117
606 1119
606 1218
606 1474
606 1636
606 1879
606 2033
606 2208
607 906
607 929
607 1135
607 1439
607 1480
607 1486
607 1779
607 1854
607 1947
607 1949
607 2162
608 616
608 618
608 631
608 643
608 653
608 675
608 699
608 750
608 866
608 881
608 909
608 914
608 966
608 1250
608 1262
608 1263
608 1286
608 1303
608 1310
608 1368
608 1397
608 1526
608 1542
608 1664
608 1689
608 1710
608 1713
608 1760
608 1776
608 1782
608 1874
608 1881
608 1897
608 1921
608 1961
608 1963
608 2052
608 2089
608 2139
608 2165
608 2194
608 2221
608 2226
609 641
609 642
609 695
609 703
609 725
609 732
609 745
609 755
609 758
609 762
609 784
609 790
609 808
609 820
609 831
609 840
609 848
609 856
609 859
609 875
609 879
609 900
609 902
609 908
609 946
609 950
609 959
609 960
609 964
609 965
609 975
609 1007
609 1009
609 1016
609 1027
609 1053
609 1054
609 1082
609 1091
609 1104
609 1110
609 1139
609 1148
609 1158
609 1168
609 1172
609 1181
609 1182
609 1188
609 1207
609 1213
609 1215
609 1224
609 1242
609 1248
609 1261
609 1276
609 1278
609 1282
609 1295
609 1297
609 1355
609 1356
609 1359
609 1369
609 1374
609 1419
609 1441
609 1452
609 1458
609 1463
609 1466
609 1476
609 1491
609 1501
609 1521
609 1527
609 1528
609 1548
609 1557
609 1572
609 1608
609 1614
609 1616
609 1625
609 1628
609 1633
609 1642
609 1647
609 1648
609 1682
609 1703
609 1720
609 1729
609 1742
609 1746
609 1748
609 1766
609 1770
609 1788
609 1798
609 1817
609 1825
609 1828
609 1845
609 1846
609 1866
609 1873
609 1891
609 1894
609 1902
609 1908
609 1917
609 1933
609 1941
609 1954
609 1960
609 1962
609 1972
609 1991
609 1998
609 2000
609 2004
609 2007
609 2009
609 2027
609 2048
609 2057
609 2060
609 2066
609 2074
609 2082
609 2096
609 2097
609 2115
609 2130
609 2152
609 2155
609 2157
609 2158
609 2159
609 2160
609 2178
609 2183
609 2192
609 2200
609 2203
609 2213
609 2224
609 2234
610 642
610 918
610 946
610 961
610 1248
610 1297
610 1346
610 1839
610 1853
610 2057
611 643
611 714
611 750
611 754
611 815
611 941
611 978
611 1038
611 1109
611 1326
611 1328
611 1390
611 1422
611 1448
611 1518
611 1570
611 1585
611 1638
611 1783
611 1799
611 1932
611 2022
611 2045
611 2076
611 2173
611 2189
611 2209
612 616
612 632
612 639
612 677
612 687
612 708
612 709
612 713
612 730
612 735
612 759
612 780
612 839
612 851
612 887
612 903
612 983
612 1050
612 1057
612 1067
612 1084
612 1087
612 1101
612 1103
612 1134
612 1137
612 1145
612 1147
612 1241
612 1254
612 1262
612 1269
612 1270
612 1304
612 1307
612 1330
612 1351
612 1361
612 1381
612 1388
612 1390
612 1405
612 1414
612 1422
612 1457
612 1460
612 1479
612 1489
612 1496
612 1519
612 1536
612 1561
612 1580
612 1588
612 1607
612 1615
612 1622
612 1624
612 1654
612 1676
612 1691
612 1694
612 1762
612 1770
612 1796
612 1805
612 1838
612 1860
612 1903
612 1912
612 1935
612 1939
612 1988
612 2028
612 2033
612 2043
612 2076
612 2093
612 2138
612 2149
612 2154
612 2164
612 2174
612 2187
612 2206
613 640
613 643
613 662
613 674
613 708
613 710
613 711
613 735
613 743
613 744
613 750
613 825
613 829
613 841
613 881
613 886
613 913
613 914
613 924
613 958
613 981
613 991
613 1015
613 1055
613 1062
613 1087
613 1109
613 1134
613 1173
613 1189
613 1283
613 1361
613 1365
613 1406
613 1443
613 1444
613 1498
613 1536
613 1571
613 1578
613 1584
613 1629
613 1635
613 1659
613 1671
613 1717
613 1727
613 1737
613 1750
613 1767
613 1776
613 1794
613 1807
613 1819
613 1869
613 1893
613 1898
613 1900
613 1903
613 1955
613 1956
613 1971
613 1972
613 1976
613 1993
613 2045
613 2047
613 2049
613 2075
613 2133
613 2136
613 2146
613 2156
613 2162
613 2165
613 2170
613 2202
613 2232
614 659
614 668
614 720
614 768
614 842
614 991
614 1049
614 1144
614 1274
614 1376
614 1407
614 1425
614 1461
614 1665
614 1710
614 1984
614 2042
614 2075
614 2109
614 2121
614 2165
614 2190
615 666
615 741
615 992
615 1332
615 1357
615 1453
615 1536
615 1758
615 1803
615 1805
615 2076
615 2228
616 617
616 629
616 631
616 632
616 643
616 662
616 677
616 694
616 826
616 841
616 847
616 851
616 854
616 860
616 863
616 909
616 924
616 939
616 954
616 969
616 989
616 996
616 1023
616 1047
616 1109
616 1113
616 1126
616 1141
616 1145
616 1163
616 1250
616 1264
616 1308
616 1310
616 1352
616 1366
616 1382
616 1389
616 1411
616 1464
616 1474
616 1475
616 1514
616 1518
616 1520
616 1530
616 1554
616 1556
616 1571
616 1578
616 1598
616 1610
616 1623
616 1629
616 1640
616 1659
616 1676
616 1699
616 1702
616 1713
616 1717
616 1733
616 1739
616 1760
616 1816
616 1819
616 1869
616 1912
616 1929
616 1993
616 2028
616 2046
616 2049
616 2056
616 2075
616 2076
616 2100
616 2108
616 2120
616 2139
616 2149
616 2165
616 2190
616 2194
616 2196
616 2209
616 2221
616 2228
617 637
617 678
617 685
617 694
617 711
617 781
617 806
617 812
617 814
617 815
617 835
617 836
617 837
617 841
617 847
617 866
617 869
617 909
617 914
617 924
617 927
617 935
617 947
617 952
617 956
617 970
617 1015
617 1036
617 1050
617 1065
617 1070
617 1140
617 1146
617 1149
617 1152
617 1159
617 1176
617 1180
617 1192
617 1193
617 1199
617 1247
617 1258
617 1277
617 1320
617 1323
617 1324
617 1330
617 1335
617 1341
617 1368
617 1380
617 1388
617 1392
617 1405
617 1406
617 1416
617 1434
617 1457
617 1469
617 1481
617 1492
617 1498
617 1535
617 1544
617 1563
617 1568
617 1574
617 1581
617 1586
617 1595
617 1602
617 1613
617 1626
617 1641
617 1650
617 1654
617 1679
617 1691
617 1699
617 1701
617 1702
617 1714
617 1735
617 1743
617 1768
617 1771
617 1776
617 1804
617 1815
617 1826
617 1855
617 1875
617 1879
617 1898
617 1900
617 1904
617 1920
617 1929
617 1989
617 1997
617 2001
617 2011
617 2039
617 2049
617 2054
617 2091
617 2116
617 2122
617 2148
617 2149
617 2175
617 2182
617 2194
617 2221
617 2228
618 662
618 989
618 1052
618 1065
618 1080
618 1109
618 1117
618 1289
618 1305
618 1310
618 1415
618 1468
618 1473
618 1475
618 1494
618 1500
618 1526
618 1574
618 1629
618 1699
618 1717
618 1756
618 1760
618 1768
618 1785
618 1824
618 1879
618 1961
618 2226
618 2232
619 1871
620 749
620 844
620 860
620 1083
620 1149
620 1201
620 1220
620 1305
621 1728
622 629
622 659
622 707
622 765
622 769
622 842
622 843
622 951
622 1018
622 1068
622 1114
622 1121
622 1138
622 1144
622 1189
622 1211
622 1220
622 1299
622 1312
622 1317
622 1325
622 1399
622 1425
622 1442
622 1482
622 1535
622 1585
622 1602
622 1622
622 1646
622 1735
622 1757
622 1826
622 1843
622 1852
622 1862
622 1868
622 1900
622 1988
622 2018
622 2061
622 2073
622 2075
622 2109
622 2112
623 624
623 633
623 634
623 658
623 660
623 746
623 751
623 764
623 772
623 852
623 867
623 895
623 900
623 905
623 937
623 964
623 1014
623 1019
623 1127
623 1178
623 1183
623 1186
623 1212
623 1219
623 1259
623 1272
623 1382
623 1405
623 1439
623 1456
623 1477
623 1486
623 1487
623 1490
623 1491
623 1538
623 1615
623 1702
623 1791
623 1841
623 1854
623 1900
623 1918
623 1939
623 1943
623 1947
623 2152
623 2174
624 628
624 633
624 656
624 660
624 715
624 716
624 723
624 751
624 769
624 798
624 799
624 823
624 852
624 859
624 873
624 875
624 889
624 899
624 924
624 932
624 937
624 938
624 953
624 963
624 971
624 986
624 990
624 1013
624 1019
624 1022
624 1028
624 1030
624 1034
624 1040
624 1043
624 1046
624 1058
624 1070
624 1089
624 1123
624 1135
624 1153
624 1155
624 1186
624 1195
624 1212
624 1219
624 1257
624 1272
624 1312
624 1317
624 1367
624 1371
624 1402
624 1403
624 1418
624 1422
624 1438
624 1440
624 1442
624 1449
624 1450
624 1477
624 1480
624 1487
624 1493
624 1509
624 1523
624 1540
624 1541
624 1549
624 1600
624 1601
624 1615
624 1621
624 1626
624 1631
624 1662
624 1674
624 1690
624 1705
624 1725
624 1750
624 1755
624 1762
624 1779
624 1819
624 1852
624 1854
624 1861
624 1872
624 1876
624 1880
624 1936
624 1938
624 1939
624 1947
624 1949
624 1957
624 1972
624 1983
624 2026
624 2034
624 2104
624 2111
624 2116
624 2131
624 2137
624 2152
624 2164
624 2168
624 2174
624 2188
624 2215
625 665
625 870
625 947
625 1013
625 1015
625 1024
625 1034
625 1067
625 1068
625 1081
625 1089
625 1106
625 1115
625 1129
625 1135
625 1145
625 1179
625 1233
625 1236
625 1333
625 1371
625 1387
625 1442
625 1449
625 1450
625 1467
625 1626
625 1638
625 1644
625 1667
625 1670
625 1676
625 1680
625 1699
625 1779
625 1808
625 1829
625 1843
625 1903
625 1907
625 1938
625 1951
625 1977
625 2064
625 2120
625 2145
625 2182
625 2215
625 2221
626 697
626 701
626 709
626 711
626 737
626 759
626 785
626 812
626 822
626 828
626 836
626 851
626 862
626 911
626 978
626 993
626 1004
626 1045
626 1063
626 1073
626 1118
626 1124
626 1137
626 1149
626 1157
626 1198
626 1254
626 1270
626 1307
626 1320
626 1330
626 1333
626 1368
626 1414
626 1417
626 1422
626 1432
626 1462
626 1479
626 1481
626 1489
626 1544
626 1554
626 1564
626 1570
626 1602
626 1605
626 1606
626 1646
626 1654
626 1656
626 1666
626 1717
626 1738
626 1745
626 1763
626 1781
626 1801
626 1806
626 1823
626 1831
626 1860
626 1865
626 1875
626 1900
626 1903
626 1972
626 2016
626 2045
626 2070
626 2086
626 2133
626 2199
626 2207
627 1739
628 633
628 660
628 704
628 801
628 859
628 883
628 931
628 1015
628 1022
628 1046
628 1096
628 1121
628 1324
628 1384
628 1438
628 1442
628 1477
628 1486
628 1487
628 1493
628 1517
628 1558
628 1631
628 1677
628 1700
628 1712
628 1750
628 1784
628 1808
628 1820
628 1861
628 1880
628 1885
628 1930
628 1965
628 1966
628 1974
628 1982
628 2072
628 2101
628 2113
629 631
629 632
629 638
629 651
629 659
629 670
629 674
629 677
629 726
629 727
629 749
629 753
629 760
629 777
629 794
629 824
629 826
629 830
629 843
629 943
629 1011
629 1018
629 1021
629 1042
629 1047
629 1065
629 1080
629 1114
629 1128
629 1138
629 1144
629 1163
629 1189
629 1192
629 1227
629 1233
629 1238
629 1289
629 1340
629 1363
629 1365
629 1393
629 1399
629 1408
629 1411
629 1425
629 1434
629 1450
629 1454
629 1475
629 1500
629 1524
629 1529
629 1543
629 1578
629 1598
629 1602
629 1626
629 1664
629 1666
629 1724
629 1735
629 1807
629 1844
629 1878
629 1892
629 1901
629 1916
629 1920
629 1929
629 1944
629 1969
629 2033
629 2041
629 2054
629 2091
629 2099
629 2121
629 2145
629 2168
629 2190
629 2193
629 2196
629 2214
630 720
630 951
630 1843
631 643
631 652
631 657
631 662
631 668
631 681
631 717
631 718
631 750
631 752
631 754
631 770
631 777
631 794
631 802
631 807
631 841
631 844
631 847
631 860
631 866
631 907
631 909
631 914
631 935
631 943
631 944
631 945
631 948
631 956
631 968
631 978
631 996
631 1000
631 1003
631 1018
631 1029
631 1047
631 1059
631 1065
631 1077
631 1090
631 1100
631 1101
631 1190
631 1194
631 1229
631 1240
631 1255
631 1258
631 1291
631 1303
631 1305
631 1315
631 1347
631 1352
631 1362
631 1365
631 1366
631 1375
631 1376
631 1389
631 1392
631 1394
631 1397
631 1400
631 1404
631 1407
631 1422
631 1426
631 1428
631 1436
631 1507
631 1514
631 1524
631 1529
631 1532
631 1533
631 1535
631 1537
631 1539
631 1544
631 1554
631 1556
631 1571
631 1574
631 1583
631 1585
631 1598
631 1600
631 1606
631 1610
631 1612
631 1613
631 1649
631 1689
631 1691
631 1704
631 1706
631 1710
631 1713
631 1721
631 1733
631 1747
631 1749
631 1750
631 1752
631 1753
631 1775
631 1785
631 1799
631 1800
631 1815
631 1831
631 1833
631 1855
631 1895
631 1912
631 1914
631 1922
631 1964
631 1971
631 1984
631 2033
631 2042
631 2045
631 2049
631 2062
631 2075
631 2080
631 2090
631 2100
631 2102
631 2118
631 2119
631 2145
631 2173
631 2174
631 2184
631 2193
631 2211
631 2214
631 2226
631 2230
632 665
632 817
632 851
632 870
632 878
632 910
632 924
632 941
632 966
632 989
632 1055
632 1059
632 1080
632 1138
632 1151
632 1163
632 1192
632 1235
632 1240
632 1271
632 1275
632 1308
632 1382
632 1386
632 1411
632 1422
632 1464
632 1475
632 1514
632 1554
632 1571
632 1578
632 1602
632 1618
632 1627
632 1635
632 1646
632 1654
632 1701
632 1702
632 1704
632 1713
632 1739
632 1745
632 1804
632 1895
632 1978
632 1993
632 2014
632 2026
632 2028
632 2033
632 2046
632 2100
632 2120
632 2138
632 2223
632 2228
633 653
633 656
633 746
633 751
633 852
633 859
633 867
633 873
633 895
633 900
633 911
633 987
633 1030
633 1046
633 1112
633 1121
633 1133
633 1171
633 1186
633 1266
633 1309
633 1312
633 1405
633 1412
633 1438
633 1477
633 1487
633 1491
633 1531
633 1603
633 1615
633 1630
633 1631
633 1635
633 1675
633 1677
633 1818
633 1854
633 1867
633 1880
633 1885
633 1896
633 1936
633 1943
633 1949
633 1972
633 1974
633 2035
633 2075
633 2087
633 2116
633 2174
634 637
634 643
634 653
634 664
634 665
634 672
634 678
634 697
634 711
634 725
634 732
634 744
634 752
634 778
634 797
634 802
634 832
634 847
634 863
634 887
634 900
634 923
634 924
634 932
634 937
634 952
634 966
634 977
634 999
634 1015
634 1020
634 1042
634 1052
634 1057
634 1064
634 1097
634 1101
634 1105
634 1112
634 1113
634 1125
634 1162
634 1172
634 1193
634 1196
634 1213
634 1218
634 1240
634 1242
634 1244
634 1270
634 1291
634 1347
634 1360
634 1398
634 1406
634 1416
634 1422
634 1439
634 1456
634 1460
634 1476
634 1490
634 1501
634 1527
634 1534
634 1538
634 1541
634 1581
634 1582
634 1585
634 1591
634 1599
634 1623
634 1637
634 1638
634 1641
634 1678
634 1690
634 1692
634 1699
634 1702
634 1717
634 1725
634 1726
634 1780
634 1793
634 1804
634 1817
634 1841
634 1849
634 1851
634 1873
634 1898
634 1928
634 1942
634 1957
634 1964
634 1970
634 1972
634 1991
634 1997
634 2001
634 2049
634 2066
634 2074
634 2096
634 2118
634 2132
634 2204
634 2208
634 2217
634 2226
635 637
635 651
635 665
635 749
635 761
635 942
635 947
635 952
635 1088
635 1120
635 1124
635 1258
635 1323
635 1327
635 1410
635 1413
635 1426
635 1434
635 1499
635 1504
635 1635
635 1759
635 1884
635 1903
635 1904
635 2080
635 2142
635 2173
636 676
636 798
636 903
636 905
636 1062
636 1134
636 1157
636 1211
636 1307
636 1353
636 1380
636 1414
636 1417
636 1420
636 1536
636 1803
636 1806
636 1899
636 1967
636 2043
636 2056
636 2070
636 2129
636 2133
636 2154
636 2199
636 2228
637 638
637 639
637 653
637 678
637 727
637 778
637 781
637 794
637 815
637 841
637 844
637 847
637 860
637 880
637 890
637 914
637 948
637 966
637 996
637 1057
637 1060
637 1062
637 1084
637 1097
637 1101
637 1125
637 1193
637 1199
637 1252
637 1320
637 1347
637 1363
637 1399
637 1414
637 1424
637 1446
637 1456
637 1475
637 1498
637 1506
637 1541
637 1547
637 1611
637 1641
637 1653
637 1670
637 1672
637 1690
637 1696
637 1699
637 1708
637 1725
637 1738
637 1753
637 1767
637 1806
637 1810
637 1823
637 1844
637 1856
637 1860
637 1898
637 1907
637 1920
637 1929
637 1933
637 1951
637 1964
637 1970
637 1971
637 1972
637 1999
637 2045
637 2084
637 2141
637 2208
637 2217
637 2226
638 648
638 657
638 670
638 726
638 727
638 754
638 767
638 772
638 802
638 824
638 866
638 1000
638 1007
638 1035
638 1048
638 1059
638 1073
638 1092
638 1093
638 1097
638 1127
638 1208
638 1227
638 1340
638 1368
638 1436
638 1475
638 1524
638 1566
638 1588
638 1713
638 1731
638 1733
638 1757
638 1778
638 1827
638 1856
638 1892
638 1897
638 1901
638 1903
638 1904
638 1932
638 2041
638 2062
638 2078
638 2095
638 2098
638 2118
638 2145
638 2148
638 2194
638 2214
638 2219
639 657
639 665
639 670
639 677
639 678
639 744
639 748
639 754
639 806
639 814
639 824
639 845
639 847
639 925
639 979
639 996
639 1021
639 1036
639 1080
639 1088
639 1101
639 1177
639 1210
639 1275
639 1316
639 1320
639 1343
639 1368
639 1392
639 1475
639 1512
639 1514
639 1585
639 1602
639 1630
639 1635
639 1641
639 1646
639 1650
639 1652
639 1666
639 1708
639 1717
639 1802
639 1810
639 1900
639 1914
639 1929
639 1952
639 2049
640 678
640 685
640 823
640 847
640 866
640 917
640 966
640 1018
640 1025
640 1055
640 1144
640 1189
640 1204
640 1246
640 1325
640 1464
640 1535
640 1568
640 1591
640 1646
640 1658
640 1670
640 1699
640 1724
640 1735
640 1781
640 1819
640 1827
640 1852
640 1900
640 1916
640 1929
640 1969
640 1997
640 2026
640 2075
640 2165
640 2190
641 642
641 679
641 705
641 732
641 733
641 755
641 757
641 820
641 950
641 957
641 960
641 1012
641 1091
641 1134
641 1168
641 1172
641 1228
641 1244
641 1245
641 1249
641 1278
641 1297
641 1313
641 1349
641 1369
641 1458
641 1476
641 1505
641 1527
641 1557
641 1562
641 1575
641 1608
641 1642
641 1678
641 1696
641 1720
641 1746
641 1804
641 1825
641 1828
641 1846
641 1866
641 1868
641 1908
641 1926
641 1986
641 2009
641 2028
641 2035
641 2065
641 2074
641 2092
641 2096
641 2105
641 2114
641 2213
642 757
642 787
642 1027
642 1213
642 1297
642 1642
642 1673
642 1758
642 1828
642 1925
642 1985
642 2009
643 656
643 665
643 677
643 690
643 693
643 696
643 702
643 704
643 711
643 715
643 724
643 727
643 744
643 763
643 768
643 774
643 781
643 809
643 823
643 827
643 843
643 844
643 847
643 854
643 866
643 868
643 882
643 909
643 910
643 912
643 945
643 954
643 974
643 999
643 1015
643 1019
643 1030
643 1038
643 1055
643 1057
643 1072
643 1101
643 1106
643 1109
643 1113
643 1115
643 1126
643 1129
643 1145
643 1169
643 1185
643 1187
643 1191
643 1196
643 1220
643 1221
643 1231
643 1239
643 1247
643 1251
643 1255
643 1286
643 1291
643 1323
643 1325
643 1326
643 1347
643 1366
643 1378
643 1410
643 1422
643 1428
643 1431
643 1439
643 1449
643 1456
643 1464
643 1474
643 1492
643 1507
643 1518
643 1535
643 1536
643 1539
643 1558
643 1574
643 1598
643 1600
643 1606
643 1618
643 1635
643 1667
643 1677
643 1690
643 1699
643 1702
643 1707
643 1717
643 1719
643 1725
643 1745
643 1749
643 1773
643 1779
643 1781
643 1785
643 1799
643 1808
643 1813
643 1815
643 1824
643 1843
643 1855
643 1859
643 1875
643 1903
643 1912
643 1922
643 1928
643 1929
643 1963
643 1976
643 1997
643 2012
643 2026
643 2037
643 2038
643 2045
643 2046
643 2049
643 2053
643 2090
643 2100
643 2101
643 2108
643 2118
643 2119
643 2120
643 2139
643 2140
643 2158
643 2182
643 2189
643 2190
643 2204
643 2211
643 2228
644 851
644 1031
644 1145
644 1307
644 1322
644 1388
644 1565
644 1622
644 1636
644 1804
644 2011
644 2228
645 840
645 856
645 904
645 923
645 1024
645 1094
645 1215
645 1249
645 1355
645 1385
645 1468
645 1476
645 1633
645 1825
645 1828
645 1866
645 1926
645 2027
645 2030
645 2048
645 2065
645 2066
645 2130
646 704
646 857
646 1185
646 1609
646 1779
647 658
647 672
647 707
647 712
647 730
647 749
647 781
647 807
647 839
647 841
647 850
647 851
647 910
647 932
647 943
647 989
647 993
647 997
647 1020
647 1052
647 1098
647 1140
647 1247
647 1341
647 1382
647 1411
647 1422
647 1475
647 1507
647 1571
647 1579
647 1599
647 1602
647 1639
647 1640
647 1654
647 1702
647 1717
647 1780
647 1797
647 1905
647 1981
647 2001
647 2033
647 2081
647 2100
647 2148
647 2184
647 2196
647 2217
648 705
648 711
648 781
648 806
648 948
648 970
648 1036
648 1093
648 1193
648 1258
648 1262
648 1341
648 1386
648 1416
648 1422
648 1506
648 1595
648 1702
648 1776
648 1996
648 2023
648 2028
648 2122
648 2194
648 2204
648 2217
648 2228
649 681
649 853
649 867
649 895
649 905
649 981
649 990
649 1010
649 1096
649 1121
649 1123
649 1241
649 1309
649 1357
649 1358
649 1384
649 1403
649 1427
649 1432
649 1489
649 1519
649 1605
649 1631
649 1633
649 1685
649 1712
649 1894
649 1930
649 1948
649 1970
649 1974
649 2076
650 677
650 847
650 999
650 1102
650 1175
650 1189
650 1218
650 1305
650 1454
650 1541
650 1568
650 1709
650 1710
650 1721
650 1826
650 1831
650 1852
650 1900
650 1989
651 655
651 662
651 670
651 810
651 881
651 952
651 968
651 1065
651 1079
651 1124
651 1146
651 1156
651 1209
651 1225
651 1238
651 1263
651 1305
651 1310
651 1320
651 1352
651 1363
651 1397
651 1407
651 1410
651 1461
651 1494
651 1510
651 1524
651 1529
651 1533
651 1563
651 1604
651 1634
651 1800
651 1816
651 1819
651 1827
651 1834
651 1897
651 1904
651 1912
651 1984
651 2062
651 2080
651 2099
651 2139
651 2142
651 2173
651 2184
651 2190
651 2226
652 774
652 1011
652 1039
652 1217
652 1303
652 1393
652 1537
652 1634
652 1756
652 1759
652 1773
652 1881
652 1969
652 2139
652 2190
652 2195
653 664
653 702
653 720
653 724
653 728
653 746
653 768
653 781
653 814
653 823
653 844
653 845
653 847
653 849
653 863
653 892
653 910
653 911
653 913
653 914
653 924
653 932
653 937
653 948
653 966
653 974
653 999
653 1010
653 1013
653 1014
653 1022
653 1023
653 1039
653 1042
653 1050
653 1084
653 1097
653 1101
653 1119
653 1125
653 1127
653 1141
653 1160
653 1162
653 1195
653 1226
653 1257
653 1259
653 1262
653 1266
653 1268
653 1310
653 1316
653 1317
653 1320
653 1360
653 1367
653 1412
653 1418
653 1429
653 1432
653 1464
653 1490
653 1491
653 1499
653 1506
653 1507
653 1571
653 1606
653 1612
653 1617
653 1622
653 1623
653 1626
653 1629
653 1630
653 1637
653 1638
653 1659
653 1660
653 1664
653 1666
653 1676
653 1698
653 1699
653 1702
653 1708
653 1713
653 1714
653 1760
653 1784
653 1799
653 1806
653 1808
653 1816
653 1818
653 1843
653 1844
653 1849
653 1854
653 1860
653 1867
653 1874
653 1878
653 1880
653 1881
653 1885
653 1898
653 1914
653 1918
653 1921
653 1928
653 1947
653 1949
653 1951
653 1955
653 1957
653 1963
653 1964
653 1972
653 1977
653 1988
653 1993
653 2007
653 2019
653 2038
653 2048
653 2074
653 2089
653 2097
653 2111
653 2118
653 2158
653 2190
653 2194
653 2221
653 2226
653 2227
654 666
654 671
654 673
654 689
654 712
654 785
654 851
654 903
654 943
654 968
654 981
654 1010
654 1051
654 1057
654 1062
654 1072
654 1124
654 1147
654 1179
654 1198
654 1254
654 1259
654 1270
654 1298
654 1388
654 1422
654 1427
654 1453
654 1457
654 1462
654 1470
654 1496
654 1560
654 1561
654 1633
654 1691
654 1699
654 1712
654 1714
654 1801
654 1820
654 1872
654 1904
654 1930
654 1934
654 1970
654 1987
654 1994
654 2049
654 2081
654 2100
654 2133
654 2138
654 2149
654 2154
654 2207
654 2228
654 2232
655 673
655 698
655 818
655 967
655 968
655 1209
655 1303
655 1407
655 1461
655 1488
655 1529
655 1583
655 1604
655 1612
655 1900
655 1946
655 2046
655 2189
655 2190
655 2222
656 670
656 683
656 693
656 702
656 704
656 716
656 766
656 772
656 781
656 882
656 895
656 913
656 924
656 931
656 937
656 958
656 986
656 987
656 1064
656 1072
656 1100
656 1123
656 1185
656 1187
656 1212
656 1217
656 1241
656 1256
656 1268
656 1312
656 1439
656 1457
656 1491
656 1534
656 1536
656 1626
656 1646
656 1658
656 1674
656 1699
656 1867
656 1868
656 1930
656 1940
656 1966
656 1969
656 1977
656 1982
656 1994
656 1997
656 2011
656 2026
656 2054
656 2156
656 2161
656 2204
657 670
657 717
657 727
657 738
657 794
657 824
657 1138
657 1217
657 1243
657 1246
657 1271
657 1321
657 1408
657 1724
657 1969
657 2210
657 2214
658 672
658 678
658 712
658 751
658 752
658 754
658 765
658 766
658 781
658 782
658 792
658 812
658 814
658 827
658 832
658 844
658 863
658 900
658 912
658 924
658 937
658 938
658 943
658 948
658 952
658 966
658 987
658 999
658 1003
658 1015
658 1028
658 1042
658 1088
658 1097
658 1101
658 1105
658 1112
658 1120
658 1125
658 1127
658 1133
658 1149
658 1162
658 1172
658 1183
658 1192
658 1195
658 1218
658 1236
658 1253
658 1259
658 1272
658 1291
658 1320
658 1368
658 1384
658 1418
658 1422
658 1437
658 1438
658 1456
658 1487
658 1490
658 1506
658 1581
658 1591
658 1609
658 1612
658 1637
658 1645
658 1662
658 1667
658 1669
658 1672
658 1690
658 1696
658 1699
658 1702
658 1719
658 1725
658 1726
658 1755
658 1780
658 1791
658 1804
658 1830
658 1841
658 1849
658 1876
658 1890
658 1928
658 1938
658 1939
658 1942
658 1972
658 1987
658 1997
658 2028
658 2037
658 2039
658 2049
658 2081
658 2087
658 2131
658 2132
658 2148
658 2158
658 2174
658 2181
658 2188
658 2217
658 2221
659 700
659 720
659 823
659 825
659 842
659 967
659 989
659 1018
659 1021
659 1128
659 1138
659 1144
659 1146
659 1163
659 1189
659 1192
659 1238
659 1255
659 1274
659 1321
659 1340
659 1341
659 1375
659 1382
659 1411
659 1444
659 1449
659 1464
659 1474
659 1535
659 1563
659 1565
659 1602
659 1610
659 1665
659 1688
659 1699
659 1721
659 1735
659 1739
659 1760
659 1768
659 1797
659 1804
659 1827
659 1831
659 1840
659 1844
659 1900
659 1904
659 1967
659 2033
659 2075
659 2091
659 2099
659 2121
659 2146
659 2171
659 2210
660 723
660 764
660 766
660 792
660 801
660 832
660 852
660 873
660 878
660 905
660 911
660 916
660 929
660 938
660 1003
660 1004
660 1019
660 1028
660 1040
660 1066
660 1081
660 1092
660 1101
660 1123
660 1125
660 1127
660 1133
660 1135
660 1172
660 1178
660 1183
660 1204
660 1219
660 1232
660 1253
660 1259
660 1309
660 1312
660 1318
660 1323
660 1324
660 1333
660 1364
660 1368
660 1384
660 1412
660 1418
660 1438
660 1445
660 1486
660 1493
660 1503
660 1615
660 1623
660 1639
660 1662
660 1725
660 1726
660 1743
660 1771
660 1784
660 1811
660 1819
660 1820
660 1849
660 1861
660 1867
660 1883
660 1904
660 1935
660 1936
660 1938
660 1939
660 1943
660 1948
660 1965
660 1966
660 1972
660 1974
660 1977
660 1983
660 1994
660 2007
660 2034
660 2064
660 2072
660 2107
660 2111
660 2116
660 2143
660 2181
660 2188
660 2218
660 2220
660 2221
660 2233
661 728
661 761
661 769
661 882
661 1217
661 1233
661 1378
661 1387
661 1450
661 1539
661 1663
661 1750
661 1756
661 1759
661 1813
661 1872
661 1881
661 2043
661 2048
661 2064
661 2119
661 2163
661 2184
662 674
662 682
662 696
662 710
662 724
662 744
662 750
662 754
662 763
662 845
662 851
662 854
662 863
662 866
662 870
662 880
662 903
662 909
662 910
662 945
662 954
662 979
662 989
662 996
662 1029
662 1035
662 1036
662 1073
662 1100
662 1113
662 1126
662 1141
662 1146
662 1180
662 1233
662 1237
662 1238
662 1243
662 1271
662 1275
662 1303
662 1308
662 1310
662 1316
662 1341
662 1347
662 1366
662 1397
662 1439
662 1464
662 1490
662 1494
662 1502
662 1510
662 1525
662 1530
662 1578
662 1596
662 1602
662 1606
662 1640
662 1646
662 1680
662 1687
662 1704
662 1713
662 1717
662 1733
662 1739
662 1744
662 1756
662 1760
662 1781
662 1789
662 1799
662 1824
662 1833
662 1834
662 1855
662 1870
662 1887
662 1963
662 1969
662 1987
662 1993
662 2012
662 2033
662 2049
662 2053
662 2062
662 2103
662 2109
662 2194
662 2209
662 2232
663 757
663 838
663 921
663 950
663 959
663 1122
663 1295
663 1548
663 1853
663 2040
663 2069
663 2094
663 2178
664 703
664 711
664 744
664 746
664 749
664 760
664 768
664 781
664 845
664 859
664 863
664 885
664 900
664 909
664 929
664 1030
664 1038
664 1097
664 1105
664 1125
664 1141
664 1187
664 1219
664 1226
664 1240
664 1257
664 1259
664 1316
664 1368
664 1382
664 1439
664 1444
664 1450
664 1456
664 1464
664 1475
664 1480
664 1490
664 1507
664 1512
664 1541
664 1571
664 1617
664 1623
664 1637
664 1638
664 1653
664 1666
664 1672
664 1698
664 1699
664 1717
664 1733
664 1753
664 1759
664 1780
664 1792
664 1819
664 1867
664 1878
664 1918
664 1922
664 1942
664 1947
664 1953
664 1972
664 1976
664 1977
664 1988
664 1993
664 2037
664 2062
664 2081
664 2118
664 2132
664 2150
664 2158
664 2168
664 2188
664 2204
665 687
665 699
665 740
665 748
665 761
665 781
665 800
665 824
665 841
665 876
665 910
665 919
665 924
665 926
665 984
665 988
665 1000
665 1013
665 1034
665 1037
665 1042
665 1047
665 1049
665 1060
665 1090
665 1101
665 1106
665 1115
665 1124
665 1129
665 1144
665 1145
665 1196
665 1221
665 1233
665 1243
665 1305
665 1343
665 1410
665 1426
665 1435
665 1498
665 1514
665 1536
665 1553
665 1558
665 1592
665 1606
665 1618
665 1626
665 1635
665 1644
665 1664
665 1667
665 1680
665 1699
665 1709
665 1724
665 1793
665 1802
665 1804
665 1812
665 1829
665 1843
665 1874
665 1875
665 1887
665 1900
665 1944
665 1951
665 1963
665 1970
665 1977
665 2031
665 2050
665 2091
665 2099
665 2100
665 2106
665 2112
665 2113
665 2168
665 2182
665 2194
665 2204
665 2208
666 689
666 733
666 735
666 739
666 741
666 785
666 894
666 903
666 992
666 1067
666 1142
666 1241
666 1283
666 1331
666 1341
666 1388
666 1453
666 1457
666 1462
666 1489
666 1536
666 1607
666 1615
666 1636
666 1671
666 1758
666 1766
666 1803
666 1805
666 1812
666 1865
666 1879
666 1886
666 1957
666 2076
666 2130
666 2149
666 2154
666 2197
666 2208
666 2228
667 714
667 752
667 843
667 847
667 870
667 1002
667 1042
667 1068
667 1114
667 1151
667 1171
667 1325
667 1392
667 1431
667 1442
667 1491
667 1626
667 1663
667 1757
667 1819
667 1847
667 1878
667 1903
667 2014
667 2038
667 2168
668 677
668 718
668 720
668 810
668 913
668 1039
668 1100
668 1101
668 1231
668 1425
668 1482
668 1516
668 1665
668 1689
668 1705
668 1710
668 1711
668 1808
668 1843
668 1857
668 1921
668 2042
668 2075
668 2101
668 2139
669 961
669 1094
669 1458
669 1546
669 1639
669 1647
669 1720
669 1723
669 1787
669 1870
669 2065
670 756
670 759
670 767
670 782
670 794
670 807
670 812
670 824
670 830
670 834
670 924
670 963
670 1000
670 1011
670 1030
670 1059
670 1087
670 1160
670 1176
670 1177
670 1217
670 1229
670 1291
670 1305
670 1340
670 1363
670 1391
670 1392
670 1434
670 1438
670 1442
670 1499
670 1504
670 1619
670 1626
670 1688
670 1724
670 1733
670 1757
670 1768
670 1827
670 1855
670 1874
670 1892
670 1901
670 1906
670 1911
670 1916
670 1996
670 2041
670 2061
670 2089
670 2091
670 2099
670 2129
670 2173
670 2206
670 2219
671 689
671 697
671 709
671 722
671 782
671 834
671 840
671 854
671 866
671 887
671 902
671 921
671 977
671 983
671 998
671 1082
671 1086
671 1091
671 1103
671 1107
671 1130
671 1134
671 1145
671 1157
671 1164
671 1184
671 1198
671 1211
671 1223
671 1246
671 1254
671 1287
671 1307
671 1330
671 1353
671 1380
671 1381
671 1388
671 1403
671 1414
671 1462
671 1470
671 1492
671 1499
671 1530
671 1561
671 1569
671 1580
671 1606
671 1607
671 1642
671 1664
671 1686
671 1717
671 1732
671 1738
671 1744
671 1758
671 1763
671 1771
671 1806
671 1809
671 1814
671 1820
671 1838
671 1846
671 1850
671 1863
671 1872
671 1902
671 1934
671 1943
671 1955
671 1967
671 2015
671 2031
671 2043
671 2070
671 2086
671 2092
671 2133
671 2138
671 2149
671 2154
671 2199
671 2207
671 2209
671 2226
671 2228
671 2232
672 678
672 782
672 806
672 841
672 948
672 1015
672 1052
672 1060
672 1088
672 1199
672 1218
672 1291
672 1323
672 1422
672 1435
672 1449
672 1456
672 1498
672 1556
672 1581
672 1638
672 1696
672 1804
672 1898
672 1920
672 2028
672 2127
672 2204
672 2217
672 2228
673 818
673 967
673 1209
673 1303
673 1310
673 1423
673 1488
673 1704
673 1713
673 1946
673 2190
673 2226
674 686
674 693
674 717
674 727
674 761
674 777
674 794
674 802
674 817
674 834
674 882
674 914
674 958
674 978
674 980
674 1000
674 1026
674 1059
674 1100
674 1101
674 1114
674 1146
674 1152
674 1177
674 1217
674 1235
674 1261
674 1287
674 1339
674 1351
674 1355
674 1365
674 1422
674 1475
674 1518
674 1524
674 1530
674 1547
674 1568
674 1598
674 1663
674 1667
674 1708
674 1713
674 1745
674 1757
674 1759
674 1844
674 1855
674 1944
674 1969
674 2041
674 2062
674 2064
674 2091
674 2093
674 2099
674 2121
674 2173
674 2193
675 771
675 824
675 907
675 909
675 914
675 967
675 968
675 1206
675 1335
675 1352
675 1397
675 1532
675 1533
675 1679
675 2190
676 1967
677 687
677 699
677 701
677 713
677 739
677 763
677 765
677 769
677 841
677 887
677 924
677 938
677 952
677 977
677 987
677 989
677 1025
677 1060
677 1080
677 1109
677 1128
677 1146
677 1151
677 1189
677 1190
677 1252
677 1277
677 1285
677 1326
677 1344
677 1347
677 1370
677 1415
677 1416
677 1420
677 1422
677 1425
677 1431
677 1446
677 1464
677 1482
677 1504
677 1514
677 1530
677 1568
677 1578
677 1585
677 1586
677 1596
677 1598
677 1610
677 1629
677 1646
677 1688
677 1691
677 1699
677 1702
677 1717
677 1721
677 1734
677 1773
677 1783
677 1796
677 1802
677 1816
677 1819
677 1838
677 1844
677 1874
677 1879
677 1884
677 1901
677 1921
677 2021
677 2033
677 2038
677 2039
677 2075
677 2079
677 2090
677 2109
677 2110
677 2168
677 2196
677 2210
677 2220
678 682
678 684
678 685
678 697
678 707
678 709
678 714
678 744
678 753
678 754
678 778
678 782
678 812
678 814
678 832
678 833
678 841
678 890
678 925
678 943
678 947
678 948
678 952
678 966
678 1025
678 1035
678 1048
678 1052
678 1060
678 1068
678 1088
678 1097
678 1101
678 1113
678 1125
678 1138
678 1162
678 1176
678 1189
678 1193
678 1237
678 1246
678 1258
678 1277
678 1291
678 1320
678 1368
678 1414
678 1425
678 1436
678 1456
678 1490
678 1534
678 1538
678 1544
678 1556
678 1591
678 1599
678 1602
678 1624
678 1638
678 1640
678 1646
678 1653
678 1656
678 1696
678 1698
678 1699
678 1717
678 1780
678 1781
678 1793
678 1797
678 1802
678 1804
678 1823
678 1827
678 1830
678 1831
678 1849
678 1851
678 1860
678 1866
678 1901
678 1903
678 1925
678 1940
678 1961
678 1964
678 2001
678 2028
678 2098
678 2121
678 2148
678 2196
678 2204
678 2217
678 2220
678 2226
678 2229
679 704
679 793
679 797
679 820
679 838
679 848
679 856
679 901
679 908
679 918
679 950
679 1007
679 1024
679 1053
679 1064
679 1096
679 1207
679 1244
679 1249
679 1261
679 1290
679 1301
679 1306
679 1328
679 1356
679 1385
679 1441
679 1452
679 1505
679 1609
679 1642
679 1669
679 1703
679 1729
679 1750
679 1784
679 1798
679 1839
679 1842
679 1846
679 1853
679 1866
679 1985
679 1998
679 2015
679 2040
679 2066
679 2094
679 2114
679 2169
679 2213
680 696
680 728
680 823
680 845
680 863
680 913
680 996
680 1029
680 1069
680 1113
680 1141
680 1315
680 1339
680 1394
680 1617
680 1637
680 1659
680 1698
680 1753
680 1765
680 1800
680 1881
680 1893
680 1971
680 1993
680 2012
680 2049
680 2230
681 749
681 754
681 760
681 1036
681 1090
681 1128
681 1241
681 1252
681 1422
681 1450
681 1500
681 1507
681 1605
681 1618
681 1627
681 1635
681 1699
681 1713
681 1900
681 1947
681 2091
681 2099
681 2100
681 2158
681 2207
682 731
682 741
682 905
682 914
682 973
682 1025
682 1026
682 1045
682 1057
682 1198
682 1237
682 1269
682 1287
682 1299
682 1328
682 1351
682 1370
682 1417
682 1432
682 1502
682 1527
682 1548
682 1560
682 1622
682 1673
682 1738
682 1805
682 1812
682 1820
682 1870
682 1875
682 1931
682 1967
682 1969
682 2035
682 2092
682 2125
682 2197
683 705
683 749
683 844
683 1041
683 1201
683 1220
683 1472
683 1557
683 2025
683 2093
684 841
684 860
684 861
684 914
684 952
684 998
684 1008
684 1052
684 1088
684 1117
684 1163
684 1193
684 1218
684 1237
684 1258
684 1300
684 1499
684 1511
684 1530
684 1585
684 1602
684 1618
684 1624
684 1638
684 1641
684 1804
684 1810
684 1851
684 1904
684 1999
684 2005
684 2089
684 2098
684 2220
684 2229
685 835
685 969
685 1193
685 1206
685 1474
685 1563
685 1578
685 1699
685 1783
685 1900
685 1903
685 1914
685 1922
685 2039
685 2148
685 2214
686 902
686 1007
686 1082
686 1094
686 1181
686 1249
686 1301
686 1345
686 1398
686 1633
686 1839
686 1945
686 2134
686 2155
686 2186
686 2207
687 713
687 727
687 966
687 999
687 1042
687 1047
687 1128
687 1151
687 1246
687 1248
687 1256
687 1340
687 1347
687 1399
687 1411
687 1474
687 1475
687 1491
687 1554
687 1558
687 1598
687 1652
687 1653
687 1670
687 1694
687 1831
687 1844
687 1918
687 2021
687 2158
687 2190
687 2196
688 983
688 1057
688 1420
688 1422
688 1481
688 1606
688 1607
688 1646
688 1717
688 1734
688 1769
688 1823
688 1864
688 1899
688 1978
688 2086
688 2133
689 719
689 785
689 829
689 874
689 903
689 943
689 993
689 1062
689 1063
689 1124
689 1145
689 1149
689 1166
689 1198
689 1216
689 1223
689 1283
689 1298
689 1307
689 1358
689 1380
689 1384
689 1388
689 1489
689 1561
689 1699
689 1734
689 1763
689 1801
689 1863
689 1865
689 1970
689 1994
689 2086
689 2096
689 2129
689 2138
689 2149
689 2154
689 2228
690 744
690 814
690 823
690 845
690 863
690 924
690 1038
690 1090
690 1101
690 1109
690 1113
690 1173
690 1210
690 1316
690 1320
690 1529
690 1541
690 1606
690 1630
690 1637
690 1638
690 1659
690 1698
690 1702
690 1708
690 1717
690 1753
690 1849
690 1890
690 1898
690 1918
690 2132
690 2190
691 734
691 785
691 851
691 1062
691 1087
691 1145
691 1298
691 1384
691 1388
691 1420
691 1489
691 1639
691 1699
691 1754
691 1794
691 1795
691 1864
691 1899
691 1970
691 1974
691 2043
691 2149
691 2154
691 2199
691 2228
692 702
692 714
692 823
692 843
692 855
692 863
692 892
692 906
692 1019
692 1092
692 1185
692 1187
692 1259
692 1387
692 1401
692 1662
692 1705
692 1716
692 1719
692 1765
692 1818
692 1867
692 1982
692 2116
692 2117
692 2148
693 752
693 754
693 761
693 770
693 816
693 823
693 825
693 826
693 847
693 868
693 870
693 882
693 887
693 920
693 945
693 987
693 989
693 992
693 1037
693 1050
693 1063
693 1070
693 1077
693 1106
693 1114
693 1141
693 1145
693 1286
693 1289
693 1366
693 1372
693 1373
693 1382
693 1393
693 1433
693 1448
693 1450
693 1472
693 1475
693 1530
693 1560
693 1571
693 1588
693 1606
693 1610
693 1629
693 1668
693 1713
693 1721
693 1754
693 1819
693 1872
693 1895
693 1906
693 1922
693 1928
693 2008
693 2029
693 2033
693 2049
693 2053
693 2062
693 2080
693 2092
693 2132
693 2139
693 2174
694 716
694 763
694 782
694 806
694 815
694 836
694 911
694 914
694 927
694 947
694 958
694 962
694 970
694 1025
694 1036
694 1060
694 1128
694 1146
694 1167
694 1287
694 1305
694 1335
694 1365
694 1475
694 1492
694 1535
694 1578
694 1581
694 1596
694 1599
694 1602
694 1721
694 1756
694 1778
694 1819
694 1826
694 1831
694 1904
694 1980
694 1981
694 2023
694 2122
694 2133
694 2141
694 2168
694 2175
695 788
695 795
695 905
695 932
695 1027
695 1053
695 1101
695 1249
695 1282
695 1441
695 1463
695 1521
695 1788
695 1991
695 2027
695 2058
695 2125
695 2169
695 2213
696 754
696 825
696 826
696 863
696 919
696 989
696 1109
696 1113
696 1194
696 1320
696 1529
696 1554
696 1578
696 1687
696 1713
696 1717
696 1739
696 1819
696 1826
696 1875
696 1893
696 1900
696 1976
696 1993
696 2148
696 2167
696 2190
696 2196
696 2232
697 704
697 707
697 711
697 723
697 743
697 750
697 766
697 798
697 816
697 829
697 836
697 856
697 860
697 880
697 882
697 903
697 924
697 932
697 942
697 943
697 948
697 1003
697 1015
697 1018
697 1024
697 1028
697 1036
697 1057
697 1060
697 1070
697 1077
697 1086
697 1096
697 1101
697 1114
697 1116
697 1126
697 1130
697 1147
697 1153
697 1157
697 1175
697 1190
697 1211
697 1270
697 1279
697 1326
697 1328
697 1368
697 1406
697 1417
697 1418
697 1470
697 1487
697 1489
697 1492
697 1498
697 1506
697 1538
697 1541
697 1549
697 1556
697 1558
697 1591
697 1605
697 1646
697 1658
697 1667
697 1669
697 1690
697 1702
697 1725
697 1726
697 1744
697 1754
697 1767
697 1771
697 1776
697 1784
697 1799
697 1804
697 1807
697 1830
697 1831
697 1841
697 1852
697 1868
697 1896
697 1929
697 1930
697 1938
697 1943
697 1948
697 1955
697 1977
697 1981
697 2011
697 2031
697 2045
697 2056
697 2070
697 2107
697 2120
697 2121
697 2150
697 2156
697 2165
697 2174
697 2175
697 2181
697 2182
697 2202
697 2204
697 2206
697 2208
698 754
698 768
698 967
698 1209
698 1226
698 1389
698 1407
698 1529
698 1704
698 2046
698 2190
699 812
699 834
699 867
699 911
699 914
699 966
699 1018
699 1065
699 1151
699 1171
699 1192
699 1310
699 1373
699 1399
699 1464
699 1475
699 1487
699 1491
699 1493
699 1530
699 1535
699 1606
699 1609
699 1635
699 1658
699 1664
699 1676
699 1735
699 1784
699 1793
699 1799
699 1808
699 1843
699 1852
699 1874
699 1881
699 1896
699 1906
699 1928
699 1940
699 1948
699 1963
699 2024
699 2045
699 2089
699 2193
699 2221
699 2226
700 759
700 886
700 911
700 1084
700 1087
700 1179
700 1223
700 1420
700 1481
700 1578
700 1592
700 1734
700 1738
700 1758
700 1794
700 1894
700 1899
700 1934
701 741
701 837
701 851
701 981
701 1001
701 1045
701 1084
701 1103
701 1124
701 1299
701 1330
701 1338
701 1384
701 1390
701 1414
701 1420
701 1457
701 1502
701 1536
701 1588
701 1639
701 1646
701 1699
701 1713
701 1796
701 1801
701 1823
701 1870
701 1935
701 1943
701 1951
701 2010
701 2016
701 2043
701 2056
701 2076
701 2187
701 2228
702 729
702 763
702 772
702 809
702 813
702 823
702 855
702 859
702 863
702 924
702 929
702 963
702 1002
702 1019
702 1023
702 1112
702 1116
702 1127
702 1141
702 1185
702 1187
702 1196
702 1259
702 1279
702 1366
702 1371
702 1373
702 1387
702 1431
702 1439
702 1443
702 1450
702 1552
702 1596
702 1662
702 1677
702 1719
702 1725
702 1750
702 1779
702 1784
702 1808
702 1818
702 1907
702 1928
702 1935
702 1939
702 1942
702 1976
702 2012
702 2038
702 2108
702 2116
702 2132
702 2148
702 2156
702 2161
702 2163
702 2164
703 820
703 932
703 957
703 1148
703 1161
703 1167
703 1249
703 1282
703 1575
703 1692
703 1798
703 1934
703 1991
703 2226
704 763
704 810
704 857
704 863
704 870
704 873
704 882
704 913
704 1002
704 1004
704 1015
704 1096
704 1123
704 1171
704 1185
704 1187
704 1207
704 1233
704 1382
704 1384
704 1428
704 1445
704 1457
704 1558
704 1609
704 1658
704 1663
704 1669
704 1697
704 1699
704 1712
704 1726
704 1750
704 1779
704 1784
704 1808
704 1820
704 1935
704 1938
704 1948
704 1982
704 1983
704 2101
704 2116
704 2161
704 2174
705 711
705 880
705 970
705 1020
705 1067
705 1077
705 1101
705 1320
705 1323
705 1446
705 1499
705 1541
705 1556
705 1641
705 1650
705 1654
705 1702
705 1754
705 1810
705 2194
706 958
706 1978
707 712
707 730
707 765
707 776
707 812
707 839
707 886
707 897
707 924
707 932
707 943
707 948
707 964
707 997
707 1015
707 1025
707 1030
707 1068
707 1070
707 1088
707 1114
707 1144
707 1172
707 1305
707 1323
707 1351
707 1357
707 1361
707 1416
707 1420
707 1422
707 1425
707 1436
707 1534
707 1540
707 1556
707 1557
707 1579
707 1594
707 1602
707 1644
707 1654
707 1669
707 1676
707 1699
707 1780
707 1804
707 1831
707 1841
707 1893
707 1905
707 1911
707 1936
707 1981
707 1987
707 2010
707 2127
707 2141
707 2165
707 2168
707 2174
707 2181
707 2202
707 2204
707 2206
708 866
708 984
708 1090
708 1127
708 1145
708 1147
708 1149
708 1173
708 1241
708 1267
708 1333
708 1358
708 1362
708 1384
708 1489
708 1513
708 1536
708 1626
708 1699
708 1796
708 1894
708 2076
708 2099
708 2228
709 785
709 828
709 837
709 841
709 867
709 903
709 1062
709 1118
709 1137
709 1145
709 1254
709 1270
709 1328
709 1384
709 1453
709 1460
709 1561
709 1763
709 1801
709 1844
709 1863
709 1911
709 1943
709 1951
709 1970
709 2008
709 2033
709 2056
709 2073
709 2081
709 2207
710 731
710 817
710 826
710 945
710 1002
710 1035
710 1128
710 1243
710 1310
710 1326
710 1343
710 1373
710 1431
710 1494
710 1518
710 1541
710 1635
710 1799
710 1800
710 1813
710 1819
710 1862
710 1993
710 2038
710 2185
710 2230
711 712
711 754
711 769
711 814
711 841
711 863
711 880
711 914
711 924
711 932
711 948
711 979
711 999
711 1023
711 1077
711 1101
711 1125
711 1153
711 1162
711 1193
711 1240
711 1252
711 1262
711 1277
711 1291
711 1320
711 1323
711 1362
711 1387
711 1406
711 1414
711 1446
711 1464
711 1490
711 1499
711 1506
711 1507
711 1534
711 1541
711 1549
711 1556
711 1599
711 1600
711 1623
711 1637
711 1638
711 1641
711 1664
711 1666
711 1667
711 1690
711 1702
711 1708
711 1718
711 1725
711 1730
711 1754
711 1767
711 1768
711 1776
711 1785
711 1793
711 1799
711 1806
711 1810
711 1821
711 1844
711 1849
711 1851
711 1868
711 1878
711 1898
711 1903
711 1929
711 1942
711 1964
711 1972
711 1999
711 2033
711 2089
711 2103
711 2148
711 2158
711 2182
711 2202
711 2204
711 2217
711 2228
712 749
712 781
712 839
712 1068
712 1083
712 1098
712 1101
712 1120
712 1173
712 1192
712 1193
712 1201
712 1320
712 1499
712 1507
712 1535
712 1595
712 1602
712 1623
712 1667
712 1696
712 1699
712 1701
712 1780
712 1797
712 1804
712 1835
712 1901
712 1904
712 1976
712 1981
712 1997
712 2093
713 748
713 817
713 1101
713 1192
713 1218
713 1243
713 1305
713 1352
713 1422
713 1464
713 1474
713 1475
713 1491
713 1510
713 1514
713 1529
713 1565
713 1598
713 1612
713 1635
713 1636
713 1694
713 1724
713 1840
713 1912
713 2021
713 2091
713 2121
713 2210
714 730
714 752
714 766
714 828
714 836
714 843
714 886
714 890
714 892
714 935
714 988
714 1035
714 1041
714 1073
714 1079
714 1101
714 1102
714 1162
714 1232
714 1312
714 1341
714 1422
714 1434
714 1436
714 1446
714 1475
714 1492
714 1499
714 1506
714 1541
714 1544
714 1576
714 1588
714 1600
714 1604
714 1654
714 1661
714 1696
714 1716
714 1725
714 1731
714 1781
714 1793
714 1797
714 1804
714 1827
714 1831
714 1904
714 1907
714 1916
714 1955
714 1977
714 2016
714 2024
714 2025
714 2045
714 2098
714 2116
714 2189
714 2217
714 2229
715 769
715 870
715 889
715 899
715 911
715 931
715 955
715 1028
715 1067
715 1068
715 1155
715 1187
715 1235
715 1371
715 1413
715 1422
715 1467
715 1523
715 1644
715 1680
715 1690
715 1702
715 1819
715 1867
715 1935
715 2014
715 2101
715 2119
715 2165
716 800
716 855
716 859
716 876
716 895
716 900
716 906
716 911
716 931
716 947
716 951
716 955
716 963
716 986
716 1006
716 1022
716 1046
716 1055
716 1116
716 1121
716 1123
716 1138
716 1185
716 1190
716 1241
716 1286
716 1289
716 1296
716 1337
716 1371
716 1373
716 1387
716 1396
716 1401
716 1432
716 1439
716 1442
716 1449
716 1465
716 1475
716 1491
716 1492
716 1500
716 1503
716 1519
716 1552
716 1558
716 1571
716 1588
716 1626
716 1631
716 1674
716 1677
716 1721
716 1735
716 1750
716 1779
716 1784
716 1804
716 1813
716 1818
716 1829
716 1843
716 1852
716 1854
716 1872
716 1895
716 1915
716 1923
716 1935
716 1966
716 1972
716 1997
716 2014
716 2024
716 2026
716 2028
716 2072
716 2113
716 2116
716 2120
716 2181
717 794
717 956
717 1126
717 1217
717 1233
717 1454
717 1574
717 1679
717 1799
717 1827
717 1844
717 1855
717 1900
717 2091
717 2184
717 2231
718 761
718 771
718 810
718 823
718 849
718 886
718 893
718 915
718 924
718 968
718 1025
718 1039
718 1100
718 1151
718 1231
718 1239
718 1250
718 1291
718 1310
718 1366
718 1376
718 1392
718 1393
718 1394
718 1422
718 1507
718 1533
718 1537
718 1539
718 1590
718 1612
718 1664
718 1667
718 1699
718 1701
718 1710
718 1711
718 1751
718 1773
718 1799
718 1800
718 1816
718 1833
718 1836
718 1874
718 1875
718 1887
718 1921
718 1963
718 1987
718 2045
718 2062
718 2090
718 2100
718 2101
718 2117
718 2140
718 2173
718 2230
719 833
719 874
719 982
719 993
719 1348
719 1357
719 1462
719 1561
719 1624
719 1763
719 2154
720 849
720 863
720 865
720 892
720 922
720 951
720 955
720 963
720 1022
720 1039
720 1190
720 1196
720 1234
720 1239
720 1251
720 1255
720 1257
720 1268
720 1296
720 1317
720 1326
720 1329
720 1376
720 1394
720 1442
720 1477
720 1529
720 1537
720 1552
720 1603
720 1617
720 1659
720 1665
720 1700
720 1781
720 1843
720 1857
720 1889
720 1909
720 1947
720 1984
720 1997
720 2085
720 2132
720 2190
720 2198
721 855
721 859
721 869
721 906
721 1185
721 1231
721 1235
721 1317
721 1372
721 1615
721 1719
721 1818
721 1936
721 1947
721 1988
721 2143
722 741
722 903
722 970
722 998
722 1134
722 1307
722 1328
722 1384
722 1732
722 1819
722 1967
722 2056
722 2070
722 2125
723 729
723 792
723 799
723 859
723 867
723 869
723 897
723 911
723 938
723 971
723 990
723 1005
723 1030
723 1046
723 1074
723 1092
723 1121
723 1172
723 1219
723 1259
723 1279
723 1312
723 1318
723 1323
723 1412
723 1418
723 1437
723 1438
723 1445
723 1457
723 1538
723 1549
723 1594
723 1615
723 1639
723 1669
723 1675
723 1677
723 1725
723 1743
723 1762
723 1813
723 1841
723 1876
723 1880
723 1904
723 1936
723 1943
723 1948
723 1955
723 1972
723 1977
723 1988
723 2104
723 2116
723 2131
723 2150
723 2152
723 2164
723 2200
724 754
724 763
724 851
724 863
724 866
724 945
724 989
724 1015
724 1055
724 1107
724 1113
724 1141
724 1151
724 1231
724 1233
724 1235
724 1310
724 1320
724 1341
724 1386
724 1401
724 1410
724 1464
724 1475
724 1481
724 1483
724 1507
724 1539
724 1610
724 1629
724 1646
724 1664
724 1687
724 1699
724 1702
724 1717
724 1727
724 1771
724 1779
724 1797
724 1804
724 1816
724 1819
724 1837
724 1843
724 1855
724 1869
724 1875
724 1900
724 1912
724 1963
724 1972
724 1993
724 2026
724 2033
724 2039
724 2049
724 2062
724 2080
724 2113
724 2149
724 2165
724 2184
724 2226
725 786
725 788
725 921
725 1403
725 1468
725 1638
725 1812
725 1828
725 1908
725 1962
725 1977
725 1985
725 2031
725 2157
725 2183
726 770
726 978
726 1059
726 1128
726 1227
726 1404
726 1514
726 1815
726 1855
726 1892
726 1904
726 1922
726 2041
726 2091
726 2142
726 2196
726 2231
727 760
727 794
727 835
727 851
727 924
727 958
727 1000
727 1025
727 1160
727 1174
727 1233
727 1240
727 1262
727 1340
727 1363
727 1392
727 1408
727 1456
727 1473
727 1526
727 1699
727 1708
727 1713
727 1826
727 1827
727 1840
727 1844
727 1879
727 1920
727 1944
727 1969
727 1993
727 2033
727 2071
727 2080
727 2091
727 2103
727 2145
727 2193
727 2194
727 2196
727 2226
728 823
728 846
728 847
728 910
728 948
728 974
728 999
728 1002
728 1571
728 1721
728 1862
728 1955
728 2226
729 754
729 809
729 813
729 859
729 885
729 897
729 912
729 924
729 963
729 987
729 990
729 1030
729 1070
729 1097
729 1112
729 1136
729 1259
729 1268
729 1279
729 1312
729 1326
729 1438
729 1491
729 1549
729 1552
729 1574
729 1646
729 1677
729 1684
729 1690
729 1705
729 1719
729 1781
729 1813
729 1843
729 1854
729 1867
729 1914
729 1947
729 1977
729 2108
729 2132
729 2150
729 2152
729 2162
729 2164
729 2168
729 2174
730 743
730 765
730 766
730 828
730 845
730 937
730 945
730 947
730 952
730 987
730 988
730 1015
730 1047
730 1088
730 1090
730 1098
730 1125
730 1127
730 1138
730 1208
730 1232
730 1256
730 1258
730 1291
730 1368
730 1386
730 1392
730 1422
730 1434
730 1464
730 1536
730 1568
730 1588
730 1597
730 1598
730 1602
730 1638
730 1670
730 1716
730 1750
730 1797
730 1810
730 1844
730 1903
730 1904
730 1907
730 1940
730 1955
730 1972
730 2011
730 2023
730 2045
730 2098
730 2145
730 2148
730 2156
730 2204
730 2206
730 2217
731 780
731 804
731 817
731 828
731 844
731 851
731 880
731 916
731 953
731 983
731 1035
731 1041
731 1052
731 1057
731 1084
731 1138
731 1157
731 1198
731 1217
731 1236
731 1254
731 1310
731 1338
731 1351
731 1427
731 1494
731 1496
731 1607
731 1646
731 1734
731 1764
731 1812
731 1823
731 1865
731 1970
731 2125
731 2154
732 755
732 820
732 923
732 960
732 965
732 975
732 1108
732 1139
732 1215
732 1228
732 1249
732 1266
732 1295
732 1302
732 1313
732 1359
732 1466
732 1527
732 1528
732 1557
732 1628
732 1770
732 1796
732 1828
732 1845
732 1866
732 1873
732 1910
732 1941
732 1991
732 2000
732 2027
732 2048
732 2066
732 2097
732 2114
732 2155
732 2159
732 2183
732 2200
732 2203
732 2207
732 2213
733 1215
733 1297
733 1557
733 1770
734 798
734 804
734 829
734 876
734 887
734 905
734 911
734 939
734 941
734 942
734 973
734 1001
734 1005
734 1026
734 1045
734 1060
734 1062
734 1084
734 1087
734 1124
734 1145
734 1146
734 1147
734 1179
734 1211
734 1214
734 1256
734 1298
734 1422
734 1427
734 1457
734 1479
734 1536
734 1559
734 1560
734 1607
734 1668
734 1670
734 1682
734 1685
734 1734
734 1737
734 1738
734 1806
734 1831
734 1864
734 1886
734 1911
734 1934
734 1994
734 2010
734 2013
734 2045
734 2086
734 2133
734 2138
734 2144
734 2156
734 2165
734 2187
734 2227
735 741
735 742
735 744
735 789
735 867
735 868
735 870
735 910
735 931
735 952
735 973
735 981
735 984
735 1031
735 1063
735 1067
735 1090
735 1149
735 1173
735 1287
735 1300
735 1304
735 1333
735 1361
735 1380
735 1405
735 1417
735 1422
735 1457
735 1489
735 1535
735 1536
735 1607
735 1615
735 1673
735 1794
735 1796
735 1886
735 1904
735 1931
735 1935
735 1951
735 1976
735 2010
735 2026
735 2076
735 2093
735 2149
735 2181
735 2228
736 755
736 840
736 856
737 741
737 851
737 867
737 874
737 911
737 957
737 1006
737 1041
737 1103
737 1127
737 1133
737 1137
737 1145
737 1202
737 1219
737 1249
737 1254
737 1267
737 1277
737 1328
737 1338
737 1384
737 1432
737 1441
737 1457
737 1462
737 1491
737 1557
737 1560
737 1569
737 1588
737 1615
737 1699
737 1771
737 1796
737 1838
737 1883
737 1911
737 1931
737 1943
737 1972
737 1994
737 2016
737 2035
737 2155
737 2207
737 2221
738 796
738 1233
738 1987
738 2119
738 2184
739 741
739 811
739 835
739 903
739 920
739 936
739 941
739 989
739 1025
739 1041
739 1062
739 1134
739 1145
739 1198
739 1280
739 1291
739 1294
739 1307
739 1392
739 1403
739 1474
739 1475
739 1481
739 1560
739 1565
739 1577
739 1622
739 1671
739 1814
739 1879
739 1934
739 1970
739 1986
739 2039
739 2055
739 2056
739 2081
739 2094
739 2138
739 2197
739 2227
739 2228
740 806
740 1129
740 1145
740 1153
740 1191
740 1233
740 1435
740 1449
740 1638
740 1644
740 1680
740 1804
740 1826
740 1829
740 1843
740 1900
740 1952
740 1977
740 2050
741 868
741 897
741 911
741 916
741 926
741 942
741 953
741 981
741 1005
741 1008
741 1010
741 1017
741 1025
741 1028
741 1084
741 1086
741 1088
741 1142
741 1147
741 1149
741 1219
741 1241
741 1254
741 1259
741 1269
741 1279
741 1283
741 1294
741 1299
741 1300
741 1304
741 1312
741 1328
741 1333
741 1336
741 1338
741 1357
741 1358
741 1384
741 1387
741 1403
741 1412
741 1413
741 1414
741 1420
741 1453
741 1457
741 1460
741 1470
741 1474
741 1479
741 1489
741 1493
741 1519
741 1536
741 1560
741 1588
741 1622
741 1639
741 1671
741 1701
741 1726
741 1738
741 1758
741 1771
741 1774
741 1795
741 1801
741 1803
741 1805
741 1830
741 1870
741 1886
741 1911
741 1957
741 1965
741 1967
741 1974
741 1986
741 2011
741 2076
741 2164
741 2179
741 2181
741 2188
741 2202
741 2206
741 2227
741 2228
742 803
742 887
742 942
742 992
742 1001
742 1004
742 1010
742 1026
742 1057
742 1068
742 1103
742 1142
742 1149
742 1304
742 1361
742 1384
742 1417
742 1432
742 1502
742 1536
742 1607
742 1639
742 1805
742 1904
742 1905
742 1935
742 2076
742 2093
742 2150
742 2181
742 2228
743 806
743 815
743 816
743 841
743 886
743 966
743 987
743 988
743 1025
743 1060
743 1065
743 1068
743 1074
743 1160
743 1162
743 1421
743 1425
743 1556
743 1581
743 1638
743 1696
743 1714
743 1731
743 1804
743 1807
743 1831
743 1868
743 1907
743 1988
743 2045
743 2098
743 2136
743 2165
743 2174
743 2185
743 2202
743 2217
744 763
744 768
744 781
744 814
744 827
744 845
744 863
744 886
744 910
744 929
744 937
744 984
744 1023
744 1042
744 1047
744 1074
744 1090
744 1097
744 1101
744 1105
744 1112
744 1125
744 1141
744 1172
744 1173
744 1187
744 1193
744 1196
744 1226
744 1239
744 1240
744 1272
744 1394
744 1399
744 1439
744 1444
744 1447
744 1490
744 1506
744 1512
744 1529
744 1564
744 1571
744 1596
744 1626
744 1630
744 1637
744 1638
744 1650
744 1653
744 1659
744 1666
744 1667
744 1672
744 1698
744 1702
744 1708
744 1725
744 1727
744 1745
744 1753
744 1819
744 1844
744 1849
744 1860
744 1890
744 1918
744 1928
744 1942
744 1972
744 1976
744 2001
744 2026
744 2033
744 2049
744 2052
744 2103
744 2118
744 2145
744 2148
744 2158
744 2161
744 2184
744 2190
744 2204
745 755
745 758
745 848
745 856
745 961
745 1215
745 1501
745 1546
745 1796
745 1910
746 863
746 892
746 900
746 937
746 1000
746 1014
746 1030
746 1058
746 1112
746 1172
746 1186
746 1221
746 1257
746 1272
746 1317
746 1401
746 1438
746 1439
746 1477
746 1480
746 1490
746 1508
746 1606
746 1617
746 1805
746 1854
746 1928
746 1947
746 1949
746 2165
747 890
747 919
747 1062
747 1145
747 1362
747 1686
747 1691
747 1793
747 1802
747 1814
747 2039
747 2159
748 777
748 823
748 978
748 1196
748 1373
748 1422
748 1618
748 1626
748 1635
748 1832
748 1914
748 1929
748 2021
748 2099
749 760
749 763
749 766
749 839
749 844
749 882
749 886
749 927
749 989
749 996
749 1018
749 1123
749 1126
749 1149
749 1190
749 1240
749 1271
749 1323
749 1333
749 1422
749 1426
749 1475
749 1535
749 1543
749 1554
749 1556
749 1584
749 1626
749 1663
749 1674
749 1699
749 1701
749 1707
749 1713
749 1735
749 1820
749 1844
749 1855
749 1859
749 1905
749 1920
749 1955
749 1976
749 1993
749 2053
749 2056
749 2084
749 2091
749 2119
749 2174
749 2194
749 2223
750 760
750 761
750 770
750 824
750 912
750 924
750 989
750 1011
750 1023
750 1025
750 1038
750 1059
750 1072
750 1088
750 1106
750 1128
750 1194
750 1240
750 1291
750 1326
750 1368
750 1392
750 1436
750 1450
750 1506
750 1518
750 1554
750 1578
750 1613
750 1687
750 1689
750 1701
750 1713
750 1799
750 1816
750 1826
750 1855
750 1875
750 1922
750 1932
750 1993
750 2062
750 2119
750 2184
751 859
751 867
751 937
751 964
751 1186
751 1212
751 1259
751 1312
751 1471
751 1490
751 1538
751 1615
751 1852
751 1876
751 1983
751 2116
751 2148
751 2174
751 2188
752 754
752 766
752 769
752 781
752 806
752 814
752 816
752 863
752 870
752 878
752 932
752 937
752 938
752 948
752 963
752 987
752 1023
752 1026
752 1089
752 1105
752 1127
752 1147
752 1162
752 1172
752 1175
752 1204
752 1219
752 1231
752 1232
752 1256
752 1320
752 1339
752 1368
752 1372
752 1396
752 1399
752 1422
752 1431
752 1437
752 1446
752 1456
752 1472
752 1490
752 1506
752 1523
752 1530
752 1538
752 1541
752 1549
752 1584
752 1588
752 1600
752 1630
752 1637
752 1653
752 1666
752 1667
752 1670
752 1672
752 1690
752 1702
752 1776
752 1792
752 1826
752 1844
752 1898
752 1905
752 1918
752 1928
752 1940
752 1942
752 1964
752 2001
752 2029
752 2038
752 2045
752 2064
752 2068
752 2104
752 2135
752 2148
752 2150
752 2156
752 2168
753 999
753 1475
753 1708
753 1717
753 1751
753 1890
753 1929
753 2196
754 766
754 781
754 815
754 828
754 863
754 870
754 914
754 932
754 973
754 974
754 1020
754 1079
754 1113
754 1117
754 1189
754 1238
754 1246
754 1256
754 1262
754 1296
754 1308
754 1310
754 1326
754 1340
754 1347
754 1378
754 1382
754 1407
754 1410
754 1426
754 1439
754 1470
754 1474
754 1506
754 1529
754 1534
754 1538
754 1554
754 1598
754 1604
754 1623
754 1626
754 1653
754 1656
754 1661
754 1690
754 1699
754 1702
754 1710
754 1713
754 1717
754 1750
754 1781
754 1799
754 1810
754 1813
754 1819
754 1823
754 1844
754 1892
754 1893
754 1929
754 1932
754 1940
754 1951
754 1984
754 1997
754 2076
754 2103
754 2109
754 2118
754 2139
754 2145
754 2165
754 2174
754 2189
754 2190
754 2223
754 2226
755 840
755 872
755 940
755 964
755 1094
755 1168
755 1215
755 1228
755 1244
755 1297
755 1355
755 1356
755 1458
755 1678
755 1720
755 1910
755 1958
755 1960
755 2096
755 2157
755 2169
755 2183
755 2200
756 958
756 1000
756 1090
756 1163
756 1177
756 1341
756 1343
756 1410
756 1422
756 1524
756 1635
756 1944
756 1978
756 1997
756 2091
756 2099
756 2231
757 950
757 959
757 1012
757 1110
757 1158
757 1215
757 1297
757 1736
757 2040
757 2065
757 2069
757 2070
758 820
758 1172
758 1213
758 1452
758 1548
758 1845
758 1925
758 1954
758 1958
758 2048
758 2096
758 2105
758 2164
758 2213
759 778
759 780
759 837
759 866
759 903
759 970
759 973
759 1005
759 1036
759 1057
759 1062
759 1087
759 1100
759 1107
759 1120
759 1152
759 1160
759 1216
759 1254
759 1269
759 1289
759 1299
759 1310
759 1335
759 1338
759 1351
759 1361
759 1384
759 1414
759 1420
759 1427
759 1504
759 1511
759 1514
759 1544
759 1559
759 1564
759 1611
759 1612
759 1646
759 1731
759 1734
759 1738
759 1744
759 1754
759 1769
759 1794
759 1805
759 1823
759 1864
759 1901
759 1911
759 1943
759 1944
759 1997
759 2010
759 2016
759 2045
759 2070
759 2076
759 2086
759 2122
759 2133
759 2138
759 2189
759 2208
759 2228
760 781
760 847
760 870
760 889
760 913
760 932
760 966
760 984
760 999
760 1042
760 1059
760 1128
760 1144
760 1172
760 1233
760 1240
760 1241
760 1262
760 1387
760 1450
760 1506
760 1507
760 1637
760 1667
760 1699
760 1701
760 1717
760 1751
760 1779
760 1780
760 1808
760 1829
760 1844
760 1890
760 1918
760 2014
760 2041
760 2091
760 2100
760 2113
760 2145
760 2148
760 2174
760 2223
760 2231
761 771
761 794
761 802
761 830
761 1002
761 1065
761 1124
761 1194
761 1233
761 1366
761 1410
761 1421
761 1426
761 1510
761 1518
761 1554
761 1578
761 1618
761 1699
761 1717
761 1759
761 1804
761 1862
761 1888
761 1897
761 1922
761 1969
761 1993
761 2145
761 2219
762 856
762 1086
762 1242
762 1295
762 1476
762 1528
762 1557
762 1678
762 1729
762 1770
762 1828
762 1960
762 2027
762 2066
762 2097
762 2186
762 2201
762 2203
763 839
763 844
763 845
763 913
763 931
763 943
763 962
763 966
763 980
763 1002
763 1046
763 1092
763 1115
763 1116
763 1141
763 1149
763 1185
763 1192
763 1196
763 1226
763 1365
763 1367
763 1368
763 1382
763 1394
763 1408
763 1422
763 1442
763 1444
763 1450
763 1457
763 1507
763 1547
763 1556
763 1578
763 1580
763 1583
763 1596
763 1599
763 1637
763 1638
763 1667
763 1674
763 1677
763 1682
763 1698
763 1699
763 1713
763 1739
763 1777
763 1815
763 1819
763 1854
763 1892
763 1906
763 1914
763 1916
763 1932
763 1965
763 1976
763 1988
763 1993
763 2014
763 2016
763 2041
763 2049
763 2116
763 2145
763 2163
763 2214
764 937
764 1372
765 843
765 967
765 991
765 1025
765 1050
765 1081
765 1098
765 1101
765 1144
765 1146
765 1163
765 1211
765 1258
765 1327
765 1370
765 1422
765 1425
765 1435
765 1449
765 1509
765 1544
765 1654
765 1665
765 1713
765 1731
765 1792
765 1797
765 1901
765 1964
765 2007
765 2075
765 2112
765 2146
765 2217
766 770
766 804
766 806
766 814
766 844
766 935
766 948
766 958
766 1022
766 1028
766 1036
766 1042
766 1055
766 1070
766 1092
766 1097
766 1114
766 1172
766 1190
766 1256
766 1320
766 1335
766 1341
766 1386
766 1390
766 1434
766 1457
766 1487
766 1506
766 1512
766 1534
766 1536
766 1584
766 1602
766 1604
766 1605
766 1626
766 1661
766 1690
766 1716
766 1781
766 1795
766 1804
766 1843
766 1936
766 1940
766 1964
766 2011
766 2033
766 2054
766 2098
766 2148
766 2174
766 2228
767 824
767 1018
767 1042
767 1128
767 1160
767 1192
767 1524
767 1535
767 1543
767 1553
767 1566
767 1611
767 1735
767 1897
767 1976
767 2039
767 2078
767 2103
767 2145
767 2193
768 771
768 913
768 935
768 1105
768 1187
768 1239
768 1257
768 1316
768 1376
768 1461
768 1475
768 1529
768 1551
768 1617
768 1637
768 1672
768 1700
768 1781
768 1819
768 1929
768 1946
768 1975
768 1976
768 1989
768 1997
768 2132
768 2189
768 2190
769 817
769 819
769 834
769 847
769 899
769 910
769 924
769 929
769 931
769 979
769 1021
769 1042
769 1055
769 1065
769 1080
769 1097
769 1105
769 1114
769 1120
769 1138
769 1144
769 1151
769 1153
769 1163
769 1171
769 1173
769 1232
769 1305
769 1320
769 1365
769 1368
769 1396
769 1399
769 1438
769 1450
769 1474
769 1503
769 1541
769 1568
769 1596
769 1598
769 1600
769 1627
769 1645
769 1653
769 1658
769 1699
769 1733
769 1792
769 1819
769 1872
769 1878
769 1881
769 1896
769 1903
769 1929
769 1972
769 1976
769 2026
769 2061
769 2064
769 2113
769 2118
769 2135
769 2163
769 2168
769 2190
770 812
770 882
770 1063
770 1235
770 1240
770 1596
770 1668
770 1747
770 1781
770 1827
770 2029
770 2062
770 2080
770 2139
770 2163
770 2184
771 810
771 863
771 913
771 1039
771 1100
771 1128
771 1231
771 1233
771 1250
771 1310
771 1326
771 1329
771 1393
771 1410
771 1507
771 1514
771 1516
771 1529
771 1539
771 1590
771 1612
771 1634
771 1672
771 1799
771 1836
771 1837
771 1881
771 1921
771 2139
771 2184
771 2190
771 2211
772 799
772 813
772 823
772 984
772 987
772 1025
772 1030
772 1072
772 1100
772 1127
772 1184
772 1220
772 1257
772 1268
772 1371
772 1477
772 1507
772 1535
772 1596
772 1626
772 1646
772 1677
772 1699
772 1714
772 1735
772 1750
772 1777
772 1843
772 1857
772 1861
772 1876
772 1903
772 1940
772 1964
772 1983
772 1997
772 2039
772 2049
772 2054
772 2145
772 2158
772 2180
772 2204
773 1532
774 1243
774 1529
774 1590
774 1612
774 1773
774 1815
774 1881
774 2090
774 2139
774 2190
774 2230
775 1394
775 1721
775 1856
775 2080
776 997
776 1309
776 1599
776 1699
777 834
777 866
777 882
777 917
777 945
777 1000
777 1026
777 1128
777 1146
777 1235
777 1287
777 1393
777 1411
777 1422
777 1475
777 1518
777 1524
777 1612
777 1618
777 1646
777 1713
777 1724
777 1744
777 1829
777 1844
777 1863
777 1906
777 1915
777 1969
777 2018
777 2041
777 2064
777 2091
777 2099
777 2112
777 2163
777 2193
777 2205
778 814
778 832
778 841
778 851
778 861
778 866
778 886
778 890
778 1035
778 1036
778 1088
778 1101
778 1120
778 1146
778 1193
778 1218
778 1252
778 1262
778 1511
778 1534
778 1544
778 1565
778 1611
778 1636
778 1638
778 1641
778 1650
778 1702
778 1731
778 1793
778 1810
778 1851
778 1927
778 1961
778 2089
778 2125
778 2208
778 2220
778 2229
779 1250
780 785
780 837
780 847
780 851
780 983
780 1026
780 1287
780 1299
780 1307
780 1351
780 1384
780 1388
780 1414
780 1420
780 1422
780 1427
780 1489
780 1513
780 1560
780 1561
780 1607
780 1646
780 1734
780 1794
780 1823
780 1832
780 1860
780 1865
780 1899
780 1989
780 2103
780 2125
780 2199
780 2227
780 2228
781 814
781 827
781 836
781 841
781 845
781 863
781 866
781 924
781 932
781 937
781 943
781 947
781 984
781 999
781 1015
781 1020
781 1023
781 1042
781 1048
781 1077
781 1084
781 1097
781 1098
781 1101
781 1105
781 1106
781 1113
781 1125
781 1147
781 1160
781 1162
781 1182
781 1189
781 1193
781 1199
781 1239
781 1240
781 1252
781 1258
781 1262
781 1341
781 1347
781 1384
781 1416
781 1446
781 1456
781 1492
781 1506
781 1507
781 1513
781 1518
781 1541
781 1544
781 1571
781 1591
781 1596
781 1599
781 1602
781 1606
781 1613
781 1617
781 1623
781 1626
781 1637
781 1641
781 1646
781 1650
781 1653
781 1654
781 1664
781 1666
781 1667
781 1676
781 1690
781 1699
781 1702
781 1717
781 1718
781 1738
781 1745
781 1753
781 1804
781 1844
781 1849
781 1859
781 1860
781 1865
781 1890
781 1898
781 1903
781 1904
781 1905
781 1907
781 1918
781 1920
781 1928
781 1929
781 1935
781 1955
781 1957
781 1964
781 1970
781 1972
781 1976
781 1977
781 1994
781 2007
781 2033
781 2045
781 2049
781 2054
781 2084
781 2118
781 2148
781 2174
781 2181
781 2204
781 2221
782 806
782 841
782 851
782 866
782 932
782 952
782 1088
782 1101
782 1162
782 1218
782 1333
782 1422
782 1473
782 1490
782 1499
782 1500
782 1534
782 1556
782 1636
782 1638
782 1679
782 1696
782 1698
782 1699
782 1797
782 1804
782 1823
782 1851
782 1920
782 2028
782 2092
782 2146
782 2158
782 2217
782 2226
782 2229
783 787
783 923
783 1154
783 1161
783 1213
783 1642
783 1846
783 1978
784 786
784 788
784 940
784 1064
784 1129
784 1742
784 1962
784 1977
784 2017
784 2160
784 2183
785 804
785 828
785 835
785 841
785 844
785 876
785 886
785 903
785 916
785 927
785 939
785 941
785 977
785 1045
785 1051
785 1057
785 1070
785 1107
785 1124
785 1130
785 1145
785 1179
785 1254
785 1270
785 1298
785 1307
785 1312
785 1357
785 1380
785 1381
785 1388
785 1415
785 1417
785 1427
785 1479
785 1481
785 1534
785 1596
785 1599
785 1624
785 1636
785 1668
785 1676
785 1707
785 1724
785 1734
785 1763
785 1764
785 1794
785 1806
785 1814
785 1860
785 1864
785 1870
785 1898
785 1899
785 1934
785 1957
785 1970
785 1986
785 1994
785 1999
785 2010
785 2028
785 2031
785 2039
785 2056
785 2086
785 2133
785 2138
785 2151
785 2154
785 2182
785 2199
785 2228
786 805
786 821
786 901
786 926
786 940
786 1145
786 1369
786 1403
786 1435
786 1501
786 1638
786 1742
786 1812
786 1821
786 1908
786 1977
786 2027
786 2183
787 898
787 904
787 923
787 1057
787 1215
787 1383
787 1545
787 1703
787 1766
787 1850
787 1925
787 2009
787 2094
787 2160
788 960
788 961
788 1009
788 1139
788 1168
788 1213
788 1245
788 1249
788 1406
788 1452
788 1527
788 1608
788 1628
788 1639
788 1729
788 1746
788 1748
788 1845
788 1866
788 1925
788 2009
788 2058
788 2097
788 2157
788 2200
789 851
789 973
789 977
789 1052
789 1096
789 1147
789 1252
789 1262
789 1304
789 1330
789 1361
789 1384
789 1457
789 1519
789 1536
789 1556
789 1565
789 1699
789 1864
789 1870
789 1993
789 2005
789 2056
789 2129
789 2175
789 2177
789 2207
790 940
790 1241
790 1249
791 1875
791 1993
791 2184
791 2190
792 858
792 878
792 927
792 938
792 939
792 988
792 1004
792 1005
792 1017
792 1028
792 1062
792 1098
792 1101
792 1136
792 1172
792 1214
792 1232
792 1256
792 1320
792 1323
792 1324
792 1341
792 1342
792 1361
792 1372
792 1405
792 1406
792 1418
792 1427
792 1437
792 1457
792 1462
792 1538
792 1541
792 1591
792 1599
792 1623
792 1635
792 1639
792 1653
792 1669
792 1670
792 1714
792 1725
792 1726
792 1738
792 1743
792 1767
792 1776
792 1792
792 1795
792 1797
792 1811
792 1819
792 1904
792 1911
792 1964
792 1983
792 1989
792 2007
792 2064
792 2107
792 2149
792 2156
792 2158
792 2163
792 2168
792 2171
792 2181
792 2202
792 2208
794 1000
794 1018
794 1036
794 1128
794 1177
794 1233
794 1246
794 1321
794 1340
794 1362
794 1363
794 1373
794 1422
794 1454
794 1506
794 1524
794 1539
794 1658
794 1667
794 1679
794 1713
794 1792
794 1827
794 1831
794 1844
794 1875
794 1900
794 1901
794 1903
794 1921
794 1944
794 1969
794 1993
794 2029
794 2091
794 2099
794 2121
794 2184
794 2217
794 2231
795 820
795 901
795 1101
795 1132
795 1161
795 1224
795 1244
795 1521
795 1530
795 1575
795 1692
795 1979
795 2027
795 2058
795 2082
795 2227
796 872
796 1120
796 1128
796 1192
796 1217
796 1289
796 1724
796 1756
796 1840
796 1875
796 1887
796 2091
797 805
797 848
797 887
797 930
797 932
797 940
797 961
797 1024
797 1094
797 1182
797 1228
797 1276
797 1297
797 1414
797 1548
797 1556
797 1557
797 1573
797 1628
797 1766
797 1804
797 1828
797 1866
797 1904
797 1933
797 2004
797 2009
797 2028
797 2040
797 2048
797 2065
797 2075
797 2094
797 2096
797 2130
797 2206
798 851
798 856
798 859
798 903
798 905
798 920
798 973
798 998
798 1002
798 1005
798 1026
798 1040
798 1086
798 1103
798 1130
798 1134
798 1157
798 1178
798 1214
798 1259
798 1279
798 1287
798 1299
798 1312
798 1314
798 1317
798 1328
798 1330
798 1338
798 1351
798 1403
798 1405
798 1414
798 1432
798 1477
798 1483
798 1493
798 1569
798 1576
798 1670
798 1707
798 1720
798 1723
798 1738
798 1744
798 1805
798 1806
798 1854
798 1967
798 2031
798 2043
798 2054
798 2056
798 2070
798 2092
798 2141
798 2164
799 813
799 819
799 859
799 892
799 895
799 911
799 917
799 931
799 963
799 971
799 990
799 1030
799 1046
799 1219
799 1387
799 1432
799 1438
799 1442
799 1538
799 1549
799 1621
799 1646
799 1662
799 1690
799 1705
799 1762
799 1813
799 1843
799 1854
799 1947
799 1965
799 1977
799 2045
799 2075
799 2116
799 2131
799 2164
799 2174
799 2188
800 817
800 847
800 931
800 945
800 966
800 1097
800 1189
800 1190
800 1303
800 1320
800 1399
800 1411
800 1422
800 1464
800 1475
800 1529
800 1600
800 1612
800 1627
800 1635
800 1713
800 1799
800 1804
800 1819
800 1831
800 1852
800 1875
800 1895
800 1904
800 1916
800 1918
800 2033
800 2046
800 2121
800 2168
800 2190
800 2196
800 2209
800 2232
801 859
801 1096
801 1121
801 1123
801 1185
801 1191
801 1281
801 1324
801 1377
801 1486
801 1493
801 1596
801 1677
801 1799
801 1820
801 1930
801 1935
801 1966
801 1974
801 1982
801 1987
801 2163
801 2193
802 824
802 830
802 860
802 919
802 1015
802 1039
802 1059
802 1093
802 1114
802 1149
802 1152
802 1193
802 1198
802 1252
802 1304
802 1341
802 1344
802 1543
802 1556
802 1610
802 1618
802 1754
802 1837
802 1855
802 1888
802 1892
802 1900
802 1932
802 1969
802 1993
802 2041
802 2049
802 2062
802 2145
802 2175
803 2093
803 2122
804 847
804 856
804 930
804 941
804 942
804 983
804 1005
804 1057
804 1062
804 1077
804 1083
804 1107
804 1147
804 1172
804 1199
804 1214
804 1254
804 1258
804 1269
804 1299
804 1308
804 1328
804 1333
804 1338
804 1351
804 1381
804 1399
804 1420
804 1422
804 1427
804 1489
804 1496
804 1600
804 1646
804 1658
804 1673
804 1734
804 1738
804 1769
804 1771
804 1779
804 1807
804 1819
804 1830
804 1834
804 1856
804 1864
804 1865
804 1870
804 1899
804 1929
804 1934
804 1951
804 1965
804 1988
804 2045
804 2070
804 2125
804 2129
804 2133
804 2149
804 2207
804 2228
805 898
805 961
805 964
805 1024
805 1064
805 1094
805 1104
805 1245
805 1466
805 1678
805 1720
805 1766
805 2030
805 2060
805 2065
806 815
806 816
806 836
806 841
806 890
806 919
806 942
806 952
806 958
806 970
806 977
806 988
806 1013
806 1034
806 1035
806 1036
806 1052
806 1060
806 1070
806 1093
806 1109
806 1115
806 1128
806 1129
806 1145
806 1151
806 1162
806 1192
806 1218
806 1252
806 1278
806 1291
806 1341
806 1368
806 1403
806 1406
806 1416
806 1422
806 1425
806 1434
806 1435
806 1472
806 1484
806 1498
806 1504
806 1538
806 1541
806 1556
806 1564
806 1577
806 1578
806 1591
806 1602
806 1610
806 1635
806 1638
806 1644
806 1650
806 1680
806 1699
806 1757
806 1767
806 1778
806 1792
806 1805
806 1812
806 1826
806 1848
806 1874
806 1903
806 1904
806 1920
806 1951
806 1963
806 1997
806 2007
806 2025
806 2028
806 2031
806 2098
806 2112
806 2182
806 2204
807 966
807 1166
807 1170
807 1256
807 1375
807 1568
807 1588
807 1694
807 1775
807 1814
807 2061
807 2080
807 2103
808 820
808 918
808 964
808 1215
808 1463
808 1557
808 1575
808 2027
809 844
809 1002
809 1185
809 1187
809 1270
809 1558
809 1699
809 1900
810 812
810 913
810 1194
810 1286
810 1387
810 1393
810 1422
810 1428
810 1516
810 1609
810 1706
810 1710
810 1765
810 1808
810 1837
810 1897
810 1921
810 2012
810 2062
810 2090
810 2101
810 2117
810 2139
811 851
811 1031
811 1307
811 1322
811 1565
811 1622
811 1636
811 1814
811 1940
811 2011
811 2055
811 2073
811 2123
811 2133
812 815
812 859
812 867
812 1015
812 1020
812 1073
812 1080
812 1147
812 1149
812 1189
812 1198
812 1252
812 1333
812 1344
812 1362
812 1368
812 1372
812 1382
812 1439
812 1487
812 1493
812 1544
812 1558
812 1600
812 1602
812 1609
812 1626
812 1630
812 1646
812 1663
812 1710
812 1721
812 1781
812 1804
812 1823
812 1843
812 1856
812 1896
812 1905
812 1929
812 1997
812 2062
812 2149
812 2164
812 2174
812 2206
813 859
813 863
813 897
813 913
813 937
813 963
813 1030
813 1070
813 1219
813 1279
813 1312
813 1384
813 1418
813 1509
813 1538
813 1662
813 1762
813 1813
813 1843
813 1907
813 1963
813 2045
813 2116
813 2152
813 2164
813 2188
814 823
814 827
814 845
814 847
814 914
814 932
814 966
814 973
814 979
814 999
814 1020
814 1023
814 1029
814 1101
814 1113
814 1141
814 1153
814 1184
814 1193
814 1218
814 1240
814 1262
814 1291
814 1316
814 1384
814 1411
814 1490
814 1498
814 1518
814 1534
814 1564
814 1602
814 1646
814 1650
814 1666
814 1672
814 1690
814 1702
814 1717
814 1718
814 1745
814 1753
814 1778
814 1799
814 1860
814 1878
814 1890
814 1918
814 1951
814 1957
814 1964
814 1970
814 2010
814 2023
814 2025
814 2028
814 2033
814 2045
814 2103
814 2118
814 2148
814 2174
814 2182
814 2194
814 2196
815 860
815 914
815 952
815 978
815 1060
815 1073
815 1088
815 1102
815 1115
815 1128
815 1140
815 1173
815 1189
815 1199
815 1232
815 1328
815 1330
815 1368
815 1390
815 1426
815 1436
815 1556
815 1581
815 1598
815 1602
815 1638
815 1650
815 1781
815 1823
815 1900
815 2076
816 868
816 887
816 903
816 920
816 941
816 943
816 1063
816 1086
816 1130
816 1134
816 1145
816 1211
816 1235
816 1278
816 1279
816 1307
816 1328
816 1330
816 1362
816 1388
816 1416
816 1483
816 1498
816 1530
816 1561
816 1581
816 1588
816 1602
816 1640
816 1668
816 1805
816 1806
816 1899
816 1911
816 2053
816 2056
816 2062
816 2092
816 2108
816 2129
816 2199
816 2227
817 830
817 847
817 880
817 966
817 984
817 1021
817 1138
817 1233
817 1258
817 1310
817 1404
817 1422
817 1426
817 1475
817 1494
817 1514
817 1529
817 1539
817 1563
817 1612
817 1618
817 1627
817 1629
817 1635
817 1745
817 1804
817 1840
817 2028
817 2081
817 2209
817 2217
818 968
818 1488
818 1659
818 1834
818 1993
819 867
819 878
819 895
819 913
819 931
819 986
819 987
819 1123
819 1171
819 1231
819 1272
819 1309
819 1314
819 1333
819 1371
819 1387
819 1401
819 1438
819 1439
819 1442
819 1445
819 1456
819 1465
819 1491
819 1538
819 1638
819 1667
819 1674
819 1677
819 1690
819 1779
819 1813
819 1854
819 1867
819 1895
819 1915
819 1935
819 1957
819 1977
819 1988
819 2014
819 2049
819 2054
820 902
820 964
820 1007
820 1009
820 1012
820 1024
820 1027
820 1064
820 1088
820 1091
820 1132
820 1148
820 1154
820 1172
820 1188
820 1215
820 1282
820 1297
820 1301
820 1360
820 1395
820 1458
820 1459
820 1463
820 1521
820 1557
820 1572
820 1608
820 1692
820 1788
820 1817
820 1866
820 1902
820 1945
820 1985
820 1991
820 2000
820 2004
820 2036
820 2060
820 2065
820 2066
820 2082
820 2130
820 2159
820 2166
820 2178
821 1297
822 839
822 1063
822 1149
822 1384
822 1513
822 1557
822 1901
822 1970
822 2149
822 2228
823 843
823 847
823 882
823 886
823 910
823 948
823 969
823 978
823 979
823 984
823 987
823 991
823 1038
823 1055
823 1065
823 1070
823 1090
823 1097
823 1112
823 1115
823 1119
823 1151
823 1162
823 1173
823 1187
823 1221
823 1262
823 1326
823 1347
823 1392
823 1443
823 1457
823 1475
823 1480
823 1490
823 1512
823 1538
823 1571
823 1598
823 1606
823 1626
823 1630
823 1646
823 1653
823 1658
823 1698
823 1702
823 1717
823 1733
823 1745
823 1759
823 1797
823 1813
823 1830
823 1955
823 1963
823 1976
823 2025
823 2026
823 2039
823 2049
823 2053
823 2140
823 2148
823 2150
823 2158
823 2161
823 2162
823 2173
823 2209
824 860
824 886
824 1000
824 1059
824 1093
824 1123
824 1128
824 1177
824 1189
824 1305
824 1363
824 1404
824 1454
824 1464
824 1507
824 1556
824 1596
824 1598
824 1612
824 1618
824 1679
824 1840
824 1855
824 1892
824 1901
824 1922
824 1932
824 1944
824 1993
824 1997
824 2006
824 2016
824 2041
824 2062
824 2091
824 2099
824 2122
824 2145
824 2206
824 2210
824 2219
824 2231
825 842
825 850
825 910
825 954
825 979
825 989
825 991
825 1015
825 1047
825 1109
825 1308
825 1378
825 1382
825 1407
825 1475
825 1482
825 1498
825 1554
825 1571
825 1576
825 1578
825 1629
825 1663
825 1680
825 1699
825 1713
825 1739
825 1799
825 1804
825 1869
825 1893
825 2033
825 2049
825 2081
825 2127
825 2165
825 2206
825 2209
825 2232
826 842
826 870
826 954
826 969
826 997
826 1023
826 1065
826 1102
826 1150
826 1196
826 1289
826 1382
826 1431
826 1448
826 1450
826 1475
826 1492
826 1541
826 1571
826 1578
826 1585
826 1606
826 1610
826 1629
826 1667
826 1680
826 1702
826 1713
826 1807
826 1900
826 1922
826 1993
826 2038
826 2045
826 2049
826 2075
826 2081
826 2100
826 2103
826 2108
826 2190
826 2209
826 2232
827 845
827 929
827 937
827 944
827 984
827 999
827 1019
827 1029
827 1038
827 1042
827 1097
827 1125
827 1141
827 1196
827 1240
827 1360
827 1395
827 1443
827 1456
827 1490
827 1596
827 1617
827 1637
827 1638
827 1667
827 1699
827 1708
827 1717
827 1739
827 1753
827 1918
827 1928
827 1929
827 1935
827 1953
827 1975
827 1976
827 2019
827 2049
827 2118
827 2145
827 2148
827 2214
828 833
828 844
828 851
828 867
828 874
828 897
828 1006
828 1035
828 1070
828 1079
828 1137
828 1145
828 1149
828 1164
828 1189
828 1267
828 1287
828 1299
828 1310
828 1312
828 1333
828 1361
828 1414
828 1422
828 1460
828 1462
828 1561
828 1576
828 1588
828 1605
828 1613
828 1661
828 1699
828 1707
828 1763
828 1794
828 1801
828 1860
828 1865
828 1935
828 1943
828 1970
828 2016
828 2028
828 2098
828 2121
828 2125
828 2174
828 2217
828 2226
829 851
829 868
829 886
829 911
829 998
829 1001
829 1026
829 1051
829 1087
829 1118
829 1124
829 1145
829 1147
829 1214
829 1283
829 1361
829 1381
829 1427
829 1432
829 1534
829 1581
829 1605
829 1794
829 1822
829 1831
829 1886
829 1894
829 1951
829 1956
829 1970
829 1989
829 2010
829 2133
829 2149
829 2187
829 2228
830 1059
830 1120
830 1163
830 1252
830 1277
830 1363
830 1411
830 1422
830 1454
830 1475
830 1499
830 1544
830 1563
830 1604
830 1610
830 1627
830 1688
830 1713
830 1721
830 1804
830 1827
830 1840
830 1900
830 1993
830 1997
830 2018
830 2075
830 2091
831 1096
831 1241
831 1249
831 1332
831 1476
831 1703
831 1828
831 1934
831 1994
831 2201
832 890
832 919
832 948
832 952
832 1101
832 1193
832 1218
832 1320
832 1357
832 1638
832 1690
832 1725
832 1793
832 1804
832 1849
832 1898
832 2217
832 2229
833 867
833 874
833 894
833 897
833 993
833 1006
833 1166
833 1190
833 1219
833 1254
833 1267
833 1300
833 1348
833 1406
833 1422
833 1561
833 1624
833 1712
833 1763
834 844
834 854
834 882
834 980
834 996
834 998
834 1011
834 1057
834 1128
834 1149
834 1190
834 1192
834 1235
834 1353
834 1361
834 1524
834 1539
834 1554
834 1571
834 1578
834 1596
834 1667
834 1680
834 1713
834 1733
834 1794
834 1855
834 1859
834 1888
834 1892
834 1905
834 1969
834 1976
834 1993
834 2008
834 2010
834 2041
834 2165
834 2173
834 2193
834 2223
834 2231
835 851
835 852
835 866
835 958
835 1080
835 1100
835 1120
835 1128
835 1140
835 1186
835 1199
835 1212
835 1218
835 1238
835 1272
835 1291
835 1308
835 1331
835 1392
835 1422
835 1481
835 1500
835 1526
835 1534
835 1565
835 1596
835 1626
835 1630
835 1655
835 1667
835 1688
835 1760
835 1783
835 1816
835 1869
835 1871
835 1879
835 1900
835 1939
835 1994
835 2018
835 2039
835 2061
835 2081
835 2091
835 2100
835 2113
835 2121
835 2149
835 2184
835 2193
835 2196
835 2210
836 844
836 911
836 1025
836 1033
836 1035
836 1060
836 1088
836 1128
836 1189
836 1190
836 1192
836 1198
836 1247
836 1252
836 1277
836 1287
836 1291
836 1303
836 1333
836 1368
836 1420
836 1436
836 1492
836 1581
836 1588
836 1602
836 1629
836 1650
836 1688
836 1713
836 1721
836 1778
836 1792
836 1804
836 1810
836 1826
836 1827
836 1831
836 1900
836 1920
836 1955
836 1977
836 2025
836 2028
836 2054
836 2056
836 2121
836 2149
836 2175
836 2204
836 2220
837 851
837 983
837 1004
837 1057
837 1145
837 1193
837 1247
837 1267
837 1287
837 1291
837 1299
837 1342
837 1351
837 1361
837 1384
837 1388
837 1414
837 1420
837 1422
837 1553
837 1607
837 1744
837 1764
837 1801
837 1803
837 1806
837 1812
837 1823
837 1838
837 1870
837 1903
837 1942
837 1943
837 2008
837 2016
837 2039
837 2043
837 2049
837 2059
837 2207
837 2228
838 921
838 960
838 1463
838 1557
839 886
839 927
839 943
839 1059
839 1323
839 1345
839 1370
839 1554
839 1579
839 1595
839 1602
839 1713
839 1804
839 1904
839 1905
839 1976
839 2149
840 902
840 1082
840 1120
840 1228
840 1355
840 1458
840 1557
840 1770
840 1873
840 2000
841 844
841 858
841 860
841 866
841 882
841 907
841 914
841 924
841 943
841 947
841 952
841 987
841 988
841 1034
841 1035
841 1045
841 1047
841 1050
841 1052
841 1087
841 1088
841 1090
841 1115
841 1117
841 1127
841 1138
841 1140
841 1146
841 1151
841 1152
841 1153
841 1199
841 1233
841 1237
841 1251
841 1252
841 1256
841 1277
841 1291
841 1300
841 1303
841 1307
841 1310
841 1323
841 1341
841 1347
841 1363
841 1368
841 1394
841 1397
841 1416
841 1449
841 1489
841 1492
841 1498
841 1499
841 1514
841 1530
841 1538
841 1544
841 1556
841 1565
841 1576
841 1581
841 1600
841 1604
841 1611
841 1612
841 1613
841 1624
841 1629
841 1638
841 1650
841 1661
841 1688
841 1694
841 1699
841 1714
841 1717
841 1743
841 1776
841 1778
841 1793
841 1804
841 1810
841 1815
841 1824
841 1829
841 1851
841 1879
841 1901
841 1903
841 1927
841 1977
841 1997
841 1999
841 2028
841 2068
841 2076
841 2089
841 2091
841 2125
841 2127
841 2148
841 2175
841 2189
841 2194
841 2196
841 2217
841 2220
841 2228
841 2229
842 850
842 991
842 1109
842 1126
842 1144
842 1146
842 1415
842 1422
842 1425
842 1482
842 1585
842 1595
842 1699
842 1701
842 1713
842 1724
842 1731
842 1739
842 1804
842 1855
842 2049
842 2091
842 2165
842 2220
843 870
843 924
843 938
843 1041
843 1058
843 1072
843 1077
843 1092
843 1109
843 1114
843 1151
843 1153
843 1172
843 1259
843 1283
843 1325
843 1341
843 1368
843 1396
843 1450
843 1491
843 1509
843 1585
843 1589
843 1626
843 1716
843 1743
843 1780
843 1784
843 1792
843 1867
843 1903
843 1907
843 1913
843 1936
843 2039
843 2075
843 2087
843 2168
844 858
844 860
844 875
844 880
844 947
844 952
844 966
844 973
844 987
844 997
844 1003
844 1015
844 1043
844 1055
844 1070
844 1092
844 1098
844 1101
844 1113
844 1115
844 1126
844 1145
844 1153
844 1160
844 1183
844 1195
844 1199
844 1216
844 1258
844 1262
844 1299
844 1310
844 1314
844 1323
844 1362
844 1363
844 1368
844 1382
844 1412
844 1472
844 1481
844 1530
844 1554
844 1556
844 1560
844 1589
844 1599
844 1604
844 1613
844 1664
844 1676
844 1696
844 1713
844 1714
844 1716
844 1758
844 1764
844 1793
844 1811
844 1829
844 1838
844 1874
844 1876
844 1884
844 1907
844 1927
844 1986
844 2001
844 2006
844 2045
844 2068
844 2089
844 2174
844 2189
844 2204
844 2208
844 2221
844 2226
845 847
845 924
845 929
845 969
845 979
845 1038
845 1055
845 1101
845 1113
845 1210
845 1240
845 1316
845 1344
845 1352
845 1422
845 1490
845 1506
845 1507
845 1541
845 1564
845 1585
845 1638
845 1650
845 1659
845 1666
845 1667
845 1698
845 1753
845 1849
845 1898
845 1912
845 1928
845 1952
845 1976
845 2071
845 2132
845 2209
846 973
846 1002
846 1121
846 1147
846 1211
846 1312
846 1477
846 1819
846 1843
846 1862
846 1880
846 2111
847 866
847 886
847 909
847 910
847 924
847 932
847 948
847 966
847 969
847 979
847 996
847 999
847 1000
847 1021
847 1047
847 1055
847 1090
847 1097
847 1105
847 1127
847 1162
847 1163
847 1172
847 1175
847 1189
847 1199
847 1210
847 1223
847 1226
847 1257
847 1320
847 1339
847 1344
847 1382
847 1384
847 1399
847 1411
847 1418
847 1446
847 1454
847 1464
847 1475
847 1485
847 1490
847 1506
847 1507
847 1514
847 1518
847 1538
847 1541
847 1564
847 1571
847 1596
847 1598
847 1599
847 1610
847 1613
847 1618
847 1624
847 1630
847 1637
847 1638
847 1646
847 1653
847 1659
847 1667
847 1672
847 1690
847 1698
847 1699
847 1700
847 1702
847 1708
847 1710
847 1717
847 1718
847 1721
847 1750
847 1751
847 1753
847 1781
847 1799
847 1819
847 1822
847 1823
847 1831
847 1849
847 1860
847 1878
847 1895
847 1898
847 1900
847 1903
847 1907
847 1911
847 1935
847 1951
847 1953
847 1964
847 1971
847 1975
847 1997
847 2019
847 2038
847 2045
847 2061
847 2071
847 2118
847 2120
847 2121
847 2130
847 2132
847 2139
847 2140
847 2145
847 2148
847 2158
847 2168
847 2214
847 2226
848 940
848 1213
848 1295
848 1302
848 1452
848 1466
848 1616
848 1703
848 1746
848 1766
848 1866
848 1925
848 1945
848 2015
848 2096
848 2097
848 2130
848 2134
849 972
849 1705
850 927
850 952
850 984
850 989
850 991
850 1109
850 1128
850 1138
850 1169
850 1180
850 1192
850 1229
850 1247
850 1271
850 1308
850 1347
850 1382
850 1397
850 1410
850 1415
850 1449
850 1473
850 1482
850 1498
850 1524
850 1525
850 1532
850 1544
850 1554
850 1571
850 1578
850 1629
850 1634
850 1699
850 1701
850 1702
850 1713
850 1717
850 1724
850 1749
850 1804
850 1824
850 1848
850 1855
850 1869
850 1877
850 1884
850 1976
850 2028
850 2033
850 2075
850 2081
850 2091
850 2145
850 2162
850 2177
850 2182
850 2184
850 2189
850 2194
851 874
851 875
851 876
851 905
851 911
851 927
851 941
851 942
851 983
851 984
851 989
851 993
851 996
851 998
851 1015
851 1057
851 1062
851 1084
851 1086
851 1087
851 1097
851 1101
851 1107
851 1126
851 1134
851 1142
851 1157
851 1164
851 1184
851 1216
851 1233
851 1254
851 1267
851 1279
851 1291
851 1294
851 1307
851 1310
851 1320
851 1328
851 1333
851 1353
851 1358
851 1370
851 1380
851 1386
851 1388
851 1390
851 1392
851 1403
851 1411
851 1417
851 1446
851 1453
851 1460
851 1462
851 1470
851 1474
851 1475
851 1489
851 1495
851 1554
851 1561
851 1565
851 1569
851 1571
851 1595
851 1606
851 1612
851 1613
851 1622
851 1636
851 1664
851 1667
851 1671
851 1676
851 1699
851 1707
851 1717
851 1734
851 1738
851 1739
851 1744
851 1763
851 1771
851 1780
851 1793
851 1794
851 1802
851 1803
851 1804
851 1805
851 1814
851 1823
851 1860
851 1863
851 1879
851 1894
851 1899
851 1911
851 1919
851 1931
851 1951
851 1967
851 1970
851 1972
851 1986
851 1994
851 2008
851 2013
851 2028
851 2031
851 2033
851 2039
851 2043
851 2047
851 2055
851 2056
851 2070
851 2076
851 2081
851 2092
851 2121
851 2129
851 2138
851 2149
851 2187
851 2194
851 2199
851 2204
851 2207
851 2217
851 2227
851 2228
852 855
852 858
852 900
852 905
852 916
852 937
852 1019
852 1028
852 1127
852 1133
852 1183
852 1186
852 1219
852 1259
852 1272
852 1312
852 1372
852 1438
852 1442
852 1487
852 1538
852 1558
852 1559
852 1615
852 1646
852 1677
852 1697
852 1791
852 1818
852 1867
852 1880
852 1883
852 1885
852 1900
852 1915
852 1938
852 1943
852 2024
852 2111
852 2113
852 2174
852 2188
852 2221
853 885
853 895
853 916
853 939
853 981
853 1004
853 1142
853 1178
853 1212
853 1241
853 1259
853 1283
853 1405
853 1413
853 1442
853 1457
853 1536
853 1605
853 1631
853 1639
853 1684
853 1841
853 1883
853 1931
853 1935
853 2181
853 2188
853 2228
854 886
854 912
854 943
854 945
854 967
854 996
854 1038
854 1070
854 1109
854 1126
854 1231
854 1233
854 1235
854 1271
854 1305
854 1361
854 1366
854 1382
854 1518
854 1530
854 1560
854 1571
854 1574
854 1606
854 1676
854 1699
854 1713
854 1737
854 1739
854 1781
854 1800
854 1819
854 1848
854 1852
854 1893
854 1993
854 2033
854 2103
854 2146
854 2189
854 2196
854 2232
855 858
855 863
855 869
855 906
855 913
855 990
855 1055
855 1074
855 1133
855 1137
855 1185
855 1186
855 1196
855 1212
855 1231
855 1241
855 1372
855 1439
855 1442
855 1503
855 1594
855 1598
855 1637
855 1813
855 1829
855 1883
855 1923
855 1936
855 2079
855 2108
855 2116
855 2132
855 2143
855 2165
855 2216
855 2233
856 879
856 908
856 965
856 1016
856 1213
856 1266
856 1279
856 1295
856 1337
856 1356
856 1369
856 1405
856 1412
856 1452
856 1457
856 1458
856 1476
856 1515
856 1528
856 1620
856 1647
856 1729
856 1761
856 1770
856 1771
856 1828
856 1941
856 1960
856 2096
856 2105
856 2186
857 1185
857 2137
858 867
858 875
858 878
858 937
858 938
858 987
858 1003
858 1019
858 1028
858 1030
858 1070
858 1127
858 1133
858 1183
858 1186
858 1195
858 1204
858 1219
858 1253
858 1309
858 1314
858 1341
858 1372
858 1412
858 1422
858 1487
858 1490
858 1538
858 1588
858 1662
858 1670
858 1680
858 1690
858 1702
858 1714
858 1784
858 1797
858 1811
858 1841
858 1907
858 1948
858 1955
858 1972
858 1977
858 2007
858 2011
858 2068
858 2111
858 2116
858 2150
858 2218
858 2221
859 897
859 913
859 937
859 981
859 1030
859 1070
859 1172
859 1186
859 1187
859 1204
859 1219
859 1259
859 1279
859 1312
859 1384
859 1387
859 1401
859 1442
859 1449
859 1457
859 1506
859 1509
859 1517
859 1538
859 1540
859 1549
859 1591
859 1620
859 1684
859 1690
859 1745
859 1762
859 1765
859 1813
859 1841
859 1854
859 1857
859 1867
859 1903
859 1936
859 1947
859 1949
859 1977
859 1988
859 2045
859 2116
859 2152
859 2164
859 2174
859 2188
860 861
860 866
860 880
860 914
860 952
860 970
860 996
860 1020
860 1036
860 1037
860 1052
860 1060
860 1088
860 1101
860 1140
860 1152
860 1160
860 1162
860 1199
860 1237
860 1247
860 1252
860 1262
860 1277
860 1320
860 1341
860 1368
860 1416
860 1422
860 1446
860 1498
860 1499
860 1506
860 1511
860 1534
860 1541
860 1549
860 1556
860 1560
860 1579
860 1581
860 1599
860 1606
860 1612
860 1613
860 1641
860 1702
860 1732
860 1754
860 1793
860 1823
860 1832
860 1844
860 1851
860 1874
860 1896
860 1961
860 1999
860 2006
860 2028
860 2045
860 2089
860 2158
860 2182
860 2194
860 2204
860 2217
860 2220
860 2229
861 919
861 1088
861 1140
861 1152
861 1289
861 1511
861 1999
861 2089
861 2217
862 911
862 973
862 998
862 1006
862 1063
862 1101
862 1147
862 1254
862 1262
862 1333
862 1457
862 1513
862 1541
862 1724
862 1758
862 1801
862 2016
862 2207
862 2228
863 886
863 910
863 924
863 932
863 937
863 944
863 948
863 969
863 979
863 984
863 996
863 999
863 1002
863 1019
863 1020
863 1023
863 1029
863 1030
863 1038
863 1042
863 1074
863 1097
863 1101
863 1105
863 1112
863 1113
863 1127
863 1141
863 1173
863 1193
863 1226
863 1235
863 1240
863 1316
863 1320
863 1394
863 1443
863 1444
863 1480
863 1490
863 1506
863 1512
863 1518
863 1529
863 1596
863 1606
863 1617
863 1626
863 1630
863 1637
863 1653
863 1666
863 1667
863 1677
863 1698
863 1702
863 1708
863 1719
863 1725
863 1727
863 1733
863 1739
863 1745
863 1753
863 1779
863 1819
863 1878
863 1914
863 1918
863 1929
863 1938
863 1939
863 1942
863 1953
863 1955
863 1957
863 1971
863 1972
863 1976
863 1978
863 1987
863 2026
863 2049
863 2052
863 2103
863 2110
863 2118
863 2132
863 2140
863 2145
863 2148
863 2158
863 2161
863 2184
863 2190
863 2223
864 889
864 1442
864 1486
864 1603
865 900
865 1022
865 1123
865 1428
865 1705
865 1982
866 886
866 924
866 954
866 969
866 974
866 987
866 1015
866 1018
866 1042
866 1046
866 1057
866 1102
866 1117
866 1119
866 1120
866 1128
866 1151
866 1162
866 1172
866 1173
866 1217
866 1239
866 1240
866 1247
866 1277
866 1299
866 1303
866 1320
866 1366
866 1368
866 1414
866 1436
866 1446
866 1449
866 1490
866 1507
866 1524
866 1530
866 1555
866 1600
866 1612
866 1636
866 1637
866 1646
866 1667
866 1676
866 1677
866 1709
866 1716
866 1717
866 1735
866 1745
866 1785
866 1815
866 1843
866 1844
866 1855
866 1865
866 1879
866 1900
866 1916
866 1920
866 1938
866 1944
866 1955
866 1972
866 1989
866 1999
866 2011
866 2039
866 2049
866 2099
866 2103
866 2116
866 2118
866 2125
866 2127
866 2145
866 2158
866 2165
866 2193
866 2204
866 2208
866 2226
867 868
867 897
867 900
867 908
867 916
867 939
867 942
867 981
867 1004
867 1005
867 1006
867 1015
867 1045
867 1084
867 1103
867 1108
867 1118
867 1121
867 1134
867 1137
867 1139
867 1147
867 1149
867 1164
867 1172
867 1178
867 1183
867 1195
867 1202
867 1213
867 1241
867 1259
867 1270
867 1279
867 1284
867 1294
867 1309
867 1312
867 1318
867 1325
867 1332
867 1333
867 1358
867 1372
867 1377
867 1381
867 1384
867 1405
867 1417
867 1422
867 1457
867 1460
867 1462
867 1470
867 1487
867 1489
867 1491
867 1493
867 1536
867 1557
867 1558
867 1570
867 1580
867 1594
867 1615
867 1620
867 1662
867 1663
867 1668
867 1669
867 1684
867 1712
867 1734
867 1750
867 1762
867 1770
867 1771
867 1772
867 1784
867 1795
867 1801
867 1803
867 1838
867 1854
867 1861
867 1872
867 1880
867 1883
867 1885
867 1894
867 1911
867 1928
867 1930
867 1938
867 1943
867 1948
867 1949
867 1957
867 1972
867 1974
867 1977
867 1994
867 2007
867 2008
867 2024
867 2059
867 2096
867 2104
867 2111
867 2116
867 2149
867 2158
867 2164
867 2173
867 2181
867 2186
867 2188
867 2218
868 887
868 916
868 920
868 953
868 973
868 981
868 992
868 1010
868 1063
868 1096
868 1103
868 1145
868 1147
868 1211
868 1235
868 1253
868 1283
868 1298
868 1304
868 1333
868 1357
868 1362
868 1405
868 1417
868 1457
868 1513
868 1519
868 1535
868 1536
868 1615
868 1639
868 1796
868 1820
868 1841
868 1870
868 1931
868 1943
868 1951
868 1977
868 1997
868 2010
868 2029
868 2093
868 2108
868 2164
868 2174
868 2206
868 2228
869 878
869 895
869 905
869 916
869 927
869 937
869 938
869 948
869 1019
869 1121
869 1127
869 1137
869 1152
869 1191
869 1199
869 1219
869 1309
869 1364
869 1401
869 1437
869 1446
869 1487
869 1509
869 1538
869 1559
869 1602
869 1615
869 1623
869 1637
869 1639
869 1662
869 1675
869 1719
869 1771
869 1791
869 1797
869 1813
869 1883
869 1938
869 2034
869 2117
869 2131
869 2188
869 2216
870 889
870 931
870 955
870 984
870 1004
870 1019
870 1055
870 1059
870 1068
870 1081
870 1102
870 1109
870 1114
870 1135
870 1152
870 1160
870 1179
870 1185
870 1190
870 1241
870 1371
870 1373
870 1378
870 1391
870 1411
870 1428
870 1431
870 1450
870 1465
870 1467
870 1475
870 1503
870 1541
870 1554
870 1578
870 1600
870 1604
870 1626
870 1661
870 1662
870 1688
870 1721
870 1739
870 1745
870 1779
870 1808
870 1872
870 1876
870 1895
870 1903
870 1916
870 1971
870 1976
870 1977
870 1989
870 1997
870 2026
870 2034
870 2038
870 2061
870 2112
870 2120
870 2145
871 1642
872 1024
872 1104
872 1244
872 1297
872 1302
872 1651
872 1703
872 1839
872 1926
872 2028
872 2057
872 2082
872 2097
873 883
873 885
873 895
873 986
873 990
873 1017
873 1022
873 1046
873 1096
873 1116
873 1121
873 1123
873 1309
873 1324
873 1384
873 1401
873 1442
873 1477
873 1486
873 1493
873 1558
873 1567
873 1609
873 1669
873 1712
873 1784
873 1820
873 1854
873 1861
873 1867
873 1930
873 1948
873 1982
873 2088
873 2101
873 2116
873 2162
873 2215
874 982
874 993
874 1118
874 1166
874 1270
874 1361
874 1388
874 1422
874 1460
874 1535
874 1561
874 1580
874 1624
874 1860
874 1994
874 2016
874 2149
874 2154
874 2207
874 2228
875 900
875 911
875 937
875 986
875 1003
875 1050
875 1072
875 1092
875 1097
875 1116
875 1208
875 1256
875 1266
875 1286
875 1314
875 1341
875 1368
875 1405
875 1437
875 1442
875 1465
875 1491
875 1538
875 1570
875 1622
875 1623
875 1638
875 1644
875 1670
875 1714
875 1726
875 1784
875 1830
875 1841
875 1876
875 1880
875 1894
875 1938
875 1940
875 1955
875 1957
875 1972
875 1983
875 2007
875 2011
875 2024
875 2054
875 2098
875 2131
875 2148
875 2164
875 2174
875 2194
875 2202
875 2206
876 886
876 887
876 916
876 941
876 1001
876 1004
876 1006
876 1026
876 1051
876 1056
876 1057
876 1067
876 1106
876 1145
876 1149
876 1179
876 1198
876 1219
876 1241
876 1259
876 1289
876 1290
876 1312
876 1328
876 1338
876 1361
876 1381
876 1403
876 1405
876 1422
876 1427
876 1432
876 1435
876 1449
876 1460
876 1470
876 1534
876 1559
876 1592
876 1624
876 1632
876 1644
876 1680
876 1682
876 1702
876 1721
876 1762
876 1804
876 1812
876 1899
876 1911
876 1943
876 1967
876 1970
876 1985
876 1986
876 1994
876 1997
876 2008
876 2010
876 2031
876 2059
876 2073
876 2106
876 2133
876 2138
876 2144
876 2182
876 2227
876 2228
877 1101
877 1289
877 1826
877 2028
877 2091
878 916
878 927
878 937
878 938
878 951
878 1028
878 1047
878 1103
878 1127
878 1133
878 1172
878 1195
878 1204
878 1212
878 1253
878 1286
878 1309
878 1318
878 1333
878 1368
878 1412
878 1417
878 1418
878 1437
878 1438
878 1456
878 1465
878 1490
878 1538
878 1623
878 1624
878 1670
878 1725
878 1792
878 1795
878 1841
878 1936
878 2024
878 2104
878 2131
878 2221
879 908
879 1009
879 1016
879 1108
879 1133
879 1139
879 1241
879 1356
879 1359
879 1442
879 1501
879 1515
879 1528
879 1748
879 1825
879 1958
879 1991
879 2000
879 2057
879 2096
879 2169
879 2203
880 1004
880 1020
880 1077
880 1109
880 1120
880 1140
880 1152
880 1218
880 1247
880 1252
880 1262
880 1310
880 1320
880 1499
880 1506
880 1556
880 1581
880 1599
880 1641
880 1650
880 1687
880 1702
880 1793
880 1826
880 1896
880 1993
880 2018
880 2045
880 2089
880 2194
880 2217
881 1303
881 1352
881 1514
881 2190
882 912
882 914
882 945
882 996
882 1000
882 1002
882 1038
882 1039
882 1070
882 1073
882 1101
882 1120
882 1126
882 1231
882 1240
882 1310
882 1316
882 1326
882 1347
882 1365
882 1371
882 1373
882 1382
882 1393
882 1442
882 1446
882 1448
882 1450
882 1514
882 1518
882 1529
882 1544
882 1576
882 1578
882 1590
882 1602
882 1661
882 1667
882 1733
882 1739
882 1754
882 1756
882 1759
882 1773
882 1781
882 1793
882 1799
882 1813
882 1856
882 1870
882 1875
882 1969
882 1987
882 2003
882 2039
882 2049
882 2062
882 2101
882 2146
882 2161
882 2165
882 2168
882 2190
882 2228
883 885
883 1022
883 1028
883 1092
883 1121
883 1185
883 1855
883 1861
883 1966
884 1147
884 1189
884 1600
884 1989
885 892
885 895
885 906
885 990
885 1019
885 1039
885 1112
885 1121
885 1185
885 1186
885 1221
885 1309
885 1357
885 1401
885 1439
885 1477
885 1480
885 1531
885 1552
885 1567
885 1578
885 1880
885 1948
885 1949
885 2088
885 2117
886 890
886 893
886 906
886 924
886 932
886 941
886 958
886 981
886 998
886 1018
886 1019
886 1026
886 1030
886 1041
886 1065
886 1070
886 1072
886 1090
886 1097
886 1120
886 1140
886 1145
886 1146
886 1147
886 1151
886 1163
886 1175
886 1178
886 1179
886 1183
886 1189
886 1192
886 1193
886 1209
886 1231
886 1246
886 1256
886 1269
886 1299
886 1325
886 1371
886 1406
886 1411
886 1425
886 1443
886 1475
886 1490
886 1499
886 1506
886 1514
886 1530
886 1536
886 1581
886 1583
886 1591
886 1605
886 1612
886 1626
886 1635
886 1638
886 1646
886 1649
886 1669
886 1682
886 1685
886 1687
886 1699
886 1700
886 1710
886 1714
886 1724
886 1726
886 1727
886 1738
886 1745
886 1767
886 1792
886 1794
886 1812
886 1827
886 1831
886 1834
886 1840
886 1843
886 1849
886 1869
886 1899
886 1900
886 1903
886 1904
886 1932
886 1936
886 1955
886 1963
886 1977
886 1989
886 2016
886 2026
886 2033
886 2068
886 2099
886 2103
886 2133
886 2136
886 2144
886 2161
886 2165
886 2168
886 2185
886 2189
886 2190
886 2194
886 2202
886 2204
886 2206
886 2220
886 2228
886 2229
887 905
887 911
887 992
887 1001
887 1018
887 1026
887 1045
887 1062
887 1077
887 1101
887 1124
887 1145
887 1149
887 1192
887 1211
887 1238
887 1283
887 1328
887 1357
887 1361
887 1406
887 1417
887 1420
887 1422
887 1432
887 1433
887 1530
887 1534
887 1536
887 1560
887 1569
887 1580
887 1605
887 1640
887 1682
887 2008
887 2016
887 2080
887 2092
887 2093
887 2133
887 2144
887 2158
887 2227
887 2228
888 1020
888 1152
888 1556
888 1599
888 1810
889 900
889 1022
889 1039
889 1155
889 1191
889 1371
889 1428
889 1438
889 1440
889 1450
889 1467
889 1523
889 1587
889 1705
889 1779
889 1808
889 2113
890 903
890 932
890 948
890 989
890 993
890 999
890 1036
890 1101
890 1141
890 1196
890 1218
890 1336
890 1340
890 1368
890 1416
890 1446
890 1565
890 1581
890 1696
890 1851
890 1898
890 2158
890 2194
890 2208
890 2217
890 2229
891 1291
892 972
892 1002
892 1022
892 1030
892 1092
892 1314
892 1367
892 1401
892 1428
892 1508
892 1716
892 1730
892 1843
892 1867
892 2075
892 2087
892 2117
892 2162
892 2168
892 2215
893 1071
893 1250
893 1255
893 1303
893 1310
893 1326
893 1376
893 1393
893 1428
893 1448
893 1518
893 1537
893 1590
893 1604
893 1634
893 1646
893 1658
893 1660
893 1700
893 1711
893 1800
893 1893
893 1897
893 1921
893 2139
893 2184
893 2189
893 2190
893 2211
893 2233
894 1008
894 1084
894 1283
894 1304
894 1388
894 1502
894 1805
894 1879
894 1886
894 2047
894 2228
895 900
895 924
895 929
895 931
895 987
895 990
895 1022
895 1030
895 1046
895 1055
895 1123
895 1212
895 1241
895 1357
895 1371
895 1401
895 1438
895 1445
895 1465
895 1486
895 1509
895 1594
895 1605
895 1626
895 1677
895 1829
895 1861
895 1867
895 1880
895 1895
895 1948
895 1972
895 2088
895 2116
895 2117
895 2162
895 2215
896 968
896 1407
896 1529
896 1659
896 2003
896 2190
897 926
897 990
897 1004
897 1005
897 1010
897 1028
897 1030
897 1055
897 1056
897 1103
897 1121
897 1249
897 1266
897 1279
897 1312
897 1332
897 1338
897 1357
897 1384
897 1390
897 1417
897 1457
897 1470
897 1480
897 1493
897 1536
897 1538
897 1540
897 1549
897 1557
897 1605
897 1622
897 1648
897 1662
897 1674
897 1707
897 1726
897 1762
897 1776
897 1777
897 1796
897 1905
897 1911
897 1935
897 1940
897 1943
897 1967
897 1974
897 1994
897 2059
897 2096
897 2168
897 2181
897 2188
897 2228
898 1032
898 1934
898 2009
898 2017
898 2069
899 931
899 937
899 942
899 1013
899 1026
899 1155
899 1185
899 1232
899 1384
899 1387
899 1438
899 1444
899 1450
899 1578
899 1600
899 1630
899 1667
899 1690
899 1739
899 1808
899 1819
899 1843
899 1844
899 1896
899 2112
899 2113
899 2120
899 2135
899 2168
900 924
900 929
900 932
900 937
900 953
900 963
900 986
900 987
900 1028
900 1046
900 1050
900 1123
900 1195
900 1204
900 1212
900 1219
900 1257
900 1272
900 1318
900 1371
900 1412
900 1432
900 1438
900 1456
900 1465
900 1487
900 1491
900 1493
900 1503
900 1558
900 1570
900 1596
900 1615
900 1622
900 1637
900 1667
900 1677
900 1682
900 1705
900 1854
900 1867
900 1894
900 1928
900 1939
900 1957
900 1972
900 1983
900 2007
900 2024
900 2111
900 2120
900 2131
900 2132
900 2137
900 2152
900 2158
900 2168
900 2174
901 926
901 961
901 1154
901 1215
901 1249
901 1290
901 1295
901 1369
901 1435
901 1463
901 1501
901 1546
901 1638
901 1828
901 1839
901 1908
901 1910
901 1962
901 2027
901 2031
901 2157
901 2213
902 1124
902 1182
902 1228
902 1450
902 1608
902 1866
902 1985
902 2000
902 2066
902 2207
903 911
903 932
903 941
903 942
903 973
903 977
903 983
903 989
903 993
903 998
903 1057
903 1062
903 1063
903 1084
903 1087
903 1107
903 1111
903 1134
903 1145
903 1147
903 1157
903 1159
903 1164
903 1211
903 1216
903 1279
903 1307
903 1330
903 1333
903 1341
903 1353
903 1370
903 1380
903 1411
903 1420
903 1427
903 1460
903 1475
903 1483
903 1495
903 1514
903 1606
903 1624
903 1671
903 1685
903 1691
903 1707
903 1725
903 1732
903 1738
903 1744
903 1771
903 1806
903 1823
903 1848
903 1869
903 1886
903 1899
903 1934
903 1951
903 1967
903 1970
903 1994
903 2028
903 2033
903 2039
903 2070
903 2073
903 2092
903 2133
903 2148
903 2154
903 2194
903 2199
904 1616
904 1633
904 1642
904 1866
904 2009
904 2065
904 2155
904 2207
905 911
905 916
905 937
905 939
905 977
905 983
905 987
905 993
905 1004
905 1005
905 1019
905 1041
905 1096
905 1127
905 1134
905 1137
905 1147
905 1178
905 1183
905 1186
905 1198
905 1212
905 1219
905 1241
905 1254
905 1284
905 1294
905 1328
905 1332
905 1358
905 1364
905 1372
905 1381
905 1403
905 1422
905 1425
905 1452
905 1462
905 1470
905 1536
905 1559
905 1578
905 1615
905 1622
905 1668
905 1676
905 1684
905 1726
905 1738
905 1748
905 1762
905 1804
905 1806
905 1867
905 1883
905 1894
905 1916
905 1930
905 1934
905 1938
905 1939
905 1967
905 1986
905 1994
905 2000
905 2035
905 2044
905 2125
905 2197
905 2200
905 2207
905 2218
905 2221
905 2227
906 963
906 1030
906 1112
906 1185
906 1259
906 1317
906 1354
906 1401
906 1439
906 1442
906 1465
906 1480
906 1486
906 1531
906 1674
906 1716
906 1768
906 1777
906 1818
906 1854
906 1988
906 2054
906 2079
906 2108
906 2116
906 2162
906 2216
907 909
907 914
907 996
907 1128
907 1159
907 1160
907 1176
907 1206
907 1229
907 1264
907 1289
907 1310
907 1397
907 1532
907 1578
907 1613
907 1643
907 1691
907 1749
907 1775
907 1912
907 1993
907 1999
907 2005
907 2049
907 2091
907 2214
908 959
908 1024
908 1053
908 1213
908 1276
908 1278
908 1441
908 1515
908 1609
908 1620
908 1642
908 1784
908 1985
908 2155
908 2169
908 2203
909 996
909 1029
909 1141
909 1176
909 1206
909 1229
909 1264
909 1289
909 1291
909 1310
909 1392
909 1532
909 1578
909 1602
909 1606
909 1613
909 1630
909 1689
909 1699
909 1704
909 1717
909 1749
909 1782
909 1837
909 1875
909 1882
909 1912
909 2049
909 2204
910 948
910 1047
910 1112
910 1180
910 1190
910 1254
910 1271
910 1316
910 1443
910 1447
910 1475
910 1498
910 1507
910 1514
910 1536
910 1578
910 1606
910 1626
910 1637
910 1659
910 1667
910 1680
910 1699
910 1704
910 1727
910 1739
910 1760
910 1903
910 1904
910 1955
910 1976
910 2019
910 2026
910 2033
910 2075
910 2118
910 2148
910 2161
910 2177
911 939
911 963
911 966
911 998
911 1001
911 1012
911 1030
911 1045
911 1062
911 1066
911 1084
911 1086
911 1178
911 1182
911 1202
911 1219
911 1249
911 1259
911 1266
911 1279
911 1286
911 1298
911 1312
911 1330
911 1351
911 1357
911 1381
911 1384
911 1403
911 1405
911 1412
911 1417
911 1427
911 1432
911 1480
911 1489
911 1491
911 1493
911 1534
911 1559
911 1561
911 1570
911 1591
911 1622
911 1668
911 1674
911 1682
911 1712
911 1738
911 1743
911 1771
911 1776
911 1779
911 1795
911 1812
911 1813
911 1894
911 1899
911 1940
911 1941
911 1957
911 1967
911 1970
911 1994
911 2025
911 2031
911 2111
911 2125
911 2149
911 2162
911 2168
911 2182
911 2188
911 2218
911 2227
912 1038
912 1042
912 1097
912 1106
912 1126
912 1190
912 1240
912 1326
912 1512
912 1699
912 1781
912 1823
912 1890
912 2090
912 2139
912 2189
913 949
913 1100
913 1106
913 1187
913 1263
913 1277
913 1303
913 1329
913 1387
913 1394
913 1436
913 1465
913 1539
913 1587
913 1590
913 1667
913 1700
913 1739
913 1750
913 1751
913 1779
913 1781
913 1800
913 1808
913 1826
913 1829
913 1844
913 1855
913 1903
913 1921
913 2039
913 2046
913 2100
913 2117
913 2120
913 2132
913 2139
913 2168
913 2184
913 2204
914 942
914 954
914 1015
914 1095
914 1097
914 1109
914 1146
914 1160
914 1206
914 1237
914 1252
914 1262
914 1264
914 1277
914 1289
914 1310
914 1330
914 1368
914 1397
914 1434
914 1499
914 1532
914 1544
914 1556
914 1578
914 1606
914 1612
914 1629
914 1650
914 1664
914 1676
914 1691
914 1702
914 1744
914 1749
914 1756
914 1816
914 1834
914 1901
914 1903
914 1927
914 1997
914 2005
914 2049
914 2089
914 2124
914 2141
914 2174
914 2208
914 2220
915 1205
915 1296
915 1728
916 938
916 939
916 963
916 1004
916 1005
916 1010
916 1028
916 1103
916 1121
916 1127
916 1133
916 1219
916 1241
916 1253
916 1259
916 1284
916 1286
916 1294
916 1318
916 1372
916 1384
916 1417
916 1432
916 1519
916 1557
916 1559
916 1594
916 1615
916 1639
916 1707
916 1771
916 1794
916 1795
916 1841
916 1883
916 1931
916 1936
916 1943
916 1974
916 1994
916 2086
916 2125
916 2131
916 2164
916 2188
916 2216
917 1018
917 1144
917 1162
917 1325
917 1371
917 1373
917 1422
917 1475
917 1606
917 1646
917 1658
917 1688
917 1713
917 1829
917 1867
917 1892
917 1952
917 2018
917 2120
917 2163
918 946
918 1057
918 1064
918 1247
918 1248
918 1291
918 1297
918 1392
918 1600
918 1614
918 1686
918 2057
918 2060
918 2155
918 2234
919 948
919 977
919 1064
919 1109
919 1151
919 1206
919 1262
919 1305
919 1336
919 1406
919 1514
919 1560
919 1566
919 1610
919 1618
919 1702
919 1709
919 1749
919 1793
919 1802
919 1875
919 1993
919 1997
919 2021
919 2089
919 2196
919 2220
920 992
920 1004
920 1037
920 1041
920 1062
920 1145
920 1184
920 1198
920 1214
920 1235
920 1269
920 1327
920 1333
920 1370
920 1403
920 1433
920 1472
920 1500
920 1530
920 1588
920 1622
920 1668
920 1676
920 1738
920 1794
920 1805
920 1930
920 1951
920 2008
920 2029
920 2035
920 2044
920 2053
920 2062
920 2092
920 2108
920 2165
920 2227
921 1548
921 1998
921 2030
921 2040
921 2094
922 1423
922 1440
922 1471
922 1529
922 2137
923 961
923 975
923 1172
923 1182
923 1248
923 1270
923 1278
923 1295
923 1356
923 1369
923 1385
923 1421
923 1441
923 1466
923 1475
923 1527
923 1628
923 1696
923 1748
923 1787
923 1825
923 1839
923 1846
923 1866
923 1868
923 1873
923 1902
923 1925
923 1926
923 1933
923 1943
923 1960
923 1978
923 2035
923 2066
923 2068
923 2074
924 931
924 937
924 966
924 969
924 984
924 986
924 999
924 1020
924 1021
924 1023
924 1025
924 1042
924 1046
924 1055
924 1065
924 1080
924 1090
924 1101
924 1105
924 1113
924 1123
924 1125
924 1128
924 1138
924 1141
924 1147
924 1160
924 1172
924 1190
924 1192
924 1193
924 1196
924 1240
924 1256
924 1262
924 1272
924 1323
924 1326
924 1339
924 1343
924 1368
924 1371
924 1382
924 1399
924 1411
924 1422
924 1438
924 1442
924 1450
924 1456
924 1464
924 1475
924 1485
924 1491
924 1506
924 1514
924 1523
924 1534
924 1571
924 1582
924 1588
924 1591
924 1598
924 1617
924 1618
924 1626
924 1630
924 1637
924 1644
924 1646
924 1658
924 1667
924 1674
924 1687
924 1698
924 1699
924 1701
924 1702
924 1708
924 1713
924 1717
924 1718
924 1727
924 1751
924 1753
924 1776
924 1794
924 1799
924 1802
924 1804
924 1820
924 1844
924 1849
924 1854
924 1860
924 1875
924 1890
924 1895
924 1915
924 1916
924 1928
924 1929
924 1951
924 1953
924 1976
924 1978
924 1983
924 2026
924 2033
924 2041
924 2100
924 2103
924 2121
924 2148
924 2158
924 2168
924 2184
924 2193
924 2196
924 2206
924 2228
925 1199
925 1258
925 1277
925 1613
925 1641
925 1650
925 1754
925 1851
925 1999
925 2229
926 940
926 942
926 973
926 1067
926 1103
926 1106
926 1129
926 1142
926 1145
926 1191
926 1233
926 1338
926 1403
926 1449
926 1505
926 1536
926 1564
926 1680
926 1762
926 1794
926 1812
926 1821
926 1829
926 1951
926 1997
926 2031
926 2050
926 2076
926 2157
926 2164
926 2183
926 2188
926 2228
927 943
927 952
927 984
927 987
927 989
927 997
927 1017
927 1033
927 1035
927 1036
927 1047
927 1090
927 1133
927 1140
927 1153
927 1172
927 1307
927 1323
927 1324
927 1341
927 1416
927 1448
927 1449
927 1475
927 1484
927 1498
927 1534
927 1554
927 1571
927 1578
927 1581
927 1595
927 1599
927 1602
927 1680
927 1696
927 1702
927 1717
927 1739
927 1743
927 1776
927 1972
927 1987
927 1993
927 1999
927 2028
927 2033
927 2150
927 2177
927 2196
927 2204
928 1790
928 2013
929 932
929 937
929 999
929 1101
929 1141
929 1183
929 1212
929 1219
929 1226
929 1268
929 1312
929 1316
929 1358
929 1384
929 1399
929 1405
929 1438
929 1442
929 1450
929 1487
929 1491
929 1503
929 1507
929 1615
929 1637
929 1638
929 1658
929 1671
929 1672
929 1702
929 1765
929 1813
929 1854
929 1867
929 1900
929 1907
929 1918
929 1928
929 2045
929 2158
929 2174
929 2188
929 2221
930 1241
930 1295
930 1333
930 1527
930 2130
930 2169
930 2200
930 2207
931 951
931 963
931 1002
931 1030
931 1055
931 1067
931 1089
931 1179
931 1231
931 1272
931 1314
931 1396
931 1399
931 1438
931 1439
931 1442
931 1445
931 1448
931 1450
931 1457
931 1465
931 1486
931 1489
931 1509
931 1523
931 1558
931 1596
931 1626
931 1631
931 1662
931 1674
931 1677
931 1690
931 1699
931 1705
931 1716
931 1792
931 1819
931 1830
931 1843
931 1867
931 1872
931 1880
931 1885
931 1895
931 1903
931 1915
931 1916
931 1939
931 1943
931 2014
931 2049
931 2054
931 2111
931 2113
931 2135
931 2144
932 964
932 966
932 997
932 1015
932 1023
932 1026
932 1068
932 1105
932 1125
932 1127
932 1141
932 1160
932 1172
932 1183
932 1184
932 1196
932 1240
932 1256
932 1262
932 1277
932 1320
932 1333
932 1338
932 1341
932 1388
932 1392
932 1403
932 1406
932 1414
932 1416
932 1422
932 1433
932 1446
932 1456
932 1475
932 1490
932 1507
932 1534
932 1541
932 1571
932 1575
932 1588
932 1602
932 1613
932 1622
932 1623
932 1637
932 1638
932 1644
932 1646
932 1666
932 1671
932 1672
932 1687
932 1696
932 1717
932 1718
932 1725
932 1780
932 1786
932 1831
932 1846
932 1849
932 1851
932 1898
932 1918
932 1929
932 1940
932 1964
932 2001
932 2028
932 2029
932 2036
932 2045
932 2049
932 2055
932 2073
932 2099
932 2100
932 2103
932 2107
932 2121
932 2148
932 2158
932 2171
932 2174
932 2181
932 2204
932 2206
932 2207
932 2227
934 968
934 1263
934 1315
934 1393
934 1583
934 1887
934 1893
934 1921
934 2080
935 966
935 967
935 968
935 1025
935 1042
935 1065
935 1175
935 1190
935 1246
935 1303
935 1310
935 1326
935 1434
935 1461
935 1464
935 1568
935 1583
935 1598
935 1604
935 1617
935 1699
935 1700
935 1710
935 1799
935 1819
935 1827
935 1875
935 1900
935 1921
935 2098
935 2139
935 2174
935 2184
935 2189
936 941
936 1057
936 1193
936 1223
936 1293
936 1481
936 1495
936 1636
936 1734
936 1864
936 2138
936 2149
936 2228
937 938
937 953
937 955
937 963
937 999
937 1004
937 1014
937 1015
937 1017
937 1019
937 1023
937 1028
937 1040
937 1072
937 1089
937 1092
937 1097
937 1101
937 1112
937 1125
937 1127
937 1133
937 1135
937 1137
937 1162
937 1183
937 1195
937 1196
937 1202
937 1212
937 1219
937 1249
937 1256
937 1257
937 1272
937 1294
937 1312
937 1314
937 1332
937 1333
937 1338
937 1372
937 1384
937 1405
937 1412
937 1437
937 1438
937 1442
937 1456
937 1477
937 1484
937 1487
937 1490
937 1491
937 1503
937 1538
937 1549
937 1569
937 1615
937 1623
937 1626
937 1638
937 1639
937 1644
937 1648
937 1658
937 1662
937 1666
937 1669
937 1675
937 1696
937 1698
937 1699
937 1716
937 1731
937 1745
937 1755
937 1771
937 1777
937 1784
937 1813
937 1830
937 1849
937 1851
937 1854
937 1867
937 1880
937 1883
937 1885
937 1907
937 1918
937 1939
937 1942
937 1957
937 1964
937 1972
937 1974
937 1983
937 1994
937 2007
937 2011
937 2026
937 2034
937 2037
937 2045
937 2064
937 2104
937 2116
937 2127
937 2131
937 2132
937 2148
937 2158
937 2162
937 2174
937 2188
937 2200
937 2206
937 2217
937 2218
937 2220
937 2221
938 939
938 1004
938 1028
938 1092
938 1109
938 1127
938 1178
938 1185
938 1195
938 1204
938 1323
938 1324
938 1371
938 1412
938 1437
938 1438
938 1442
938 1445
938 1490
938 1538
938 1595
938 1623
938 1639
938 1662
938 1663
938 1670
938 1675
938 1705
938 1714
938 1725
938 1726
938 1743
938 1811
938 1841
938 1913
938 1940
938 1943
938 1949
938 1964
938 1983
938 2007
938 2045
938 2079
938 2098
938 2104
938 2131
938 2150
938 2174
938 2181
938 2188
938 2215
939 951
939 1004
939 1045
939 1062
939 1083
939 1103
939 1145
939 1178
939 1179
939 1219
939 1241
939 1259
939 1298
939 1312
939 1333
939 1364
939 1381
939 1422
939 1427
939 1437
939 1457
939 1470
939 1479
939 1489
939 1493
939 1509
939 1517
939 1544
939 1559
939 1569
939 1570
939 1615
939 1668
939 1762
939 1771
939 1794
939 1883
939 1894
939 1931
939 1936
939 1957
939 1994
939 2078
939 2108
939 2144
939 2188
939 2218
939 2227
939 2228
940 1224
940 1245
940 1419
940 1489
940 1501
940 1850
940 1894
940 1962
940 2027
940 2031
940 2203
941 993
941 1057
941 1062
941 1107
941 1275
941 1380
941 1414
941 1474
941 1636
941 1640
941 1668
941 1685
941 1769
941 1806
941 1814
941 1823
941 1864
941 1899
941 1934
941 1970
941 2033
941 2039
941 2056
941 2138
941 2149
941 2228
942 977
942 1026
942 1039
942 1057
942 1086
942 1102
942 1105
942 1107
942 1134
942 1145
942 1147
942 1149
942 1153
942 1155
942 1184
942 1208
942 1211
942 1279
942 1280
942 1328
942 1330
942 1333
942 1338
942 1358
942 1381
942 1384
942 1388
942 1414
942 1417
942 1420
942 1425
942 1457
942 1483
942 1541
942 1561
942 1600
942 1626
942 1630
942 1639
942 1673
942 1732
942 1738
942 1763
942 1771
942 1781
942 1792
942 1805
942 1819
942 1822
942 1823
942 1838
942 1844
942 1856
942 1919
942 1931
942 1934
942 1986
942 2008
942 2043
942 2070
942 2112
942 2164
942 2168
942 2199
942 2218
942 2227
942 2228
943 997
943 1057
943 1083
943 1088
943 1107
943 1120
943 1126
943 1145
943 1160
943 1201
943 1220
943 1247
943 1291
943 1304
943 1310
943 1323
943 1380
943 1388
943 1406
943 1499
943 1556
943 1581
943 1584
943 1608
943 1666
943 1699
943 1713
943 1734
943 1785
943 1866
943 1899
943 1904
943 1905
943 1976
943 1997
943 1999
943 2028
943 2033
943 2086
943 2121
943 2191
943 2204
943 2220
943 2228
944 966
944 996
944 1014
944 1029
944 1039
944 1141
944 1316
944 1529
944 1584
944 1630
944 1704
944 1717
944 1825
944 1843
944 1918
944 1971
944 2204
945 996
945 1038
945 1047
945 1065
945 1070
945 1106
945 1136
945 1151
945 1190
945 1194
945 1231
945 1233
945 1235
945 1240
945 1289
945 1326
945 1365
945 1366
945 1368
945 1382
945 1387
945 1410
945 1431
945 1444
945 1450
945 1475
945 1518
945 1539
945 1547
945 1571
945 1578
945 1610
945 1699
945 1713
945 1717
945 1739
945 1747
945 1799
945 1800
945 1804
945 1855
945 1862
945 1872
945 1900
945 1922
945 1929
945 1993
945 2033
945 2038
945 2046
945 2049
945 2121
945 2146
945 2161
945 2165
945 2171
945 2173
945 2184
945 2185
945 2189
945 2196
945 2209
945 2232
946 1392
946 1420
946 1828
946 2009
946 2213
947 967
947 987
947 1020
947 1025
947 1033
947 1035
947 1052
947 1098
947 1101
947 1125
947 1144
947 1145
947 1151
947 1198
947 1240
947 1247
947 1258
947 1277
947 1320
947 1323
947 1341
947 1368
947 1416
947 1422
947 1492
947 1556
947 1599
947 1626
947 1654
947 1768
947 1797
947 1826
947 1831
947 1855
947 1900
947 1903
947 1907
947 1920
947 1964
947 2028
947 2084
947 2093
947 2148
947 2199
947 2221
948 966
948 1015
948 1020
948 1023
948 1042
948 1060
948 1084
948 1097
948 1101
948 1125
948 1127
948 1147
948 1162
948 1193
948 1199
948 1240
948 1262
948 1357
948 1386
948 1399
948 1411
948 1446
948 1456
948 1490
948 1507
948 1512
948 1571
948 1591
948 1602
948 1623
948 1646
948 1667
948 1672
948 1699
948 1708
948 1718
948 1781
948 1793
948 1831
948 1849
948 1851
948 1898
948 1918
948 1929
948 1939
948 1955
948 1964
948 2033
948 2049
948 2081
948 2103
948 2118
948 2139
948 2148
948 2158
948 2217
948 2229
949 967
949 1047
949 1185
949 1371
949 1659
949 1710
949 2033
949 2046
949 2126
949 2137
950 1009
951 986
951 1004
951 1083
951 1089
951 1183
951 1195
951 1204
951 1231
951 1312
951 1324
951 1333
951 1372
951 1442
951 1450
951 1523
951 1527
951 1714
951 1779
951 1830
951 1843
951 1856
951 1872
951 1943
951 1965
951 1972
951 1982
951 2007
951 2054
951 2064
951 2135
951 2174
951 2181
952 987
952 1015
952 1036
952 1052
952 1060
952 1068
952 1218
952 1232
952 1252
952 1406
952 1422
952 1435
952 1449
952 1489
952 1492
952 1534
952 1556
952 1618
952 1638
952 1654
952 1679
952 1699
952 1797
952 1804
952 1851
952 1887
952 1904
952 1920
952 1970
952 1999
952 2028
952 2045
952 2149
952 2194
952 2206
952 2217
952 2229
953 981
953 1028
953 1103
953 1121
953 1149
953 1219
953 1259
953 1266
953 1273
953 1312
953 1333
953 1338
953 1357
953 1390
953 1412
953 1442
953 1457
953 1536
953 1622
953 1639
953 1670
953 1682
953 1957
953 2104
953 2228
954 989
954 1146
954 1382
954 1425
954 1475
954 1524
954 1529
954 1571
954 1606
954 1667
954 1713
954 1929
954 1963
954 2049
954 2075
954 2099
954 2100
954 2167
954 2171
954 2190
954 2196
954 2209
954 2232
955 1004
955 1067
955 1068
955 1081
955 1089
955 1135
955 1185
955 1371
955 1387
955 1413
955 1467
955 1523
955 1547
955 1698
955 1726
955 1779
955 1843
955 2014
955 2034
955 2113
955 2206
956 1036
956 1291
956 1392
956 1553
956 1602
956 1826
956 1875
956 1944
956 2039
956 2091
957 1009
957 1016
957 1024
957 1108
957 1182
957 1215
957 1244
957 1249
957 1278
957 1282
957 1463
957 1466
957 1476
957 1506
957 1521
957 1620
957 1642
957 1692
957 1770
957 1798
957 1828
957 1866
957 1925
957 1926
957 2213
958 987
958 1000
958 1018
958 1042
958 1100
958 1128
958 1170
958 1217
958 1303
958 1305
958 1321
958 1439
958 1475
958 1516
958 1544
958 1626
958 1646
958 1724
958 1735
958 1777
958 1827
958 1831
958 1912
958 1920
958 1969
958 1977
958 1997
958 2006
958 2018
958 2054
958 2091
958 2121
958 2174
958 2232
959 1012
959 1122
959 1158
959 1242
959 1478
959 1683
959 1998
959 2040
959 2069
960 965
960 1139
960 1197
960 1213
960 1249
960 1528
960 1828
960 1845
960 1846
960 2065
961 1041
961 1053
961 1085
961 1139
961 1181
961 1295
961 1297
961 1306
961 1328
961 1356
961 1369
961 1398
961 1403
961 1452
961 1608
961 1638
961 1703
961 1722
961 1742
961 1748
961 1839
961 1845
961 1846
961 1908
961 1925
961 2000
961 2057
961 2166
961 2169
962 1036
962 1117
962 1217
962 1287
962 1365
962 1556
962 1596
962 1599
962 1602
962 1754
962 1756
962 1789
962 1833
962 1834
962 2075
963 986
963 990
963 1000
963 1019
963 1028
963 1030
963 1039
963 1043
963 1046
963 1096
963 1106
963 1116
963 1127
963 1153
963 1155
963 1171
963 1172
963 1185
963 1186
963 1219
963 1241
963 1257
963 1259
963 1304
963 1317
963 1339
963 1432
963 1437
963 1439
963 1442
963 1450
963 1465
963 1491
963 1523
963 1524
963 1538
963 1596
963 1644
963 1667
963 1674
963 1677
963 1705
963 1725
963 1729
963 1791
963 1792
963 1813
963 1818
963 1819
963 1867
963 1915
963 1938
963 1939
963 1947
963 1972
963 1977
963 2011
963 2061
963 2064
963 2119
963 2131
963 2164
963 2193
964 975
964 1101
964 1120
964 1122
964 1132
964 1139
964 1215
964 1228
964 1244
964 1278
964 1301
964 1360
964 1463
964 1499
964 1521
964 1527
964 1546
964 1557
964 1562
964 1572
964 1620
964 1651
964 1678
964 1817
964 1958
964 1991
964 2058
964 2074
964 2207
964 2213
964 2218
964 2224
964 2226
965 1024
965 1053
965 1054
965 1086
965 1108
965 1139
965 1153
965 1172
965 1213
965 1241
965 1245
965 1249
965 1266
965 1278
965 1337
965 1359
965 1369
965 1452
965 1476
965 1515
965 1536
965 1557
965 1762
965 1770
965 1845
965 1941
965 1958
965 1960
965 2096
965 2164
965 2186
965 2200
966 969
966 979
966 984
966 999
966 1021
966 1025
966 1029
966 1042
966 1047
966 1060
966 1065
966 1070
966 1102
966 1105
966 1114
966 1115
966 1117
966 1125
966 1141
966 1147
966 1171
966 1238
966 1239
966 1246
966 1258
966 1262
966 1305
966 1310
966 1320
966 1339
966 1347
966 1371
966 1434
966 1436
966 1439
966 1464
966 1490
966 1491
966 1506
966 1507
966 1509
966 1514
966 1521
966 1524
966 1541
966 1544
966 1563
966 1574
966 1585
966 1598
966 1600
966 1609
966 1613
966 1623
966 1626
966 1635
966 1638
966 1646
966 1652
966 1664
966 1667
966 1672
966 1676
966 1702
966 1708
966 1718
966 1745
966 1768
966 1793
966 1799
966 1816
966 1819
966 1822
966 1867
966 1890
966 1892
966 1893
966 1895
966 1900
966 1907
966 1914
966 1928
966 1929
966 1953
966 1963
966 1989
966 2014
966 2045
966 2080
966 2089
966 2111
966 2118
966 2121
966 2132
966 2141
966 2148
966 2151
966 2158
966 2168
966 2185
966 2196
966 2226
967 1209
967 1268
967 1310
967 1340
967 1375
967 1376
967 1382
967 1461
967 1507
967 1529
967 1542
967 1606
967 1634
967 1665
967 1699
967 1782
967 1819
967 1855
967 1872
967 1922
967 1946
967 2075
967 2137
967 2171
967 2190
967 2226
968 1146
968 1156
968 1190
968 1209
968 1229
968 1263
968 1274
968 1303
968 1423
968 1461
968 1518
968 1520
968 1529
968 1551
968 1604
968 1612
968 1728
968 1833
968 1834
968 1872
968 1984
968 1995
968 2003
968 2145
968 2189
968 2190
968 2209
968 2226
968 2232
969 996
969 1023
969 1113
969 1128
969 1146
969 1151
969 1160
969 1275
969 1291
969 1316
969 1340
969 1352
969 1464
969 1491
969 1500
969 1506
969 1514
969 1529
969 1534
969 1554
969 1578
969 1585
969 1612
969 1613
969 1626
969 1635
969 1694
969 1708
969 1724
969 1745
969 1793
969 1875
969 1879
969 1900
969 1929
969 1942
969 1977
969 2158
970 1007
970 1015
970 1101
970 1152
970 1160
970 1176
970 1252
970 1258
970 1336
970 1416
970 1422
970 1434
970 1504
970 1629
970 1679
970 1731
970 1754
970 1826
970 1927
970 1944
970 1993
970 1996
970 1999
970 2023
970 2175
970 2194
970 2208
971 990
971 1030
971 1070
971 1074
971 1185
971 1279
971 1298
971 1438
971 1457
971 1509
971 1540
971 1615
971 1621
971 1662
971 1677
971 1684
971 1698
971 1719
971 1762
971 1843
971 1872
971 1988
971 2164
972 1044
972 1558
973 981
973 987
973 1010
973 1026
973 1041
973 1096
973 1102
973 1115
973 1142
973 1149
973 1153
973 1211
973 1219
973 1241
973 1254
973 1256
973 1299
973 1300
973 1312
973 1314
973 1320
973 1328
973 1330
973 1333
973 1338
973 1363
973 1384
973 1390
973 1399
973 1405
973 1446
973 1457
973 1469
973 1477
973 1487
973 1490
973 1519
973 1534
973 1536
973 1538
973 1541
973 1560
973 1615
973 1673
973 1690
973 1726
973 1735
973 1758
973 1769
973 1796
973 1805
973 1862
973 1865
973 1931
973 1935
973 1940
973 1964
973 1986
973 2035
973 2049
973 2076
973 2093
973 2129
973 2150
973 2164
973 2188
973 2189
973 2202
973 2206
974 1119
974 1310
974 1474
974 1495
974 1499
974 1520
974 1676
974 1851
974 1879
974 1993
974 2118
974 2139
974 2184
974 2228
975 1466
975 1468
975 1828
975 1866
975 2027
975 2096
976 1977
977 1015
977 1062
977 1070
977 1086
977 1151
977 1152
977 1157
977 1211
977 1279
977 1307
977 1361
977 1403
977 1414
977 1417
977 1534
977 1560
977 1622
977 1687
977 1738
977 1744
977 1794
977 1806
977 1814
977 1934
977 1970
977 2028
977 2043
977 2056
977 2070
977 2154
977 2165
977 2199
978 1038
978 1065
978 1073
978 1126
978 1128
978 1194
978 1196
978 1232
978 1286
978 1291
978 1323
978 1326
978 1368
978 1386
978 1436
978 1492
978 1506
978 1539
978 1544
978 1576
978 1583
978 1646
978 1672
978 1687
978 1713
978 1781
978 1815
978 1875
978 1904
978 1922
978 1929
978 1932
978 1993
978 2173
978 2174
978 2184
979 1087
979 1097
979 1113
979 1125
979 1141
979 1316
979 1352
979 1379
979 1399
979 1446
979 1507
979 1512
979 1529
979 1564
979 1571
979 1576
979 1578
979 1630
979 1666
979 1680
979 1699
979 1717
979 1733
979 1739
979 1844
979 1918
979 1976
979 1993
979 2047
979 2075
979 2110
979 2136
979 2190
980 1128
980 1382
980 1472
980 1500
980 1524
980 1892
980 1906
980 1969
980 2041
980 2093
980 2219
980 2230
981 984
981 1001
981 1005
981 1010
981 1028
981 1041
981 1096
981 1149
981 1173
981 1178
981 1219
981 1241
981 1259
981 1298
981 1299
981 1304
981 1312
981 1333
981 1357
981 1361
981 1370
981 1377
981 1390
981 1405
981 1422
981 1442
981 1443
981 1457
981 1470
981 1498
981 1502
981 1536
981 1538
981 1555
981 1622
981 1626
981 1699
981 1771
981 1820
981 1823
981 1865
981 1870
981 1930
981 1931
981 1935
981 1943
981 1951
981 1994
981 2013
981 2076
981 2093
981 2188
982 1137
982 1164
982 1166
982 1462
982 1561
982 1580
982 1763
982 1887
983 1005
983 1026
983 1068
983 1084
983 1134
983 1172
983 1211
983 1269
983 1287
983 1384
983 1390
983 1417
983 1445
983 1493
983 1622
983 1684
983 1685
983 1734
983 1769
983 1806
983 1823
983 1864
983 1899
983 1911
983 1943
983 2054
983 2059
983 2125
983 2164
983 2197
983 2218
983 2228
984 993
984 1015
984 1042
984 1048
984 1055
984 1066
984 1090
984 1163
984 1173
984 1386
984 1395
984 1396
984 1411
984 1426
984 1443
984 1475
984 1485
984 1535
984 1541
984 1553
984 1626
984 1627
984 1667
984 1688
984 1697
984 1702
984 1717
984 1718
984 1739
984 1793
984 1898
984 1918
984 1929
984 1971
984 1976
984 2018
984 2026
984 2033
984 2039
984 2049
984 2113
984 2161
984 2190
984 2196
984 2204
985 1241
985 1382
985 1450
985 2043
986 1046
986 1055
986 1123
986 1171
986 1186
986 1190
986 1241
986 1309
986 1317
986 1412
986 1413
986 1418
986 1438
986 1465
986 1631
986 1670
986 1677
986 1854
986 1880
986 1885
986 1915
986 1935
986 1936
986 2011
986 2014
986 2026
986 2113
986 2135
986 2164
987 1000
987 1003
987 1015
987 1040
987 1046
987 1068
987 1077
987 1089
987 1096
987 1100
987 1116
987 1127
987 1147
987 1160
987 1162
987 1172
987 1195
987 1199
987 1201
987 1208
987 1220
987 1235
987 1256
987 1259
987 1294
987 1314
987 1324
987 1341
987 1358
987 1364
987 1368
987 1401
987 1422
987 1439
987 1442
987 1465
987 1484
987 1491
987 1523
987 1541
987 1544
987 1556
987 1577
987 1588
987 1594
987 1609
987 1631
987 1638
987 1644
987 1646
987 1653
987 1654
987 1667
987 1669
987 1670
987 1675
987 1679
987 1690
987 1699
987 1713
987 1714
987 1716
987 1726
987 1755
987 1771
987 1779
987 1784
987 1792
987 1797
987 1804
987 1808
987 1820
987 1829
987 1841
987 1848
987 1854
987 1857
987 1872
987 1876
987 1894
987 1895
987 1903
987 1904
987 1907
987 1938
987 1940
987 1955
987 1957
987 1972
987 1983
987 1994
987 1999
987 2007
987 2011
987 2028
987 2033
987 2049
987 2054
987 2064
987 2068
987 2102
987 2107
987 2111
987 2120
987 2131
987 2148
987 2152
987 2156
987 2158
987 2174
987 2196
987 2202
987 2208
987 2216
987 2221
988 1013
988 1088
988 1090
988 1127
988 1145
988 1160
988 1220
988 1449
988 1464
988 1582
988 1591
988 1623
988 1680
988 1743
988 1780
988 1797
988 1812
988 1829
988 1876
988 1904
988 1908
988 1977
988 1999
988 2007
988 2045
988 2120
988 2158
988 2182
988 2194
988 2208
989 991
989 1047
989 1055
989 1109
989 1144
989 1180
989 1190
989 1275
989 1307
989 1308
989 1341
989 1347
989 1378
989 1382
989 1386
989 1443
989 1448
989 1475
989 1482
989 1498
989 1525
989 1571
989 1578
989 1585
989 1602
989 1626
989 1665
989 1702
989 1704
989 1713
989 1717
989 1727
989 1739
989 1754
989 1760
989 1799
989 1804
989 1819
989 1824
989 1862
989 1869
989 1921
989 1929
989 1993
989 2005
989 2028
989 2033
989 2039
989 2046
989 2081
989 2109
989 2126
989 2149
989 2161
989 2177
989 2196
989 2209
990 1046
990 1074
990 1219
990 1231
990 1259
990 1279
990 1309
990 1312
990 1317
990 1324
990 1357
990 1401
990 1438
990 1491
990 1517
990 1540
990 1552
990 1567
990 1605
990 1621
990 1631
990 1662
990 1690
990 1813
990 1854
990 1867
990 1915
990 1948
990 1977
990 1988
990 2037
990 2045
990 2116
990 2150
990 2162
990 2164
990 2188
990 2233
991 1036
991 1274
991 1308
991 1382
991 1422
991 1425
991 1482
991 1498
991 1578
991 1680
991 1731
991 1739
991 1813
991 1901
991 2075
991 2109
991 2165
991 2171
992 1018
992 1062
992 1063
992 1077
992 1142
992 1145
992 1211
992 1216
992 1283
992 1304
992 1332
992 1433
992 1453
992 1530
992 1560
992 1668
992 1965
992 1967
992 2029
992 2047
992 2053
992 2062
992 2076
992 2092
992 2096
992 2144
993 1118
993 1203
993 1496
993 1565
993 1580
993 1640
993 1801
993 1802
993 2016
993 2039
993 2207
993 2228
994 1090
994 1388
994 1414
994 1460
994 1536
994 1667
994 1763
994 1865
994 2026
994 2161
994 2228
995 1039
995 1440
995 1843
995 1881
996 1113
996 1126
996 1151
996 1173
996 1199
996 1240
996 1277
996 1308
996 1340
996 1375
996 1397
996 1411
996 1422
996 1514
996 1553
996 1584
996 1630
996 1634
996 1650
996 1653
996 1656
996 1667
996 1699
996 1713
996 1717
996 1745
996 1775
996 1855
996 1869
996 1875
996 1884
996 1912
996 1946
996 1950
996 1971
996 1976
996 1987
996 2084
996 2103
996 2165
996 2214
996 2226
997 1220
997 1362
997 1475
997 1554
997 1599
997 1602
997 1696
997 1699
997 1780
997 1804
997 1859
997 1905
997 1976
997 1987
997 2028
997 2100
997 2191
998 1008
998 1041
998 1086
998 1130
998 1142
998 1145
998 1146
998 1216
998 1279
998 1307
998 1328
998 1330
998 1381
998 1422
998 1483
998 1504
998 1561
998 1591
998 1673
998 1707
998 1732
998 1794
998 1806
998 1814
998 1967
998 2043
998 2044
998 2070
998 2086
998 2092
998 2118
998 2133
998 2154
998 2197
999 1020
999 1023
999 1042
999 1097
999 1101
999 1113
999 1125
999 1151
999 1193
999 1262
999 1320
999 1341
999 1344
999 1376
999 1425
999 1446
999 1456
999 1475
999 1506
999 1560
999 1617
999 1623
999 1637
999 1667
999 1702
999 1708
999 1721
999 1751
999 1778
999 1878
999 1893
999 1898
999 1916
999 1918
999 1928
999 1929
999 1953
999 1955
999 2026
999 2033
999 2049
999 2158
999 2189
1000 1002
1000 1015
1000 1055
1000 1059
1000 1065
1000 1120
1000 1129
1000 1149
1000 1171
1000 1172
1000 1308
1000 1323
1000 1325
1000 1326
1000 1365
1000 1373
1000 1382
1000 1422
1000 1450
1000 1454
1000 1475
1000 1499
1000 1524
1000 1535
1000 1553
1000 1579
1000 1591
1000 1596
1000 1618
1000 1626
1000 1646
1000 1713
1000 1735
1000 1750
1000 1779
1000 1826
1000 1829
1000 1844
1000 1855
1000 1906
1000 1907
1000 1915
1000 1916
1000 1920
1000 1944
1000 1969
1000 2041
1000 2064
1000 2103
1000 2118
1000 2120
1000 2139
1000 2145
1000 2184
1000 2193
1000 2206
1000 2226
1001 1010
1001 1026
1001 1051
1001 1062
1001 1077
1001 1124
1001 1149
1001 1164
1001 1179
1001 1192
1001 1298
1001 1333
1001 1357
1001 1432
1001 1457
1001 1479
1001 1559
1001 1560
1001 1580
1001 1605
1001 1640
1001 1668
1001 1682
1001 1831
1001 1894
1001 1951
1001 1970
1001 1980
1001 1994
1001 2029
1001 2093
1001 2094
1001 2144
1001 2149
1001 2227
1002 1147
1002 1172
1002 1185
1002 1190
1002 1235
1002 1251
1002 1260
1002 1286
1002 1316
1002 1338
1002 1373
1002 1410
1002 1422
1002 1431
1002 1442
1002 1444
1002 1445
1002 1580
1002 1596
1002 1663
1002 1665
1002 1670
1002 1684
1002 1699
1002 1713
1002 1756
1002 1781
1002 1819
1002 1855
1002 1862
1002 1916
1002 1972
1002 2054
1002 2075
1002 2109
1002 2161
1002 2163
1002 2209
1002 2215
1003 1015
1003 1018
1003 1040
1003 1072
1003 1097
1003 1136
1003 1183
1003 1195
1003 1235
1003 1309
1003 1314
1003 1373
1003 1484
1003 1490
1003 1544
1003 1558
1003 1600
1003 1609
1003 1670
1003 1714
1003 1716
1003 1730
1003 1776
1003 1804
1003 1830
1003 1876
1003 1921
1003 1936
1003 1955
1003 2054
1003 2064
1003 2098
1003 2139
1003 2174
1003 2181
1003 2202
1003 2206
1004 1066
1004 1067
1004 1081
1004 1089
1004 1096
1004 1103
1004 1135
1004 1137
1004 1147
1004 1178
1004 1179
1004 1185
1004 1202
1004 1219
1004 1241
1004 1253
1004 1259
1004 1267
1004 1270
1004 1284
1004 1294
1004 1312
1004 1327
1004 1332
1004 1333
1004 1364
1004 1369
1004 1371
1004 1387
1004 1396
1004 1413
1004 1442
1004 1450
1004 1457
1004 1460
1004 1462
1004 1465
1004 1467
1004 1493
1004 1557
1004 1559
1004 1569
1004 1570
1004 1605
1004 1615
1004 1626
1004 1662
1004 1669
1004 1670
1004 1712
1004 1726
1004 1763
1004 1771
1004 1779
1004 1795
1004 1838
1004 1883
1004 1894
1004 1930
1004 1935
1004 1938
1004 1957
1004 1967
1004 1977
1004 1994
1004 2014
1004 2034
1004 2087
1004 2131
1004 2150
1004 2186
1004 2221
1004 2228
1005 1056
1005 1057
1005 1060
1005 1062
1005 1084
1005 1103
1005 1107
1005 1121
1005 1134
1005 1202
1005 1219
1005 1241
1005 1259
1005 1270
1005 1279
1005 1294
1005 1299
1005 1312
1005 1333
1005 1338
1005 1357
1005 1384
1005 1412
1005 1420
1005 1422
1005 1427
1005 1519
1005 1570
1005 1726
1005 1771
1005 1796
1005 1805
1005 1823
1005 1886
1005 1899
1005 1911
1005 1935
1005 1938
1005 1940
1005 1943
1005 1972
1005 1997
1005 2045
1005 2059
1005 2125
1005 2149
1005 2165
1005 2188
1005 2218
1005 2228
1006 1010
1006 1066
1006 1072
1006 1103
1006 1137
1006 1164
1006 1190
1006 1211
1006 1219
1006 1270
1006 1298
1006 1333
1006 1338
1006 1362
1006 1371
1006 1380
1006 1381
1006 1390
1006 1413
1006 1422
1006 1424
1006 1457
1006 1470
1006 1472
1006 1489
1006 1490
1006 1491
1006 1492
1006 1517
1006 1536
1006 1570
1006 1624
1006 1712
1006 1795
1006 1813
1006 1820
1006 1838
1006 1863
1006 1911
1006 1943
1006 1997
1006 2074
1006 2125
1006 2144
1006 2161
1006 2227
1006 2228
1007 1009
1007 1024
1007 1064
1007 1082
1007 1120
1007 1172
1007 1189
1007 1213
1007 1295
1007 1313
1007 1505
1007 1528
1007 1628
1007 1823
1007 1828
1007 2004
1007 2065
1007 2099
1007 2134
1007 2206
1007 2208
1008 1067
1008 1422
1008 1453
1008 1502
1008 1803
1008 1805
1008 1886
1008 1999
1008 2076
1008 2208
1009 1024
1009 1108
1009 1172
1009 1182
1009 1215
1009 1249
1009 1265
1009 1295
1009 1313
1009 1355
1009 1441
1009 1466
1009 1608
1009 1748
1009 1820
1009 1828
1009 1845
1009 1866
1009 1954
1009 1958
1009 1960
1009 2065
1009 2082
1009 2096
1009 2134
1009 2203
1010 1045
1010 1051
1010 1060
1010 1066
1010 1096
1010 1103
1010 1124
1010 1179
1010 1241
1010 1279
1010 1286
1010 1298
1010 1304
1010 1357
1010 1381
1010 1417
1010 1432
1010 1456
1010 1457
1010 1479
1010 1605
1010 1626
1010 1640
1010 1668
1010 1699
1010 1794
1010 1894
1010 1943
1010 1977
1010 2035
1010 2149
1010 2161
1010 2174
1010 2228
1011 1326
1011 1506
1011 1507
1011 1667
1011 1687
1011 1713
1011 1773
1011 1781
1011 1799
1011 1833
1011 1906
1011 1922
1011 2041
1011 2168
1012 1027
1012 1091
1012 1122
1012 1154
1012 1158
1012 1248
1012 1297
1012 1398
1012 1459
1012 1562
1012 1683
1012 1720
1012 1722
1012 1904
1012 1926
1012 2009
1012 2040
1012 2048
1012 2065
1012 2069
1012 2105
1012 2115
1013 1022
1013 1034
1013 1039
1013 1049
1013 1115
1013 1129
1013 1155
1013 1191
1013 1221
1013 1233
1013 1435
1013 1449
1013 1523
1013 1638
1013 1680
1013 1705
1013 1808
1013 1829
1013 1963
1013 1977
1013 2101
1013 2113
1013 2120
1013 2135
1013 2182
1014 1015
1014 1028
1014 1039
1014 1044
1014 1171
1014 1186
1014 1268
1014 1317
1014 1412
1014 1418
1014 1471
1014 1487
1014 1531
1014 1558
1014 1609
1014 1617
1014 1669
1014 1808
1014 1854
1014 1861
1014 1948
1014 2085
1014 2101
1014 2233
1015 1017
1015 1028
1015 1036
1015 1055
1015 1072
1015 1092
1015 1096
1015 1099
1015 1127
1015 1171
1015 1172
1015 1178
1015 1185
1015 1187
1015 1195
1015 1196
1015 1233
1015 1247
1015 1304
1015 1313
1015 1314
1015 1335
1015 1341
1015 1347
1015 1362
1015 1368
1015 1372
1015 1390
1015 1393
1015 1406
1015 1416
1015 1418
1015 1422
1015 1429
1015 1450
1015 1457
1015 1467
1015 1489
1015 1490
1015 1534
1015 1536
1015 1538
1015 1556
1015 1578
1015 1581
1015 1591
1015 1602
1015 1609
1015 1644
1015 1697
1015 1699
1015 1712
1015 1713
1015 1716
1015 1726
1015 1750
1015 1755
1015 1779
1015 1784
1015 1797
1015 1799
1015 1808
1015 1810
1015 1841
1015 1852
1015 1855
1015 1905
1015 1920
1015 1930
1015 1935
1015 1940
1015 1943
1015 1967
1015 1997
1015 2001
1015 2007
1015 2023
1015 2028
1015 2107
1015 2110
1015 2111
1015 2127
1015 2148
1015 2150
1015 2152
1015 2156
1015 2175
1015 2176
1015 2220
1015 2221
1016 1030
1016 1182
1016 1350
1016 1515
1016 1540
1016 1620
1016 1729
1016 1762
1017 1066
1017 1172
1017 1259
1017 1323
1017 1333
1017 1371
1017 1384
1017 1437
1017 1445
1017 1486
1017 1493
1017 1517
1017 1538
1017 1582
1017 1584
1017 1595
1017 1639
1017 1670
1017 1804
1017 1820
1017 1907
1017 1920
1017 1966
1017 2072
1017 2084
1017 2131
1017 2150
1017 2206
1018 1040
1018 1063
1018 1065
1018 1077
1018 1114
1018 1128
1018 1140
1018 1144
1018 1145
1018 1149
1018 1159
1018 1192
1018 1235
1018 1284
1018 1362
1018 1382
1018 1413
1018 1445
1018 1490
1018 1524
1018 1530
1018 1558
1018 1626
1018 1639
1018 1646
1018 1663
1018 1665
1018 1667
1018 1668
1018 1707
1018 1735
1018 1750
1018 1818
1018 1843
1018 1900
1018 1915
1018 1916
1018 1920
1018 2008
1018 2029
1018 2049
1018 2053
1018 2062
1018 2092
1018 2164
1018 2165
1018 2174
1019 1046
1019 1055
1019 1116
1019 1183
1019 1185
1019 1187
1019 1219
1019 1231
1019 1317
1019 1372
1019 1382
1019 1401
1019 1439
1019 1442
1019 1465
1019 1475
1019 1480
1019 1569
1019 1615
1019 1631
1019 1637
1019 1677
1019 1701
1019 1719
1019 1771
1019 1779
1019 1799
1019 1813
1019 1818
1019 1881
1019 1928
1019 1936
1019 1947
1019 1994
1019 2108
1019 2116
1019 2132
1019 2143
1019 2161
1019 2177
1019 2188
1019 2190
1019 2216
1019 2221
1020 1042
1020 1095
1020 1127
1020 1193
1020 1239
1020 1240
1020 1262
1020 1320
1020 1348
1020 1362
1020 1384
1020 1399
1020 1411
1020 1414
1020 1422
1020 1436
1020 1490
1020 1506
1020 1507
1020 1541
1020 1599
1020 1626
1020 1638
1020 1699
1020 1702
1020 1731
1020 1780
1020 1810
1020 1898
1020 1901
1020 1911
1020 1927
1020 2028
1020 2033
1020 2045
1020 2122
1020 2148
1020 2204
1020 2214
1021 1042
1021 1065
1021 1080
1021 1138
1021 1144
1021 1163
1021 1189
1021 1217
1021 1305
1021 1344
1021 1399
1021 1422
1021 1454
1021 1464
1021 1475
1021 1514
1021 1568
1021 1585
1021 1598
1021 1627
1021 1768
1021 1782
1021 1831
1021 1840
1021 1878
1021 1916
1021 1997
1021 2039
1021 2190
1021 2209
1022 1123
1022 1150
1022 1230
1022 1268
1022 1317
1022 1367
1022 1371
1022 1387
1022 1428
1022 1438
1022 1439
1022 1471
1022 1486
1022 1487
1022 1509
1022 1567
1022 1587
1022 1603
1022 1631
1022 1705
1022 1765
1022 1808
1022 1843
1022 1854
1022 1857
1022 1861
1022 1923
1022 1982
1022 2116
1022 2117
1022 2137
1022 2162
1022 2233
1023 1042
1023 1101
1023 1105
1023 1112
1023 1113
1023 1151
1023 1160
1023 1196
1023 1233
1023 1240
1023 1262
1023 1316
1023 1399
1023 1446
1023 1448
1023 1450
1023 1456
1023 1474
1023 1475
1023 1490
1023 1492
1023 1506
1023 1507
1023 1532
1023 1571
1023 1578
1023 1596
1023 1604
1023 1637
1023 1638
1023 1659
1023 1667
1023 1672
1023 1676
1023 1702
1023 1713
1023 1725
1023 1727
1023 1739
1023 1751
1023 1806
1023 1819
1023 1875
1023 1898
1023 1918
1023 1929
1023 1942
1023 1953
1023 1963
1023 1964
1023 1970
1023 1976
1023 1993
1023 2010
1023 2037
1023 2039
1023 2045
1023 2062
1023 2108
1023 2140
1023 2142
1023 2158
1023 2184
1023 2204
1023 2226
1024 1104
1024 1172
1024 1179
1024 1182
1024 1213
1024 1244
1024 1249
1024 1295
1024 1313
1024 1337
1024 1359
1024 1385
1024 1466
1024 1476
1024 1501
1024 1527
1024 1678
1024 1729
1024 1746
1024 1748
1024 1828
1024 1925
1024 1926
1024 1958
1024 2000
1024 2009
1024 2016
1024 2066
1024 2096
1024 2160
1024 2183
1024 2200
1024 2213
1025 1041
1025 1060
1025 1070
1025 1097
1025 1120
1025 1128
1025 1134
1025 1170
1025 1189
1025 1190
1025 1198
1025 1214
1025 1287
1025 1289
1025 1303
1025 1321
1025 1326
1025 1328
1025 1333
1025 1341
1025 1403
1025 1411
1025 1414
1025 1436
1025 1474
1025 1489
1025 1492
1025 1507
1025 1514
1025 1560
1025 1563
1025 1591
1025 1598
1025 1600
1025 1605
1025 1626
1025 1627
1025 1646
1025 1687
1025 1688
1025 1724
1025 1738
1025 1739
1025 1768
1025 1783
1025 1797
1025 1804
1025 1807
1025 1823
1025 1831
1025 1840
1025 1904
1025 1920
1025 1922
1025 1940
1025 1955
1025 1967
1025 2006
1025 2080
1025 2121
1025 2145
1025 2196
1025 2197
1025 2207
1025 2220
1025 2226
1025 2227
1026 1041
1026 1045
1026 1051
1026 1065
1026 1105
1026 1124
1026 1147
1026 1149
1026 1189
1026 1211
1026 1219
1026 1232
1026 1241
1026 1259
1026 1287
1026 1298
1026 1312
1026 1326
1026 1328
1026 1338
1026 1351
1026 1373
1026 1384
1026 1422
1026 1432
1026 1445
1026 1457
1026 1506
1026 1523
1026 1547
1026 1568
1026 1605
1026 1668
1026 1738
1026 1792
1026 1799
1026 1805
1026 1819
1026 1823
1026 1831
1026 1844
1026 1863
1026 1896
1026 1951
1026 1967
1026 1974
1026 1986
1026 1989
1026 1994
1026 1997
1026 2008
1026 2054
1026 2064
1026 2112
1026 2164
1026 2207
1027 1139
1027 1213
1027 1224
1027 1633
1027 2009
1027 2134
1027 2164
1027 2207
1028 1030
1028 1040
1028 1046
1028 1081
1028 1089
1028 1092
1028 1103
1028 1123
1028 1125
1028 1127
1028 1133
1028 1162
1028 1178
1028 1219
1028 1232
1028 1236
1028 1249
1028 1253
1028 1256
1028 1257
1028 1259
1028 1309
1028 1312
1028 1324
1028 1327
1028 1361
1028 1371
1028 1372
1028 1390
1028 1405
1028 1437
1028 1439
1028 1442
1028 1445
1028 1456
1028 1457
1028 1480
1028 1490
1028 1509
1028 1536
1028 1538
1028 1570
1028 1584
1028 1615
1028 1623
1028 1639
1028 1648
1028 1662
1028 1669
1028 1674
1028 1675
1028 1690
1028 1726
1028 1755
1028 1771
1028 1776
1028 1777
1028 1796
1028 1804
1028 1830
1028 1841
1028 1904
1028 1905
1028 1936
1028 1948
1028 1949
1028 1966
1028 1983
1028 2001
1028 2011
1028 2064
1028 2107
1028 2131
1028 2148
1028 2150
1028 2158
1028 2162
1028 2164
1028 2174
1028 2221
1029 1042
1029 1097
1029 1352
1029 1392
1029 1411
1029 1518
1029 1533
1029 1659
1029 1672
1029 1704
1029 1753
1029 1826
1029 1881
1029 1912
1029 1993
1029 2025
1029 2033
1029 2046
1029 2174
1029 2214
1030 1042
1030 1046
1030 1055
1030 1070
1030 1123
1030 1185
1030 1219
1030 1279
1030 1326
1030 1371
1030 1382
1030 1401
1030 1418
1030 1438
1030 1439
1030 1491
1030 1509
1030 1538
1030 1603
1030 1626
1030 1637
1030 1690
1030 1705
1030 1813
1030 1819
1030 1841
1030 1843
1030 1854
1030 1867
1030 1907
1030 1957
1030 1977
1030 1988
1030 2037
1030 2075
1030 2116
1030 2121
1030 2148
1030 2152
1030 2188
1030 2204
1031 1057
1031 1154
1031 1176
1031 1198
1031 1307
1031 1322
1031 1388
1031 1420
1031 1560
1031 1622
1031 1738
1031 1744
1031 1863
1031 1931
1031 2073
1031 2123
1031 2138
1032 1349
1032 1839
1032 1846
1032 1934
1032 1945
1032 2060
1033 1090
1033 1243
1033 1252
1033 1258
1033 1368
1033 1435
1033 1449
1033 1498
1033 1588
1033 1831
1033 1900
1034 1039
1034 1106
1034 1129
1034 1146
1034 1191
1034 1251
1034 1523
1034 1558
1034 1638
1034 1644
1034 1646
1034 1680
1034 1705
1034 1808
1034 1829
1034 1977
1034 2101
1034 2120
1034 2182
1035 1036
1035 1048
1035 1140
1035 1152
1035 1199
1035 1231
1035 1243
1035 1247
1035 1291
1035 1310
1035 1333
1035 1341
1035 1345
1035 1368
1035 1393
1035 1416
1035 1422
1035 1427
1035 1436
1035 1489
1035 1492
1035 1499
1035 1512
1035 1539
1035 1588
1035 1602
1035 1612
1035 1677
1035 1679
1035 1731
1035 1792
1035 1797
1035 1803
1035 1804
1035 1831
1035 1903
1035 1999
1035 2016
1035 2196
1035 2197
1035 2208
1035 2217
1036 1052
1036 1079
1036 1087
1036 1088
1036 1128
1036 1140
1036 1146
1036 1152
1036 1172
1036 1199
1036 1217
1036 1237
1036 1243
1036 1247
1036 1287
1036 1291
1036 1310
1036 1323
1036 1330
1036 1341
1036 1365
1036 1368
1036 1406
1036 1449
1036 1487
1036 1492
1036 1502
1036 1511
1036 1514
1036 1524
1036 1534
1036 1556
1036 1581
1036 1611
1036 1626
1036 1638
1036 1650
1036 1661
1036 1699
1036 1716
1036 1724
1036 1767
1036 1803
1036 1826
1036 1851
1036 1875
1036 1887
1036 1903
1036 1920
1036 1956
1036 1999
1036 2028
1036 2044
1036 2045
1036 2054
1036 2150
1036 2174
1036 2189
1036 2194
1036 2202
1036 2208
1036 2220
1037 1090
1037 1101
1037 1145
1037 1362
1037 1500
1037 1612
1037 1618
1037 1844
1037 2092
1038 1070
1038 1088
1038 1106
1038 1126
1038 1141
1038 1240
1038 1271
1038 1291
1038 1308
1038 1316
1038 1326
1038 1347
1038 1439
1038 1518
1038 1619
1038 1699
1038 1713
1038 1737
1038 1783
1038 1799
1038 1826
1038 1875
1038 1890
1038 1928
1038 2053
1038 2184
1038 2209
1039 1040
1039 1100
1039 1150
1039 1187
1039 1230
1039 1257
1039 1268
1039 1317
1039 1367
1039 1387
1039 1394
1039 1422
1039 1438
1039 1439
1039 1516
1039 1550
1039 1577
1039 1583
1039 1587
1039 1612
1039 1621
1039 1700
1039 1705
1039 1711
1039 1753
1039 1808
1039 1813
1039 1843
1039 1854
1039 1914
1039 1947
1039 1963
1039 1982
1039 2042
1039 2111
1039 2117
1039 2121
1039 2168
1039 2211
1039 2233
1040 1086
1040 1092
1040 1133
1040 1135
1040 1172
1040 1211
1040 1219
1040 1373
1040 1442
1040 1477
1040 1487
1040 1500
1040 1538
1040 1588
1040 1633
1040 1644
1040 1699
1040 1808
1040 1867
1040 1948
1040 2034
1040 2054
1040 2062
1040 2080
1040 2087
1040 2116
1040 2174
1040 2206
1041 1062
1041 1086
1041 1092
1041 1134
1041 1164
1041 1175
1041 1184
1041 1185
1041 1198
1041 1231
1041 1259
1041 1269
1041 1294
1041 1328
1041 1361
1041 1370
1041 1405
1041 1556
1041 1560
1041 1561
1041 1612
1041 1622
1041 1673
1041 1716
1041 1738
1041 1754
1041 1792
1041 1805
1041 1812
1041 1899
1041 1934
1041 1963
1041 1967
1041 1986
1041 2010
1041 2035
1041 2043
1041 2044
1041 2070
1041 2096
1041 2125
1041 2133
1041 2168
1041 2197
1041 2227
1042 1097
1042 1105
1042 1125
1042 1138
1042 1141
1042 1151
1042 1184
1042 1262
1042 1316
1042 1320
1042 1411
1042 1424
1042 1439
1042 1446
1042 1487
1042 1490
1042 1506
1042 1507
1042 1514
1042 1518
1042 1534
1042 1583
1042 1596
1042 1618
1042 1626
1042 1635
1042 1637
1042 1638
1042 1653
1042 1659
1042 1667
1042 1672
1042 1702
1042 1708
1042 1717
1042 1718
1042 1745
1042 1751
1042 1753
1042 1844
1042 1860
1042 1878
1042 1895
1042 1911
1042 1914
1042 1916
1042 1918
1042 1929
1042 1953
1042 1964
1042 1975
1042 1997
1042 2024
1042 2025
1042 2049
1042 2061
1042 2103
1042 2118
1042 2140
1042 2145
1042 2158
1042 2168
1042 2174
1043 1153
1043 1160
1043 1172
1043 1232
1043 1312
1043 1368
1043 1422
1043 1432
1043 1541
1043 1544
1043 1618
1043 1690
1043 1705
1043 1730
1043 1754
1043 1813
1043 1819
1043 1831
1043 1896
1043 1907
1043 1940
1043 1983
1043 2045
1043 2107
1043 2150
1043 2168
1043 2188
1043 2208
1044 1440
1044 1471
1044 2085
1045 1051
1045 1062
1045 1066
1045 1084
1045 1124
1045 1147
1045 1164
1045 1179
1045 1259
1045 1270
1045 1279
1045 1298
1045 1333
1045 1380
1045 1381
1045 1417
1045 1427
1045 1432
1045 1457
1045 1479
1045 1489
1045 1534
1045 1536
1045 1559
1045 1580
1045 1588
1045 1605
1045 1668
1045 1682
1045 1685
1045 1738
1045 1801
1045 1831
1045 1863
1045 1864
1045 1894
1045 1905
1045 1943
1045 1957
1045 1980
1045 1994
1045 2007
1045 2044
1045 2056
1045 2133
1045 2138
1045 2144
1045 2149
1045 2207
1045 2227
1046 1055
1046 1123
1046 1172
1046 1212
1046 1241
1046 1309
1046 1405
1046 1418
1046 1438
1046 1440
1046 1442
1046 1465
1046 1487
1046 1509
1046 1596
1046 1631
1046 1675
1046 1841
1046 1861
1046 1867
1046 1880
1046 1915
1046 1938
1046 1949
1046 1982
1046 2035
1046 2112
1046 2137
1046 2164
1046 2165
1047 1055
1047 1090
1047 1097
1047 1126
1047 1144
1047 1151
1047 1171
1047 1189
1047 1217
1047 1233
1047 1271
1047 1272
1047 1325
1047 1366
1047 1382
1047 1386
1047 1411
1047 1436
1047 1448
1047 1489
1047 1554
1047 1571
1047 1596
1047 1598
1047 1602
1047 1606
1047 1646
1047 1691
1047 1696
1047 1701
1047 1702
1047 1704
1047 1713
1047 1739
1047 1797
1047 1804
1047 1844
1047 1869
1047 1875
1047 1907
1047 2014
1047 2026
1047 2028
1047 2073
1047 2075
1047 2081
1047 2084
1047 2091
1047 2100
1047 2121
1047 2148
1047 2182
1047 2196
1047 2210
1047 2223
1047 2229
1048 1125
1048 1140
1048 1162
1048 1173
1048 1262
1048 1368
1048 1446
1048 1492
1048 1498
1048 1506
1048 1588
1048 1623
1048 1626
1048 1666
1048 1690
1048 1849
1048 1918
1048 1976
1048 2148
1048 2204
1049 1233
1049 1638
1049 2120
1050 1077
1050 1098
1050 1144
1050 1195
1050 1235
1050 1266
1050 1323
1050 1333
1050 1362
1050 1412
1050 1416
1050 1422
1050 1436
1050 1472
1050 1483
1050 1491
1050 1588
1050 1602
1050 1636
1050 1638
1050 1776
1050 1804
1050 1855
1050 1868
1050 1880
1050 1904
1050 1935
1050 1938
1050 1940
1050 1972
1050 1977
1050 2062
1050 2075
1050 2098
1050 2111
1050 2149
1050 2158
1050 2174
1051 1062
1051 1124
1051 1145
1051 1147
1051 1279
1051 1333
1051 1361
1051 1432
1051 1489
1051 1557
1051 1640
1051 1682
1051 1794
1051 1795
1051 1831
1051 1904
1051 1905
1051 1970
1051 2133
1051 2136
1051 2149
1051 2228
1052 1060
1052 1088
1052 1140
1052 1160
1052 1176
1052 1247
1052 1252
1052 1287
1052 1289
1052 1300
1052 1310
1052 1320
1052 1341
1052 1435
1052 1464
1052 1504
1052 1511
1052 1556
1052 1579
1052 1581
1052 1590
1052 1602
1052 1611
1052 1654
1052 1673
1052 1696
1052 1804
1052 1851
1052 1904
1052 1920
1052 1999
1052 2005
1052 2018
1052 2028
1052 2033
1052 2204
1052 2208
1052 2217
1052 2220
1053 1213
1053 1306
1053 1328
1053 1441
1053 1521
1053 1601
1053 1609
1053 1642
1053 1784
1053 1839
1053 2169
1053 2178
1053 2188
1054 1066
1054 1244
1054 1301
1054 1527
1054 1628
1054 1642
1054 1828
1054 1954
1054 2082
1054 2105
1054 2159
1055 1065
1055 1072
1055 1090
1055 1112
1055 1113
1055 1116
1055 1128
1055 1129
1055 1135
1055 1138
1055 1151
1055 1172
1055 1192
1055 1241
1055 1270
1055 1286
1055 1324
1055 1333
1055 1371
1055 1382
1055 1387
1055 1390
1055 1411
1055 1442
1055 1448
1055 1450
1055 1457
1055 1469
1055 1470
1055 1475
1055 1507
1055 1535
1055 1536
1055 1554
1055 1558
1055 1571
1055 1600
1055 1615
1055 1626
1055 1631
1055 1646
1055 1658
1055 1697
1055 1699
1055 1713
1055 1727
1055 1735
1055 1745
1055 1750
1055 1779
1055 1829
1055 1852
1055 1854
1055 1903
1055 1905
1055 1907
1055 1935
1055 1938
1055 1943
1055 1948
1055 1972
1055 1977
1055 2024
1055 2026
1055 2033
1055 2034
1055 2045
1055 2150
1055 2158
1055 2161
1055 2215
1056 1124
1056 1202
1056 1219
1056 1266
1056 1299
1056 1312
1056 1330
1056 1338
1056 1357
1056 1384
1056 1388
1056 1405
1056 1414
1056 1457
1056 1538
1056 1646
1056 1684
1056 1762
1056 1823
1056 1838
1056 1911
1056 1943
1056 1967
1056 2010
1056 2059
1056 2125
1056 2227
1057 1062
1057 1084
1057 1124
1057 1149
1057 1223
1057 1254
1057 1269
1057 1287
1057 1299
1057 1307
1057 1330
1057 1388
1057 1392
1057 1420
1057 1432
1057 1436
1057 1481
1057 1496
1057 1580
1057 1600
1057 1623
1057 1646
1057 1734
1057 1769
1057 1785
1057 1794
1057 1801
1057 1823
1057 1864
1057 1899
1057 1903
1057 1904
1057 1934
1057 1999
1057 2039
1057 2045
1057 2086
1057 2093
1057 2096
1057 2111
1057 2125
1057 2133
1057 2149
1057 2158
1057 2184
1057 2187
1057 2207
1058 1219
1058 1508
1058 1854
1058 2188
1059 1073
1059 1128
1059 1138
1059 1227
1059 1341
1059 1362
1059 1373
1059 1410
1059 1422
1059 1454
1059 1475
1059 1563
1059 1565
1059 1566
1059 1612
1059 1618
1059 1627
1059 1688
1059 1800
1059 1819
1059 1897
1059 1904
1059 1905
1059 1906
1059 1932
1059 1944
1059 1969
1059 1993
1059 2018
1059 2041
1059 2062
1059 2078
1059 2091
1059 2102
1059 2145
1059 2173
1059 2206
1059 2211
1059 2214
1060 1070
1060 1125
1060 1152
1060 1160
1060 1189
1060 1214
1060 1256
1060 1258
1060 1291
1060 1406
1060 1411
1060 1416
1060 1479
1060 1492
1060 1498
1060 1544
1060 1581
1060 1721
1060 1738
1060 1767
1060 1781
1060 1804
1060 1807
1060 1851
1060 1904
1060 1980
1060 1994
1060 2045
1060 2068
1060 2084
1060 2133
1060 2149
1060 2156
1060 2206
1060 2208
1060 2217
1060 2227
1060 2228
1060 2229
1061 1855
1061 1932
1062 1066
1062 1087
1062 1088
1062 1118
1062 1145
1062 1160
1062 1164
1062 1176
1062 1179
1062 1214
1062 1298
1062 1307
1062 1358
1062 1380
1062 1381
1062 1392
1062 1422
1062 1479
1062 1481
1062 1489
1062 1498
1062 1517
1062 1561
1062 1564
1062 1576
1062 1602
1062 1604
1062 1605
1062 1640
1062 1671
1062 1682
1062 1685
1062 1707
1062 1734
1062 1737
1062 1743
1062 1763
1062 1793
1062 1864
1062 1865
1062 1894
1062 1899
1062 1940
1062 1951
1062 1956
1062 1970
1062 1989
1062 2010
1062 2043
1062 2045
1062 2047
1062 2053
1062 2056
1062 2070
1062 2073
1062 2081
1062 2086
1062 2089
1062 2099
1062 2133
1062 2136
1062 2138
1062 2149
1062 2154
1062 2158
1062 2215
1063 1077
1063 1084
1063 1145
1063 1149
1063 1211
1063 1262
1063 1361
1063 1388
1063 1457
1063 1472
1063 1536
1063 1541
1063 1668
1063 1673
1063 1860
1063 1865
1063 1870
1063 1894
1063 2008
1063 2013
1063 2029
1063 2062
1063 2076
1063 2092
1063 2093
1063 2129
1063 2228
1064 1104
1064 1108
1064 1172
1064 1182
1064 1215
1064 1295
1064 1302
1064 1356
1064 1360
1064 1476
1064 1505
1064 1527
1064 1628
1064 1678
1064 1729
1064 1748
1064 1825
1064 1828
1064 1926
1064 2000
1064 2048
1064 2058
1064 2065
1064 2066
1064 2096
1064 2130
1064 2160
1064 2164
1064 2203
1065 1097
1065 1114
1065 1138
1065 1144
1065 1151
1065 1152
1065 1175
1065 1189
1065 1192
1065 1199
1065 1246
1065 1258
1065 1325
1065 1328
1065 1333
1065 1340
1065 1343
1065 1361
1065 1399
1065 1431
1065 1465
1065 1475
1065 1506
1065 1514
1065 1524
1065 1534
1065 1541
1065 1568
1065 1596
1065 1600
1065 1606
1065 1626
1065 1627
1065 1630
1065 1635
1065 1638
1065 1646
1065 1710
1065 1721
1065 1724
1065 1735
1065 1738
1065 1745
1065 1757
1065 1783
1065 1799
1065 1819
1065 1822
1065 1826
1065 1831
1065 1852
1065 1855
1065 1874
1065 1875
1065 1878
1065 1900
1065 1903
1065 1904
1065 1914
1065 1916
1065 1929
1065 1944
1065 1989
1065 2033
1065 2038
1065 2100
1065 2120
1065 2209
1066 1121
1066 1123
1066 1124
1066 1185
1066 1259
1066 1270
1066 1333
1066 1432
1066 1445
1066 1457
1066 1470
1066 1486
1066 1489
1066 1493
1066 1517
1066 1795
1066 1820
1066 1831
1066 1930
1066 1935
1066 1967
1066 1974
1066 1994
1067 1081
1067 1134
1067 1145
1067 1172
1067 1185
1067 1236
1067 1254
1067 1283
1067 1304
1067 1332
1067 1378
1067 1384
1067 1396
1067 1399
1067 1405
1067 1413
1067 1448
1067 1450
1067 1453
1067 1465
1067 1489
1067 1502
1067 1536
1067 1626
1067 1662
1067 1699
1067 1726
1067 1779
1067 1805
1067 1846
1067 1886
1067 1938
1067 2010
1067 2047
1067 2076
1067 2144
1067 2164
1067 2179
1067 2228
1068 1081
1068 1114
1068 1125
1068 1135
1068 1172
1068 1236
1068 1241
1068 1332
1068 1371
1068 1387
1068 1390
1068 1399
1068 1406
1068 1413
1068 1450
1068 1467
1068 1535
1068 1626
1068 1696
1068 1726
1068 1743
1068 1757
1068 1779
1068 1780
1068 1797
1068 1905
1068 1916
1068 1938
1068 1964
1068 1977
1068 1981
1068 2014
1068 2038
1068 2045
1068 2064
1068 2113
1068 2174
1068 2203
1068 2204
1068 2206
1068 2220
1069 1490
1069 1646
1069 1808
1069 1843
1069 2140
1069 2223
1069 2233
1070 1114
1070 1147
1070 1151
1070 1175
1070 1185
1070 1189
1070 1190
1070 1235
1070 1326
1070 1328
1070 1382
1070 1387
1070 1411
1070 1439
1070 1506
1070 1507
1070 1534
1070 1547
1070 1591
1070 1646
1070 1672
1070 1687
1070 1700
1070 1702
1070 1713
1070 1714
1070 1721
1070 1733
1070 1739
1070 1781
1070 1797
1070 1799
1070 1815
1070 1819
1070 1840
1070 1848
1070 1857
1070 1875
1070 1929
1070 1951
1070 1978
1070 1989
1070 2006
1070 2033
1070 2053
1070 2090
1070 2099
1070 2103
1070 2139
1070 2161
1070 2164
1070 2168
1070 2173
1070 2174
1070 2181
1070 2207
1071 1700
1071 2032
1072 1077
1072 1089
1072 1123
1072 1172
1072 1190
1072 1195
1072 1292
1072 1312
1072 1323
1072 1324
1072 1368
1072 1384
1072 1390
1072 1392
1072 1403
1072 1422
1072 1457
1072 1535
1072 1582
1072 1591
1072 1602
1072 1636
1072 1639
1072 1644
1072 1671
1072 1690
1072 1696
1072 1699
1072 1743
1072 1776
1072 1797
1072 1804
1072 1857
1072 1868
1072 1935
1072 1940
1072 1972
1072 1997
1072 2011
1072 2023
1072 2045
1072 2054
1072 2098
1072 2127
1072 2150
1072 2161
1072 2174
1072 2181
1073 1102
1073 1147
1073 1190
1073 1217
1073 1227
1073 1246
1073 1316
1073 1361
1073 1384
1073 1410
1073 1436
1073 1523
1073 1566
1073 1600
1073 1646
1073 1781
1073 1819
1073 1823
1073 1855
1073 1856
1073 1932
1073 1969
1073 1989
1073 2041
1073 2062
1073 2078
1073 2098
1073 2103
1073 2145
1073 2168
1074 1116
1074 1256
1074 1270
1074 1421
1074 1425
1074 1442
1074 1549
1074 1669
1074 1696
1074 1818
1074 1868
1074 1947
1074 1982
1074 2068
1074 2108
1074 2164
1074 2216
1074 2220
1074 2233
1075 1288
1075 1303
1075 1659
1076 1329
1077 1152
1077 1153
1077 1235
1077 1320
1077 1362
1077 1368
1077 1373
1077 1472
1077 1530
1077 1541
1077 1588
1077 1667
1077 1668
1077 1690
1077 1702
1077 1754
1077 1852
1077 1896
1077 1955
1077 2008
1077 2029
1077 2045
1077 2062
1077 2092
1077 2108
1077 2182
1077 2202
1077 2208
1078 1410
1078 1619
1078 1922
1078 2128
1079 1095
1079 1124
1079 1238
1079 1243
1079 1310
1079 1312
1079 1382
1079 1410
1079 1426
1079 1434
1079 1474
1079 1576
1079 1604
1079 1618
1079 1661
1079 1713
1079 1823
1079 1834
1079 1904
1079 2098
1079 2109
1079 2142
1079 2189
1079 2220
1080 1114
1080 1151
1080 1173
1080 1368
1080 1454
1080 1464
1080 1500
1080 1543
1080 1544
1080 1563
1080 1568
1080 1598
1080 1688
1080 1757
1080 1768
1080 1823
1080 1874
1080 1916
1080 2018
1080 2041
1080 2099
1080 2118
1081 1089
1081 1135
1081 1155
1081 1172
1081 1241
1081 1371
1081 1387
1081 1413
1081 1418
1081 1465
1081 1538
1081 1623
1081 1725
1081 1726
1081 1743
1081 1779
1081 1808
1081 1838
1081 2034
1081 2113
1082 1154
1082 1295
1082 1561
1082 1642
1082 1686
1082 1770
1082 1866
1082 1937
1082 2130
1083 1201
1083 1204
1083 1220
1083 1312
1083 1319
1083 1327
1083 1333
1083 1358
1083 1372
1083 1615
1083 1658
1083 1730
1083 1738
1083 1852
1083 2010
1084 1101
1084 1125
1084 1145
1084 1162
1084 1262
1084 1307
1084 1384
1084 1414
1084 1446
1084 1496
1084 1506
1084 1513
1084 1624
1084 1702
1084 1738
1084 1744
1084 1823
1084 1831
1084 1890
1084 1911
1084 1929
1084 1951
1084 1970
1084 1980
1084 1994
1084 2033
1084 2076
1084 2138
1084 2149
1084 2199
1084 2228
1085 1161
1085 1328
1085 1562
1085 1702
1085 1839
1085 2030
1085 2089
1086 1103
1086 1134
1086 1147
1086 1157
1086 1211
1086 1214
1086 1216
1086 1267
1086 1279
1086 1287
1086 1298
1086 1299
1086 1307
1086 1328
1086 1330
1086 1338
1086 1351
1086 1353
1086 1412
1086 1417
1086 1432
1086 1483
1086 1502
1086 1569
1086 1591
1086 1685
1086 1707
1086 1729
1086 1732
1086 1738
1086 1744
1086 1771
1086 1796
1086 1805
1086 1814
1086 1951
1086 1967
1086 2031
1086 2043
1086 2044
1086 2056
1086 2070
1086 2092
1086 2144
1086 2159
1086 2164
1086 2227
1086 2228
1087 1107
1087 1124
1087 1145
1087 1298
1087 1307
1087 1336
1087 1380
1087 1453
1087 1474
1087 1498
1087 1556
1087 1581
1087 1605
1087 1611
1087 1624
1087 1734
1087 1758
1087 1767
1087 1794
1087 1795
1087 1807
1087 1848
1087 1886
1087 1905
1087 1970
1087 1974
1087 1999
1087 2056
1087 2086
1087 2099
1087 2133
1087 2149
1087 2154
1087 2199
1088 1125
1088 1140
1088 1152
1088 1193
1088 1199
1088 1218
1088 1256
1088 1270
1088 1277
1088 1289
1088 1291
1088 1341
1088 1388
1088 1392
1088 1397
1088 1406
1088 1416
1088 1425
1088 1435
1088 1456
1088 1526
1088 1534
1088 1544
1088 1556
1088 1579
1088 1595
1088 1602
1088 1638
1088 1644
1088 1654
1088 1731
1088 1763
1088 1781
1088 1793
1088 1797
1088 1804
1088 1816
1088 1851
1088 1898
1088 1904
1088 1907
1088 1943
1088 1944
1088 1961
1088 1964
1088 1988
1088 1989
1088 2007
1088 2023
1088 2028
1088 2091
1088 2098
1088 2122
1088 2127
1088 2154
1088 2175
1088 2193
1088 2194
1088 2202
1088 2206
1088 2217
1088 2220
1088 2229
1089 1121
1089 1135
1089 1155
1089 1172
1089 1179
1089 1185
1089 1236
1089 1241
1089 1284
1089 1323
1089 1324
1089 1371
1089 1387
1089 1396
1089 1418
1089 1432
1089 1438
1089 1445
1089 1450
1089 1467
1089 1487
1089 1503
1089 1538
1089 1540
1089 1626
1089 1669
1089 1675
1089 1726
1089 1755
1089 1779
1089 1792
1089 1813
1089 1841
1089 1867
1089 1903
1089 1904
1089 1916
1089 1936
1089 1947
1089 1948
1089 1971
1089 1972
1089 1977
1089 2014
1089 2034
1089 2038
1089 2072
1089 2104
1089 2113
1089 2131
1089 2135
1089 2144
1089 2150
1089 2206
1090 1142
1090 1172
1090 1223
1090 1256
1090 1271
1090 1341
1090 1410
1090 1426
1090 1436
1090 1443
1090 1485
1090 1507
1090 1536
1090 1553
1090 1564
1090 1585
1090 1612
1090 1626
1090 1638
1090 1699
1090 1709
1090 1717
1090 1727
1090 1739
1090 1745
1090 1934
1090 1944
1090 1976
1090 2026
1090 2071
1090 2084
1090 2098
1090 2110
1090 2145
1090 2161
1090 2204
1091 1215
1091 1249
1091 1278
1091 1295
1091 1349
1091 1459
1091 1642
1091 1809
1091 1873
1091 1902
1091 1937
1091 1945
1091 1962
1091 1977
1091 2027
1091 2040
1091 2094
1091 2097
1092 1121
1092 1172
1092 1185
1092 1208
1092 1259
1092 1323
1092 1368
1092 1418
1092 1442
1092 1504
1092 1567
1092 1602
1092 1615
1092 1639
1092 1653
1092 1663
1092 1669
1092 1726
1092 1755
1092 1776
1092 1778
1092 1804
1092 1830
1092 1841
1092 1857
1092 1892
1092 1904
1092 1915
1092 1940
1092 1955
1092 1974
1092 1982
1092 2034
1092 2054
1092 2087
1092 2098
1092 2108
1092 2116
1092 2145
1093 1140
1093 1198
1093 1340
1093 1524
1093 1566
1093 1804
1093 1922
1093 1970
1093 2010
1093 2049
1093 2062
1094 1120
1094 1228
1094 1313
1094 1355
1094 1572
1094 1647
1094 1722
1094 1723
1094 2030
1094 2157
1094 2192
1095 1124
1095 1375
1095 1410
1095 1533
1095 1618
1095 1635
1095 1661
1095 1687
1095 1879
1095 1897
1095 1904
1095 1993
1095 2142
1095 2214
1096 1103
1096 1116
1096 1121
1096 1123
1096 1147
1096 1164
1096 1171
1096 1185
1096 1259
1096 1267
1096 1270
1096 1312
1096 1357
1096 1442
1096 1445
1096 1457
1096 1487
1096 1489
1096 1491
1096 1558
1096 1669
1096 1697
1096 1699
1096 1784
1096 1820
1096 1854
1096 1859
1096 1861
1096 1883
1096 1894
1096 1930
1096 1938
1096 1943
1096 1948
1096 1957
1096 1974
1096 2064
1096 2116
1096 2188
1096 2215
1096 2228
1097 1101
1097 1105
1097 1127
1097 1141
1097 1151
1097 1184
1097 1199
1097 1239
1097 1257
1097 1262
1097 1272
1097 1274
1097 1308
1097 1316
1097 1320
1097 1328
1097 1339
1097 1368
1097 1411
1097 1446
1097 1464
1097 1490
1097 1506
1097 1507
1097 1512
1097 1518
1097 1534
1097 1564
1097 1578
1097 1591
1097 1596
1097 1600
1097 1605
1097 1617
1097 1638
1097 1646
1097 1666
1097 1667
1097 1676
1097 1690
1097 1698
1097 1702
1097 1717
1097 1718
1097 1751
1097 1799
1097 1804
1097 1878
1097 1895
1097 1900
1097 1911
1097 1918
1097 1928
1097 1955
1097 1989
1097 1994
1097 2025
1097 2033
1097 2121
1097 2174
1097 2196
1097 2204
1097 2226
1097 2228
1098 1125
1098 1136
1098 1144
1098 1258
1098 1416
1098 1436
1098 1449
1098 1475
1098 1536
1098 1588
1098 1644
1098 1654
1098 1731
1098 1792
1098 1797
1098 1804
1098 1819
1098 1903
1098 1918
1098 1964
1098 2028
1098 2050
1098 2064
1098 2075
1098 2098
1098 2204
1098 2217
1098 2221
1099 1109
1099 1308
1099 1382
1099 1422
1099 1578
1099 1667
1099 1680
1099 1699
1099 1739
1099 1804
1099 1893
1099 2127
1099 2165
1099 2232
1100 1146
1100 1151
1100 1239
1100 1250
1100 1303
1100 1366
1100 1434
1100 1474
1100 1499
1100 1504
1100 1516
1100 1544
1100 1583
1100 1599
1100 1623
1100 1826
1100 1834
1100 1857
1100 1901
1100 1921
1100 1970
1100 1984
1100 1997
1100 2016
1100 2042
1100 2056
1100 2139
1100 2189
1101 1102
1101 1127
1101 1133
1101 1138
1101 1145
1101 1147
1101 1148
1101 1151
1101 1160
1101 1161
1101 1172
1101 1190
1101 1195
1101 1196
1101 1199
1101 1218
1101 1232
1101 1237
1101 1239
1101 1240
1101 1253
1101 1262
1101 1275
1101 1277
1101 1305
1101 1320
1101 1335
1101 1341
1101 1372
1101 1384
1101 1399
1101 1406
1101 1411
1101 1414
1101 1416
1101 1422
1101 1436
1101 1439
1101 1446
1101 1456
1101 1463
1101 1475
1101 1487
1101 1489
1101 1490
1101 1491
1101 1492
1101 1499
1101 1506
1101 1507
1101 1521
1101 1537
1101 1541
1101 1549
1101 1571
1101 1575
1101 1581
1101 1591
1101 1594
1101 1612
1101 1637
1101 1638
1101 1644
1101 1650
1101 1653
1101 1662
1101 1666
1101 1669
1101 1672
1101 1676
1101 1679
1101 1680
1101 1698
1101 1699
1101 1702
1101 1708
1101 1725
1101 1743
1101 1768
1101 1774
1101 1780
1101 1793
1101 1797
1101 1798
1101 1806
1101 1810
1101 1814
1101 1844
1101 1860
1101 1865
1101 1898
1101 1911
1101 1912
1101 1928
1101 1929
1101 1951
1101 1953
1101 1964
1101 1972
1101 1981
1101 2007
1101 2049
1101 2103
1101 2129
1101 2132
1101 2139
1101 2147
1101 2150
1101 2156
1101 2158
1101 2174
1101 2188
1101 2194
1101 2202
1101 2204
1101 2217
1101 2220
1101 2221
1102 1105
1102 1147
1102 1153
1102 1189
1102 1217
1102 1246
1102 1368
1102 1384
1102 1422
1102 1448
1102 1475
1102 1507
1102 1523
1102 1541
1102 1544
1102 1600
1102 1604
1102 1646
1102 1721
1102 1805
1102 1807
1102 1819
1102 1822
1102 1823
1102 1831
1102 1844
1102 1856
1102 1896
1102 1940
1102 1989
1102 2091
1102 2112
1103 1129
1103 1145
1103 1147
1103 1184
1103 1198
1103 1201
1103 1202
1103 1219
1103 1254
1103 1259
1103 1266
1103 1267
1103 1270
1103 1279
1103 1286
1103 1312
1103 1318
1103 1325
1103 1332
1103 1357
1103 1384
1103 1390
1103 1405
1103 1412
1103 1417
1103 1422
1103 1456
1103 1457
1103 1460
1103 1462
1103 1470
1103 1519
1103 1535
1103 1538
1103 1561
1103 1570
1103 1615
1103 1622
1103 1624
1103 1682
1103 1762
1103 1763
1103 1771
1103 1805
1103 1935
1103 1943
1103 1957
1103 1974
1103 2024
1103 2031
1103 2035
1103 2059
1103 2150
1103 2161
1103 2218
1104 1182
1104 1295
1104 1703
1104 1748
1104 2000
1104 2066
1105 1113
1105 1155
1105 1193
1105 1360
1105 1382
1105 1384
1105 1411
1105 1446
1105 1456
1105 1475
1105 1506
1105 1523
1105 1541
1105 1571
1105 1600
1105 1623
1105 1637
1105 1638
1105 1653
1105 1667
1105 1672
1105 1690
1105 1717
1105 1819
1105 1844
1105 1881
1105 1890
1105 1918
1105 1928
1105 1929
1105 1953
1105 1964
1105 2061
1105 2112
1105 2158
1105 2163
1105 2168
1106 1115
1106 1145
1106 1153
1106 1155
1106 1190
1106 1191
1106 1231
1106 1233
1106 1251
1106 1366
1106 1435
1106 1449
1106 1464
1106 1475
1106 1571
1106 1578
1106 1606
1106 1610
1106 1629
1106 1638
1106 1644
1106 1680
1106 1713
1106 1717
1106 1804
1106 1819
1106 1829
1106 1962
1106 1977
1106 2025
1106 2031
1106 2050
1106 2120
1106 2182
1106 2209
1107 1145
1107 1307
1107 1384
1107 1420
1107 1427
1107 1481
1107 1489
1107 1497
1107 1561
1107 1606
1107 1607
1107 1636
1107 1640
1107 1646
1107 1717
1107 1738
1107 1744
1107 1769
1107 1794
1107 1814
1107 1864
1107 1865
1107 1899
1107 1951
1107 2056
1107 2073
1107 2086
1107 2089
1107 2133
1107 2138
1107 2228
1108 1213
1108 1249
1108 1369
1108 1452
1108 1506
1108 1557
1108 1729
1108 1770
1108 1788
1108 1994
1108 2159
1109 1141
1109 1206
1109 1326
1109 1378
1109 1434
1109 1448
1109 1504
1109 1514
1109 1529
1109 1563
1109 1610
1109 1667
1109 1704
1109 1739
1109 1756
1109 1815
1109 1819
1109 1875
1109 1900
1109 1913
1109 1993
1109 2038
1109 2053
1109 2075
1109 2079
1109 2165
1109 2168
1109 2184
1109 2209
1109 2232
1110 1548
1110 2009
1110 2069
1111 1159
1112 1221
1112 1439
1112 1477
1112 1480
1112 1490
1112 1667
1112 1674
1112 1677
1112 1719
1112 1777
1112 1854
1112 1857
1112 2026
1112 2148
1112 2158
1113 1125
1113 1141
1113 1173
1113 1206
1113 1210
1113 1226
1113 1316
1113 1411
1113 1418
1113 1464
1113 1490
1113 1506
1113 1512
1113 1529
1113 1532
1113 1564
1113 1596
1113 1606
1113 1613
1113 1629
1113 1630
1113 1638
1113 1659
1113 1666
1113 1667
1113 1672
1113 1690
1113 1699
1113 1717
1113 1745
1113 1819
1113 1859
1113 1890
1113 1928
1113 1929
1113 1942
1113 1957
1113 1976
1113 2019
1113 2026
1113 2045
1113 2132
1113 2145
1113 2148
1113 2184
1113 2190
1113 2204
1114 1144
1114 1175
1114 1325
1114 1339
1114 1362
1114 1373
1114 1392
1114 1399
1114 1491
1114 1500
1114 1559
1114 1568
1114 1588
1114 1598
1114 1626
1114 1638
1114 1646
1114 1658
1114 1663
1114 1819
1114 1852
1114 1876
1114 1900
1114 1916
1114 1921
1114 1929
1114 1940
1114 2014
1114 2018
1114 2039
1114 2080
1114 2230
1115 1129
1115 1187
1115 1196
1115 1221
1115 1231
1115 1233
1115 1251
1115 1299
1115 1376
1115 1390
1115 1403
1115 1407
1115 1435
1115 1449
1115 1470
1115 1560
1115 1598
1115 1638
1115 1783
1115 1784
1115 1812
1115 1818
1115 1843
1115 1963
1115 1984
1115 1986
1115 2042
1115 2076
1115 2132
1115 2161
1115 2182
1115 2232
1116 1190
1116 1195
1116 1241
1116 1439
1116 1442
1116 1477
1116 1491
1116 1570
1116 1606
1116 1712
1116 1714
1116 1779
1116 1784
1116 1818
1116 1820
1116 1894
1116 1915
1116 1993
1116 2024
1116 2168
1116 2188
1116 2216
1116 2233
1117 1146
1117 1237
1117 1240
1117 1271
1117 1494
1117 1510
1117 1511
1117 1606
1117 1612
1117 1702
1117 1756
1117 1789
1117 1819
1117 2125
1117 2208
1118 1164
1118 1241
1118 1380
1118 1462
1118 1561
1118 1624
1118 1838
1118 1863
1118 1911
1118 1940
1118 2010
1118 2016
1118 2043
1118 2045
1118 2187
1118 2228
1119 1151
1119 1310
1119 1473
1119 1474
1119 1481
1119 1483
1119 1495
1119 1565
1119 1636
1119 1664
1119 1782
1119 2033
1119 2052
1120 1128
1120 1151
1120 1189
1120 1192
1120 1195
1120 1216
1120 1250
1120 1252
1120 1267
1120 1296
1120 1301
1120 1303
1120 1305
1120 1335
1120 1362
1120 1415
1120 1419
1120 1491
1120 1511
1120 1514
1120 1534
1120 1608
1120 1612
1120 1661
1120 1676
1120 1678
1120 1679
1120 1688
1120 1699
1120 1722
1120 1724
1120 1791
1120 1807
1120 1817
1120 1831
1120 1834
1120 1898
1120 1916
1120 1927
1120 1987
1120 2016
1120 2018
1120 2039
1120 2045
1120 2089
1120 2100
1120 2141
1120 2146
1120 2154
1120 2163
1120 2184
1120 2189
1120 2220
1120 2226
1121 1147
1121 1172
1121 1178
1121 1211
1121 1241
1121 1259
1121 1309
1121 1317
1121 1332
1121 1338
1121 1354
1121 1377
1121 1384
1121 1401
1121 1445
1121 1486
1121 1487
1121 1493
1121 1517
1121 1567
1121 1631
1121 1639
1121 1677
1121 1712
1121 1762
1121 1805
1121 1820
1121 1854
1121 1861
1121 1894
1121 1930
1121 1936
1121 1938
1121 1943
1121 1947
1121 1948
1121 1958
1121 1966
1121 1974
1121 2034
1121 2116
1121 2162
1121 2164
1121 2215
1122 1181
1122 1184
1122 1313
1122 1459
1122 1478
1122 1557
1122 1575
1122 1825
1122 2040
1122 2094
1122 2114
1123 1171
1123 1185
1123 1259
1123 1309
1123 1324
1123 1354
1123 1371
1123 1384
1123 1396
1123 1418
1123 1428
1123 1438
1123 1445
1123 1455
1123 1493
1123 1517
1123 1567
1123 1596
1123 1609
1123 1626
1123 1669
1123 1712
1123 1750
1123 1784
1123 1820
1123 1836
1123 1843
1123 1861
1123 1880
1123 1915
1123 1930
1123 1948
1123 1974
1123 1983
1123 2014
1123 2116
1123 2215
1124 1145
1124 1211
1124 1238
1124 1241
1124 1259
1124 1284
1124 1298
1124 1299
1124 1304
1124 1333
1124 1357
1124 1380
1124 1381
1124 1427
1124 1432
1124 1457
1124 1479
1124 1494
1124 1517
1124 1534
1124 1556
1124 1559
1124 1605
1124 1618
1124 1668
1124 1682
1124 1795
1124 1796
1124 1823
1124 1831
1124 1894
1124 1904
1124 1967
1124 1970
1124 1994
1124 2010
1124 2133
1124 2138
1124 2144
1124 2149
1125 1162
1125 1172
1125 1236
1125 1240
1125 1253
1125 1258
1125 1262
1125 1277
1125 1320
1125 1384
1125 1411
1125 1414
1125 1418
1125 1422
1125 1424
1125 1446
1125 1549
1125 1584
1125 1622
1125 1623
1125 1637
1125 1653
1125 1666
1125 1667
1125 1669
1125 1672
1125 1702
1125 1716
1125 1725
1125 1726
1125 1780
1125 1792
1125 1797
1125 1841
1125 1849
1125 1890
1125 1903
1125 1907
1125 1918
1125 1928
1125 1964
1125 1972
1125 2001
1125 2033
1125 2037
1125 2080
1125 2084
1125 2104
1125 2145
1125 2204
1126 1146
1126 1194
1126 1219
1126 1233
1126 1240
1126 1247
1126 1271
1126 1291
1126 1326
1126 1365
1126 1366
1126 1494
1126 1507
1126 1518
1126 1539
1126 1554
1126 1606
1126 1667
1126 1671
1126 1680
1126 1700
1126 1701
1126 1739
1126 1760
1126 1781
1126 1831
1126 1900
1126 1929
1126 2102
1126 2121
1126 2139
1126 2168
1126 2189
1126 2196
1126 2209
1126 2227
1127 1137
1127 1162
1127 1172
1127 1178
1127 1187
1127 1195
1127 1201
1127 1204
1127 1212
1127 1219
1127 1220
1127 1253
1127 1256
1127 1257
1127 1259
1127 1272
1127 1294
1127 1309
1127 1338
1127 1364
1127 1366
1127 1368
1127 1372
1127 1418
1127 1437
1127 1439
1127 1465
1127 1487
1127 1490
1127 1506
1127 1538
1127 1559
1127 1569
1127 1615
1127 1617
1127 1623
1127 1626
1127 1637
1127 1638
1127 1662
1127 1669
1127 1670
1127 1675
1127 1690
1127 1699
1127 1713
1127 1726
1127 1743
1127 1745
1127 1767
1127 1771
1127 1776
1127 1844
1127 1883
1127 1907
1127 1918
1127 1936
1127 1938
1127 1939
1127 1957
1127 1994
1127 2007
1127 2011
1127 2026
1127 2045
1127 2081
1127 2145
1127 2148
1127 2150
1127 2158
1127 2174
1127 2175
1127 2188
1127 2204
1127 2218
1127 2221
1127 2226
1128 1134
1128 1144
1128 1145
1128 1146
1128 1149
1128 1160
1128 1177
1128 1190
1128 1227
1128 1233
1128 1271
1128 1305
1128 1326
1128 1340
1128 1363
1128 1391
1128 1393
1128 1408
1128 1421
1128 1422
1128 1446
1128 1454
1128 1473
1128 1474
1128 1498
1128 1500
1128 1524
1128 1526
1128 1535
1128 1543
1128 1553
1128 1574
1128 1578
1128 1581
1128 1586
1128 1595
1128 1596
1128 1602
1128 1606
1128 1610
1128 1626
1128 1635
1128 1638
1128 1639
1128 1674
1128 1694
1128 1701
1128 1713
1128 1717
1128 1735
1128 1827
1128 1831
1128 1840
1128 1851
1128 1855
1128 1869
1128 1874
1128 1879
1128 1898
1128 1900
1128 1903
1128 1918
1128 1932
1128 1944
1128 1950
1128 1976
1128 1987
1128 1988
1128 2005
1128 2018
1128 2049
1128 2091
1128 2099
1128 2112
1128 2121
1128 2168
1128 2184
1128 2196
1128 2223
1128 2228
1128 2231
1129 1145
1129 1210
1129 1221
1129 1251
1129 1325
1129 1366
1129 1403
1129 1442
1129 1480
1129 1501
1129 1638
1129 1644
1129 1646
1129 1742
1129 1779
1129 1843
1129 1962
1129 1963
1129 1977
1129 2031
1129 2053
1129 2120
1130 1134
1130 1145
1130 1157
1130 1254
1130 1279
1130 1280
1130 1307
1130 1320
1130 1322
1130 1388
1130 1414
1130 1417
1130 1420
1130 1483
1130 1487
1130 1606
1130 1612
1130 1624
1130 1664
1130 1707
1130 1744
1130 1864
1130 1994
1130 2043
1130 2055
1130 2070
1130 2073
1130 2089
1130 2092
1130 2154
1130 2228
1131 1649
1132 1215
1132 1521
1132 1575
1133 1178
1133 1202
1133 1219
1133 1256
1133 1257
1133 1259
1133 1309
1133 1312
1133 1324
1133 1405
1133 1412
1133 1418
1133 1438
1133 1439
1133 1465
1133 1487
1133 1538
1133 1588
1133 1637
1133 1639
1133 1662
1133 1696
1133 1726
1133 1771
1133 1780
1133 1935
1133 1939
1133 1943
1133 1972
1133 1994
1133 2087
1133 2174
1133 2218
1133 2221
1134 1145
1134 1157
1134 1198
1134 1211
1134 1214
1134 1216
1134 1241
1134 1254
1134 1279
1134 1294
1134 1307
1134 1330
1134 1333
1134 1370
1134 1380
1134 1381
1134 1384
1134 1403
1134 1414
1134 1457
1134 1470
1134 1489
1134 1556
1134 1560
1134 1569
1134 1570
1134 1591
1134 1599
1134 1605
1134 1707
1134 1738
1134 1744
1134 1771
1134 1805
1134 1806
1134 1814
1134 1863
1134 1894
1134 1899
1134 1934
1134 1956
1134 1967
1134 2031
1134 2035
1134 2047
1134 2070
1134 2133
1134 2136
1134 2138
1134 2165
1134 2197
1134 2228
1135 1155
1135 1185
1135 1241
1135 1368
1135 1369
1135 1371
1135 1372
1135 1378
1135 1387
1135 1413
1135 1431
1135 1442
1135 1445
1135 1450
1135 1467
1135 1470
1135 1489
1135 1523
1135 1626
1135 1644
1135 1669
1135 1755
1135 1779
1135 1808
1135 1916
1135 1935
1135 1943
1135 1974
1135 1977
1135 2014
1135 2034
1135 2038
1135 2131
1135 2148
1135 2163
1135 2174
1135 2233
1136 1341
1136 1487
1136 1538
1136 1667
1136 1670
1136 1780
1136 1797
1136 1804
1136 1811
1136 1876
1136 2174
1136 2206
1137 1178
1137 1186
1137 1212
1137 1219
1137 1254
1137 1267
1137 1270
1137 1294
1137 1422
1137 1561
1137 1569
1137 1580
1137 1624
1137 1684
1137 1763
1137 1771
1137 1791
1137 1883
1137 1939
1137 1994
1137 2016
1137 2143
1137 2207
1137 2221
1138 1151
1138 1163
1138 1171
1138 1190
1138 1217
1138 1243
1138 1246
1138 1258
1138 1305
1138 1310
1138 1320
1138 1340
1138 1341
1138 1392
1138 1399
1138 1404
1138 1422
1138 1425
1138 1442
1138 1464
1138 1514
1138 1529
1138 1539
1138 1563
1138 1568
1138 1571
1138 1596
1138 1598
1138 1612
1138 1626
1138 1627
1138 1635
1138 1645
1138 1666
1138 1702
1138 1713
1138 1757
1138 1804
1138 1819
1138 1851
1138 1878
1138 1900
1138 1903
1138 1929
1138 1969
1138 1989
1138 2033
1138 2049
1138 2080
1138 2081
1138 2091
1138 2102
1138 2121
1138 2138
1138 2174
1138 2190
1138 2226
1139 1213
1139 1215
1139 1244
1139 1249
1139 1312
1139 1476
1139 1828
1139 1943
1139 2000
1140 1199
1140 1252
1140 1291
1140 1299
1140 1323
1140 1368
1140 1498
1140 1511
1140 1530
1140 1556
1140 1581
1140 1588
1140 1602
1140 1611
1140 1636
1140 1641
1140 1665
1140 1731
1140 1793
1140 1810
1140 1903
1140 1904
1140 1961
1140 1999
1140 2001
1140 2084
1140 2154
1140 2175
1140 2217
1140 2220
1141 1193
1141 1199
1141 1210
1141 1239
1141 1240
1141 1262
1141 1308
1141 1320
1141 1352
1141 1392
1141 1399
1141 1446
1141 1568
1141 1585
1141 1596
1141 1606
1141 1637
1141 1641
1141 1666
1141 1667
1141 1672
1141 1702
1141 1708
1141 1717
1141 1721
1141 1753
1141 1844
1141 1849
1141 1859
1141 1878
1141 1890
1141 1898
1141 1912
1141 1928
1141 2019
1141 2071
1141 2190
1142 1149
1142 1332
1142 1338
1142 1453
1142 1457
1142 1502
1142 1607
1142 1671
1142 1805
1142 1930
1142 1934
1142 2076
1142 2179
1142 2228
1144 1151
1144 1163
1144 1238
1144 1274
1144 1421
1144 1425
1144 1444
1144 1449
1144 1482
1144 1514
1144 1563
1144 1566
1144 1630
1144 1635
1144 1646
1144 1658
1144 1665
1144 1688
1144 1731
1144 1735
1144 1757
1144 1802
1144 1852
1144 1868
1144 1915
1144 1916
1144 1956
1144 2018
1144 2075
1144 2146
1144 2165
1144 2228
1144 2232
1145 1147
1145 1149
1145 1179
1145 1184
1145 1191
1145 1198
1145 1211
1145 1214
1145 1216
1145 1221
1145 1223
1145 1233
1145 1280
1145 1299
1145 1312
1145 1322
1145 1328
1145 1358
1145 1361
1145 1362
1145 1370
1145 1380
1145 1381
1145 1388
1145 1403
1145 1416
1145 1435
1145 1449
1145 1462
1145 1479
1145 1489
1145 1495
1145 1500
1145 1530
1145 1534
1145 1535
1145 1581
1145 1592
1145 1599
1145 1605
1145 1607
1145 1624
1145 1635
1145 1638
1145 1640
1145 1656
1145 1664
1145 1668
1145 1680
1145 1682
1145 1699
1145 1734
1145 1735
1145 1764
1145 1771
1145 1794
1145 1801
1145 1805
1145 1812
1145 1823
1145 1831
1145 1860
1145 1865
1145 1899
1145 1908
1145 1943
1145 1955
1145 1962
1145 1963
1145 1980
1145 1999
1145 2008
1145 2010
1145 2029
1145 2035
1145 2050
1145 2056
1145 2062
1145 2070
1145 2073
1145 2086
1145 2092
1145 2129
1145 2149
1145 2197
1145 2199
1145 2217
1145 2228
1145 2229
1146 1163
1146 1209
1146 1237
1146 1238
1146 1250
1146 1274
1146 1310
1146 1415
1146 1422
1146 1425
1146 1494
1146 1499
1146 1514
1146 1544
1146 1565
1146 1585
1146 1606
1146 1612
1146 1646
1146 1665
1146 1744
1146 1756
1146 1768
1146 1773
1146 1781
1146 2044
1146 2052
1146 2075
1146 2091
1146 2100
1146 2102
1146 2189
1146 2194
1146 2220
1146 2229
1147 1149
1147 1155
1147 1189
1147 1201
1147 1220
1147 1254
1147 1259
1147 1298
1147 1300
1147 1312
1147 1314
1147 1317
1147 1333
1147 1351
1147 1357
1147 1368
1147 1384
1147 1442
1147 1445
1147 1457
1147 1460
1147 1467
1147 1474
1147 1487
1147 1493
1147 1519
1147 1536
1147 1541
1147 1552
1147 1557
1147 1561
1147 1578
1147 1580
1147 1600
1147 1602
1147 1605
1147 1607
1147 1663
1147 1668
1147 1670
1147 1673
1147 1682
1147 1721
1147 1730
1147 1763
1147 1792
1147 1796
1147 1797
1147 1801
1147 1812
1147 1854
1147 1862
1147 1898
1147 1931
1147 1935
1147 1951
1147 1957
1147 1967
1147 1994
1147 1997
1147 2010
1147 2038
1147 2045
1147 2129
1147 2131
1147 2133
1147 2154
1147 2168
1147 2206
1148 1161
1148 1297
1148 1385
1148 1575
1148 1798
1148 2040
1149 1198
1149 1201
1149 1241
1149 1254
1149 1299
1149 1300
1149 1304
1149 1327
1149 1332
1149 1333
1149 1363
1149 1373
1149 1384
1149 1390
1149 1405
1149 1408
1149 1414
1149 1434
1149 1460
1149 1470
1149 1472
1149 1489
1149 1524
1149 1535
1149 1580
1149 1584
1149 1622
1149 1639
1149 1673
1149 1677
1149 1682
1149 1735
1149 1738
1149 1744
1149 1796
1149 1805
1149 1819
1149 1856
1149 1892
1149 1896
1149 1904
1149 1907
1149 1931
1149 1943
1149 1951
1149 1955
1149 1965
1149 1967
1149 2008
1149 2024
1149 2076
1149 2084
1149 2086
1149 2093
1149 2098
1149 2125
1149 2145
1149 2149
1149 2163
1149 2168
1149 2174
1149 2193
1149 2228
1150 1492
1150 1516
1150 1815
1150 1818
1150 1843
1150 1921
1151 1190
1151 1193
1151 1250
1151 1271
1151 1340
1151 1399
1151 1434
1151 1442
1151 1454
1151 1464
1151 1483
1151 1499
1151 1514
1151 1554
1151 1563
1151 1568
1151 1571
1151 1576
1151 1598
1151 1604
1151 1606
1151 1612
1151 1627
1151 1637
1151 1645
1151 1646
1151 1653
1151 1664
1151 1672
1151 1708
1151 1757
1151 1782
1151 1783
1151 1806
1151 1816
1151 1819
1151 1874
1151 1878
1151 1881
1151 1900
1151 1901
1151 1916
1151 1929
1151 1932
1151 1953
1151 1963
1151 2016
1151 2018
1151 2039
1151 2046
1151 2062
1151 2118
1151 2121
1151 2189
1151 2194
1151 2196
1151 2226
1152 1153
1152 1160
1152 1238
1152 1252
1152 1258
1152 1262
1152 1277
1152 1291
1152 1296
1152 1320
1152 1393
1152 1422
1152 1434
1152 1446
1152 1492
1152 1494
1152 1504
1152 1534
1152 1541
1152 1543
1152 1556
1152 1582
1152 1584
1152 1590
1152 1599
1152 1622
1152 1664
1152 1714
1152 1731
1152 1743
1152 1757
1152 1778
1152 1793
1152 1810
1152 1857
1152 1896
1152 1898
1152 1899
1152 1900
1152 1901
1152 1903
1152 1927
1152 1970
1152 1981
1152 1999
1152 2028
1152 2045
1152 2084
1152 2089
1152 2094
1152 2158
1152 2175
1152 2182
1152 2206
1152 2208
1152 2217
1153 1233
1153 1252
1153 1258
1153 1304
1153 1320
1153 1403
1153 1432
1153 1434
1153 1437
1153 1438
1153 1446
1153 1541
1153 1599
1153 1638
1153 1644
1153 1650
1153 1680
1153 1690
1153 1702
1153 1705
1153 1729
1153 1792
1153 1822
1153 1829
1153 1843
1153 1947
1153 1977
1153 1997
1153 2028
1153 2031
1153 2033
1153 2045
1153 2064
1153 2120
1153 2164
1153 2168
1153 2194
1154 1181
1154 1198
1154 1213
1154 1224
1154 1297
1154 1306
1154 1355
1154 1385
1154 1398
1154 1703
1154 1742
1154 1766
1154 1850
1154 1925
1154 1985
1154 1998
1154 2009
1154 2060
1154 2159
1155 1172
1155 1185
1155 1208
1155 1221
1155 1232
1155 1241
1155 1333
1155 1387
1155 1431
1155 1442
1155 1444
1155 1450
1155 1523
1155 1539
1155 1541
1155 1578
1155 1653
1155 1662
1155 1701
1155 1725
1155 1779
1155 1792
1155 1799
1155 1808
1155 1819
1155 1822
1155 1829
1155 1830
1155 1896
1155 1916
1155 2011
1155 2064
1155 2098
1155 2135
1155 2163
1155 2209
1155 2227
1156 1310
1156 1376
1156 1529
1156 1834
1156 1900
1156 1912
1156 2190
1157 1254
1157 1307
1157 1330
1157 1591
1157 1732
1157 1806
1157 1814
1157 1823
1157 1951
1157 1967
1157 2008
1157 2029
1157 2031
1157 2043
1157 2056
1157 2227
1158 1348
1158 1722
1158 1902
1158 2015
1158 2017
1158 2069
1159 1239
1159 1445
1159 1702
1159 1725
1159 1815
1159 1819
1159 1826
1159 1844
1159 1900
1159 2049
1160 1195
1160 1199
1160 1204
1160 1240
1160 1252
1160 1256
1160 1277
1160 1291
1160 1320
1160 1335
1160 1341
1160 1368
1160 1392
1160 1446
1160 1464
1160 1499
1160 1502
1160 1532
1160 1544
1160 1581
1160 1612
1160 1617
1160 1623
1160 1638
1160 1679
1160 1699
1160 1708
1160 1714
1160 1743
1160 1780
1160 1793
1160 1823
1160 1865
1160 1872
1160 1896
1160 1901
1160 1907
1160 1918
1160 1944
1160 1953
1160 1989
1160 1996
1160 1999
1160 2005
1160 2007
1160 2039
1160 2045
1160 2049
1160 2068
1160 2076
1160 2079
1160 2086
1160 2089
1160 2091
1160 2148
1160 2150
1160 2168
1160 2207
1161 1181
1161 1282
1161 1346
1161 1356
1161 1398
1161 1575
1161 1692
1161 1798
1161 1817
1161 1860
1161 2057
1162 1318
1162 1323
1162 1368
1162 1384
1162 1418
1162 1449
1162 1456
1162 1474
1162 1492
1162 1506
1162 1546
1162 1577
1162 1581
1162 1585
1162 1623
1162 1638
1162 1672
1162 1698
1162 1699
1162 1702
1162 1714
1162 1725
1162 1726
1162 1767
1162 1792
1162 1841
1162 1848
1162 1936
1162 1957
1162 1964
1162 1972
1162 2001
1162 2049
1162 2054
1162 2084
1162 2098
1162 2107
1162 2145
1162 2158
1162 2204
1163 1194
1163 1474
1163 1485
1163 1494
1163 1618
1163 1627
1163 1665
1163 1688
1163 1721
1163 1740
1163 1834
1163 1903
1163 1904
1163 1944
1163 1978
1163 2075
1163 2112
1163 2163
1163 2165
1164 1190
1164 1254
1164 1267
1164 1270
1164 1460
1164 1462
1164 1474
1164 1561
1164 1580
1164 1624
1164 1739
1164 1762
1164 1763
1164 1779
1164 1795
1164 1801
1164 1838
1164 1860
1164 1863
1164 1903
1164 1994
1164 2016
1164 2056
1164 2121
1164 2144
1164 2149
1164 2187
1164 2207
1164 2227
1164 2228
1165 1423
1165 1488
1165 1529
1165 1713
1165 1831
1165 2232
1166 1348
1166 1388
1166 1462
1166 1561
1166 1763
1166 1996
1166 2010
1166 2129
1166 2149
1166 2154
1166 2207
1167 1217
1167 1556
1168 1422
1168 1476
1168 1521
1168 1633
1168 1692
1168 1746
1168 1839
1168 1894
1168 2040
1168 2155
1168 2183
1168 2186
1168 2201
1168 2213
1169 1525
1169 1606
1169 1636
1169 1652
1169 1694
1169 1717
1169 1824
1169 1875
1169 1879
1169 1912
1169 2149
1169 2184
1170 1189
1170 1321
1170 1340
1170 1368
1170 1827
1170 1900
1170 2121
1170 2190
1171 1185
1171 1256
1171 1325
1171 1333
1171 1362
1171 1371
1171 1382
1171 1387
1171 1438
1171 1442
1171 1445
1171 1524
1171 1558
1171 1609
1171 1615
1171 1620
1171 1631
1171 1646
1171 1658
1171 1690
1171 1808
1171 1820
1171 1854
1171 1861
1171 1911
1171 1915
1171 1916
1171 1930
1171 1935
1171 1939
1171 1949
1171 1963
1171 1972
1171 2045
1171 2101
1171 2111
1171 2116
1172 1185
1172 1187
1172 1199
1172 1201
1172 1204
1172 1215
1172 1241
1172 1244
1172 1256
1172 1267
1172 1270
1172 1284
1172 1291
1172 1312
1172 1324
1172 1330
1172 1368
1172 1371
1172 1372
1172 1373
1172 1382
1172 1384
1172 1387
1172 1398
1172 1399
1172 1413
1172 1416
1172 1418
1172 1422
1172 1428
1172 1431
1172 1439
1172 1448
1172 1450
1172 1460
1172 1465
1172 1466
1172 1467
1172 1501
1172 1502
1172 1519
1172 1538
1172 1541
1172 1581
1172 1591
1172 1595
1172 1623
1172 1630
1172 1638
1172 1644
1172 1650
1172 1667
1172 1669
1172 1670
1172 1673
1172 1674
1172 1675
1172 1678
1172 1696
1172 1699
1172 1714
1172 1725
1172 1726
1172 1745
1172 1755
1172 1776
1172 1777
1172 1779
1172 1813
1172 1819
1172 1841
1172 1873
1172 1896
1172 1903
1172 1905
1172 1915
1172 1916
1172 1925
1172 1935
1172 1936
1172 1938
1172 1943
1172 1957
1172 1965
1172 1967
1172 1972
1172 1974
1172 1985
1172 1989
1172 1997
1172 2011
1172 2014
1172 2034
1172 2035
1172 2038
1172 2045
1172 2049
1172 2064
1172 2084
1172 2105
1172 2107
1172 2113
1172 2131
1172 2148
1172 2158
1172 2166
1172 2168
1172 2188
1172 2220
1173 1443
1173 1498
1173 1507
1173 1541
1173 1602
1173 1646
1173 1653
1173 1667
1173 1680
1173 1699
1173 1717
1173 1745
1173 1898
1173 1903
1173 1929
1173 1971
1173 2026
1173 2039
1173 2071
1173 2078
1173 2084
1173 2165
1174 1495
1174 1500
1174 1602
1174 1636
1175 1425
1175 1475
1175 1506
1175 1606
1175 1612
1175 1710
1175 1831
1175 1875
1175 1887
1175 1900
1175 2091
1175 2100
1175 2121
1175 2196
1175 2207
1176 1189
1176 1206
1176 1258
1176 1264
1176 1300
1176 1320
1176 1397
1176 1532
1176 1581
1176 1699
1176 1731
1176 1749
1176 2005
1176 2089
1176 2123
1176 2154
1177 1217
1177 1289
1177 1340
1177 1454
1177 1524
1177 1826
1177 1901
1177 1922
1177 1944
1177 1969
1177 2041
1177 2099
1177 2231
1178 1212
1178 1219
1178 1294
1178 1364
1178 1384
1178 1405
1178 1418
1178 1432
1178 1470
1178 1548
1178 1615
1178 1669
1178 1726
1178 1761
1178 1771
1178 1795
1178 1841
1178 1883
1178 1894
1178 1899
1178 1911
1178 1930
1178 1936
1178 1974
1178 1994
1178 2086
1178 2188
1178 2200
1178 2216
1178 2221
1179 1241
1179 1332
1179 1333
1179 1338
1179 1380
1179 1422
1179 1427
1179 1517
1179 1605
1179 1612
1179 1628
1179 1668
1179 1682
1179 1712
1179 1734
1179 1771
1179 1794
1179 1831
1179 1935
1179 1943
1179 1974
1179 1983
1179 1994
1179 1997
1179 2076
1179 2093
1179 2144
1179 2154
1179 2228
1180 1475
1180 1554
1180 1571
1180 1578
1180 1595
1180 1667
1180 1717
1180 2033
1181 1248
1181 1249
1181 1328
1181 1331
1181 1398
1181 1468
1181 1562
1181 1575
1181 1720
1181 1817
1181 1839
1181 1925
1181 1945
1182 1213
1182 1215
1182 1241
1182 1244
1182 1249
1182 1333
1182 1441
1182 1457
1182 1466
1182 1476
1182 1527
1182 1557
1182 1628
1182 1651
1182 1828
1182 1839
1182 1846
1182 1933
1182 2004
1182 2105
1182 2158
1182 2159
1182 2203
1183 1186
1183 1259
1183 1309
1183 1401
1183 1439
1183 1465
1183 1487
1183 1490
1183 1615
1183 1667
1183 1690
1183 1784
1183 1841
1183 1876
1183 1936
1183 1938
1183 1943
1183 1964
1183 1994
1183 2045
1183 2054
1183 2087
1183 2150
1183 2174
1183 2221
1184 1266
1184 1280
1184 1298
1184 1330
1184 1333
1184 1357
1184 1388
1184 1405
1184 1417
1184 1457
1184 1518
1184 1535
1184 1560
1184 1596
1184 1622
1184 1668
1184 1738
1184 1799
1184 1934
1184 1943
1184 1967
1184 1994
1184 2008
1184 2025
1184 2029
1184 2031
1184 2055
1184 2073
1184 2164
1184 2174
1184 2180
1184 2227
1185 1186
1185 1187
1185 1191
1185 1231
1185 1241
1185 1259
1185 1317
1185 1332
1185 1365
1185 1371
1185 1377
1185 1382
1185 1384
1185 1387
1185 1396
1185 1400
1185 1401
1185 1413
1185 1421
1185 1438
1185 1440
1185 1444
1185 1449
1185 1450
1185 1467
1185 1508
1185 1517
1185 1547
1185 1558
1185 1596
1185 1648
1185 1663
1185 1665
1185 1695
1185 1699
1185 1712
1185 1713
1185 1716
1185 1745
1185 1750
1185 1779
1185 1784
1185 1808
1185 1813
1185 1818
1185 1820
1185 1861
1185 1867
1185 1868
1185 1872
1185 1922
1185 1923
1185 1930
1185 1935
1185 1938
1185 1942
1185 1947
1185 1967
1185 1976
1185 1977
1185 1982
1185 2042
1185 2075
1185 2087
1185 2101
1185 2111
1185 2116
1185 2117
1185 2119
1185 2137
1185 2161
1185 2162
1185 2184
1185 2228
1186 1212
1186 1253
1186 1312
1186 1367
1186 1438
1186 1439
1186 1445
1186 1477
1186 1486
1186 1677
1186 1697
1186 1791
1186 1818
1186 1867
1186 1885
1186 1938
1186 1947
1186 1949
1186 1988
1186 2111
1186 2116
1186 2150
1186 2165
1186 2221
1187 1257
1187 1401
1187 1439
1187 1507
1187 1558
1187 1602
1187 1623
1187 1637
1187 1659
1187 1662
1187 1667
1187 1699
1187 1713
1187 1719
1187 1750
1187 1751
1187 1765
1187 1779
1187 1818
1187 1837
1187 1967
1187 1982
1187 2012
1187 2049
1187 2116
1187 2139
1187 2145
1187 2223
1187 2233
1188 1248
1188 1249
1188 1313
1188 1369
1188 1770
1188 1905
1188 2065
1189 1192
1189 1246
1189 1258
1189 1303
1189 1321
1189 1344
1189 1352
1189 1363
1189 1368
1189 1397
1189 1411
1189 1422
1189 1425
1189 1434
1189 1436
1189 1444
1189 1475
1189 1499
1189 1514
1189 1524
1189 1534
1189 1544
1189 1563
1189 1574
1189 1583
1189 1585
1189 1598
1189 1599
1189 1600
1189 1646
1189 1700
1189 1713
1189 1724
1189 1804
1189 1807
1189 1823
1189 1827
1189 1831
1189 1844
1189 1852
1189 1856
1189 1867
1189 1884
1189 1900
1189 1903
1189 1932
1189 1969
1189 1989
1189 2033
1189 2107
1189 2112
1189 2168
1189 2181
1189 2226
1189 2229
1190 1233
1190 1235
1190 1240
1190 1254
1190 1267
1190 1270
1190 1296
1190 1368
1190 1410
1190 1431
1190 1442
1190 1460
1190 1481
1190 1506
1190 1507
1190 1518
1190 1520
1190 1536
1190 1600
1190 1604
1190 1606
1190 1699
1190 1701
1190 1713
1190 1717
1190 1724
1190 1733
1190 1759
1190 1763
1190 1799
1190 1819
1190 1831
1190 1856
1190 1862
1190 1903
1190 1905
1190 1977
1190 1988
1190 2119
1190 2121
1190 2145
1190 2173
1190 2184
1190 2193
1190 2223
1191 1231
1191 1251
1191 1366
1191 1372
1191 1403
1191 1435
1191 1465
1191 1638
1191 1644
1191 1690
1191 1812
1191 1829
1191 1890
1191 1952
1191 1963
1191 2050
1191 2062
1191 2120
1191 2182
1192 1201
1192 1220
1192 1271
1192 1289
1192 1303
1192 1305
1192 1321
1192 1333
1192 1361
1192 1380
1192 1391
1192 1393
1192 1469
1192 1472
1192 1514
1192 1524
1192 1554
1192 1566
1192 1568
1192 1578
1192 1596
1192 1608
1192 1612
1192 1626
1192 1639
1192 1646
1192 1701
1192 1713
1192 1724
1192 1735
1192 1807
1192 1827
1192 1831
1192 1867
1192 1875
1192 1887
1192 1900
1192 1903
1192 1920
1192 1922
1192 1944
1192 1997
1192 2039
1192 2041
1192 2119
1192 2121
1192 2133
1192 2145
1192 2184
1192 2190
1192 2196
1192 2209
1193 1218
1193 1240
1193 1247
1193 1262
1193 1291
1193 1320
1193 1323
1193 1336
1193 1382
1193 1399
1193 1446
1193 1474
1193 1495
1193 1534
1193 1553
1193 1613
1193 1626
1193 1630
1193 1650
1193 1699
1193 1733
1193 1734
1193 1745
1193 1780
1193 1785
1193 1806
1193 1844
1193 1851
1193 1875
1193 1898
1193 1903
1193 1929
1193 1932
1193 1976
1193 2039
1193 2158
1193 2184
1193 2217
1194 1233
1194 1235
1194 1305
1194 1326
1194 1365
1194 1366
1194 1410
1194 1422
1194 1518
1194 1523
1194 1539
1194 1578
1194 1626
1194 1681
1194 1687
1194 1713
1194 1733
1194 1819
1194 1875
1194 1993
1194 2001
1194 2080
1194 2119
1194 2121
1194 2145
1194 2148
1194 2161
1194 2209
1194 2214
1195 1204
1195 1208
1195 1256
1195 1259
1195 1266
1195 1372
1195 1437
1195 1439
1195 1445
1195 1457
1195 1465
1195 1489
1195 1490
1195 1491
1195 1570
1195 1602
1195 1609
1195 1615
1195 1622
1195 1623
1195 1653
1195 1662
1195 1714
1195 1716
1195 1784
1195 1811
1195 1813
1195 1830
1195 1880
1195 1936
1195 1939
1195 1957
1195 1967
1195 1972
1195 1983
1195 2007
1195 2011
1195 2054
1195 2064
1195 2098
1195 2104
1195 2107
1195 2131
1195 2156
1195 2164
1195 2181
1195 2188
1196 1231
1196 1233
1196 1251
1196 1286
1196 1320
1196 1352
1196 1439
1196 1442
1196 1446
1196 1450
1196 1492
1196 1514
1196 1534
1196 1547
1196 1602
1196 1630
1196 1638
1196 1702
1196 1713
1196 1719
1196 1725
1196 1750
1196 1793
1196 1804
1196 1829
1196 1849
1196 1900
1196 1929
1196 2001
1196 2037
1196 2100
1196 2101
1196 2118
1196 2120
1196 2142
1196 2145
1196 2158
1198 1214
1198 1252
1198 1259
1198 1274
1198 1294
1198 1299
1198 1300
1198 1322
1198 1328
1198 1330
1198 1333
1198 1370
1198 1388
1198 1403
1198 1422
1198 1424
1198 1470
1198 1489
1198 1519
1198 1560
1198 1561
1198 1564
1198 1622
1198 1673
1198 1738
1198 1763
1198 1781
1198 1792
1198 1794
1198 1796
1198 1822
1198 1827
1198 1831
1198 1894
1198 1911
1198 1951
1198 1957
1198 1967
1198 2013
1198 2035
1198 2068
1198 2070
1198 2073
1198 2122
1198 2138
1198 2149
1198 2174
1198 2187
1198 2197
1198 2199
1198 2206
1198 2227
1199 1216
1199 1218
1199 1252
1199 1258
1199 1262
1199 1277
1199 1318
1199 1319
1199 1327
1199 1341
1199 1406
1199 1416
1199 1434
1199 1439
1199 1503
1199 1506
1199 1538
1199 1556
1199 1582
1199 1588
1199 1606
1199 1611
1199 1612
1199 1623
1199 1638
1199 1641
1199 1650
1199 1664
1199 1676
1199 1702
1199 1743
1199 1759
1199 1784
1199 1793
1199 1823
1199 1832
1199 1849
1199 1851
1199 1856
1199 1896
1199 1905
1199 1907
1199 1927
1199 1964
1199 1971
1199 1972
1199 1999
1199 2068
1199 2089
1199 2145
1199 2148
1199 2168
1199 2208
1199 2217
1201 1220
1201 1327
1201 1413
1201 1422
1201 1472
1201 1589
1201 1757
1201 1811
1201 1905
1201 1965
1201 1983
1201 2010
1201 2054
1201 2111
1201 2145
1201 2221
1202 1253
1202 1279
1202 1294
1202 1328
1202 1338
1202 1384
1202 1422
1202 1470
1202 1538
1202 1569
1202 1615
1202 1622
1202 1646
1202 1662
1202 1911
1202 1931
1202 1943
1202 2221
1203 1392
1203 1500
1203 1793
1203 1879
1203 2083
1204 1256
1204 1324
1204 1333
1204 1412
1204 1437
1204 1439
1204 1491
1204 1582
1204 1595
1204 1662
1204 1670
1204 1682
1204 1714
1204 1726
1204 1776
1204 1811
1204 1813
1204 1830
1204 1894
1204 1936
1204 1972
1204 1988
1204 2007
1204 2054
1204 2064
1204 2131
1204 2150
1204 2158
1204 2181
1204 2221
1205 1660
1205 1728
1205 1871
1206 1264
1206 1289
1206 1749
1206 1775
1206 1826
1206 1900
1206 1929
1206 2005
1207 1356
1207 1784
1207 1828
1207 2105
1208 1314
1208 1341
1208 1422
1208 1524
1208 1538
1208 1583
1208 1653
1208 1690
1208 1716
1208 1767
1208 1776
1208 1830
1208 1955
1208 2011
1208 2054
1208 2227
1209 1407
1209 1422
1209 1423
1209 1461
1209 1488
1209 1529
1209 1612
1209 1984
1209 2190
1210 1344
1210 1422
1210 1425
1210 1585
1210 1717
1210 1952
1211 1214
1211 1216
1211 1219
1211 1307
1211 1312
1211 1317
1211 1330
1211 1338
1211 1362
1211 1422
1211 1425
1211 1432
1211 1477
1211 1483
1211 1487
1211 1500
1211 1530
1211 1591
1211 1668
1211 1670
1211 1707
1211 1730
1211 1732
1211 1744
1211 1796
1211 1805
1211 1814
1211 1854
1211 1862
1211 1899
1211 1934
1211 1967
1211 1986
1211 2008
1211 2029
1211 2062
1211 2092
1211 2108
1211 2154
1211 2164
1211 2207
1212 1219
1212 1241
1212 1259
1212 1309
1212 1312
1212 1364
1212 1438
1212 1439
1212 1471
1212 1477
1212 1487
1212 1490
1212 1491
1212 1538
1212 1615
1212 1697
1212 1771
1212 1791
1212 1841
1212 1880
1212 1885
1212 1918
1212 1939
1212 1949
1212 2111
1212 2174
1212 2188
1212 2216
1212 2221
1213 1215
1213 1249
1213 1265
1213 1276
1213 1295
1213 1301
1213 1349
1213 1356
1213 1358
1213 1369
1213 1370
1213 1441
1213 1452
1213 1476
1213 1515
1213 1521
1213 1527
1213 1528
1213 1536
1213 1557
1213 1572
1213 1615
1213 1620
1213 1642
1213 1676
1213 1712
1213 1748
1213 1770
1213 1845
1213 1866
1213 1873
1213 1894
1213 1933
1213 1943
1213 1960
1213 2000
1213 2009
1213 2027
1213 2096
1213 2097
1213 2158
1213 2169
1213 2178
1213 2203
1213 2213
1214 1328
1214 1370
1214 1381
1214 1432
1214 1479
1214 1489
1214 1580
1214 1581
1214 1607
1214 1635
1214 1640
1214 1673
1214 1682
1214 1684
1214 1738
1214 1746
1214 1758
1214 1767
1214 1794
1214 1795
1214 1805
1214 1899
1214 1911
1214 1986
1214 2031
1214 2035
1214 2044
1214 2156
1214 2164
1214 2197
1215 1242
1215 1244
1215 1295
1215 1356
1215 1369
1215 1463
1215 1521
1215 1548
1215 1557
1215 1628
1215 1748
1215 1770
1215 1873
1215 1945
1215 1960
1215 1962
1215 2040
1215 2048
1215 2065
1215 2096
1215 2183
1215 2186
1215 2203
1216 1283
1216 1310
1216 1348
1216 1499
1216 1544
1216 1612
1216 1661
1216 1806
1216 1834
1216 1901
1216 1944
1216 2092
1216 2093
1216 2154
1216 2189
1216 2199
1217 1287
1217 1289
1217 1340
1217 1365
1217 1434
1217 1454
1217 1489
1217 1524
1217 1556
1217 1596
1217 1600
1217 1645
1217 1709
1217 1757
1217 1783
1217 1799
1217 1816
1217 1840
1217 1844
1217 1855
1217 1887
1217 1907
1217 1989
1217 2028
1217 2033
1217 2078
1217 2091
1217 2099
1217 2190
1217 2193
1218 1237
1218 1247
1218 1277
1218 1386
1218 1406
1218 1435
1218 1456
1218 1490
1218 1498
1218 1514
1218 1534
1218 1581
1218 1650
1218 1696
1218 1804
1218 1832
1218 1898
1218 1932
1218 2089
1218 2208
1218 2210
1218 2217
1218 2229
1219 1241
1219 1253
1219 1257
1219 1270
1219 1284
1219 1312
1219 1314
1219 1324
1219 1328
1219 1332
1219 1333
1219 1372
1219 1384
1219 1412
1219 1413
1219 1438
1219 1439
1219 1457
1219 1465
1219 1470
1219 1477
1219 1487
1219 1536
1219 1538
1219 1549
1219 1570
1219 1594
1219 1609
1219 1615
1219 1620
1219 1622
1219 1624
1219 1639
1219 1662
1219 1670
1219 1675
1219 1726
1219 1750
1219 1762
1219 1771
1219 1779
1219 1784
1219 1805
1219 1813
1219 1820
1219 1854
1219 1872
1219 1880
1219 1911
1219 1930
1219 1936
1219 1938
1219 1939
1219 1949
1219 1967
1219 1972
1219 1974
1219 1994
1219 2088
1219 2104
1219 2144
1219 2150
1219 2152
1219 2164
1219 2174
1219 2181
1219 2188
1219 2228
1220 1413
1220 1422
1220 1472
1220 1518
1220 1535
1220 1578
1220 1582
1220 1589
1220 1699
1220 1735
1220 1743
1220 1792
1220 1854
1220 1896
1220 1939
1220 1965
1220 1983
1220 2054
1220 2080
1220 2111
1221 1231
1221 1233
1221 1402
1221 1403
1221 1449
1221 1480
1221 1638
1221 1829
1221 1843
1221 1854
1221 1963
1221 1982
1221 2050
1221 2116
1221 2182
1222 1310
1222 1710
1222 2226
1223 1427
1223 1564
1223 1592
1223 1611
1223 1636
1223 1653
1223 1673
1223 1734
1223 1744
1223 1745
1223 1764
1223 1769
1223 1860
1223 1864
1223 1865
1223 1899
1223 2149
1224 1249
1224 1297
1224 1530
1224 1572
1224 1633
1224 1642
1224 1894
1224 2009
1224 2092
1226 1387
1226 1450
1226 1529
1226 1637
1226 1659
1226 1672
1226 1690
1226 1745
1226 1799
1226 1953
1226 1976
1226 2049
1226 2132
1226 2145
1226 2173
1226 2190
1226 2223
1227 1566
1227 1855
1227 1922
1227 1932
1227 2041
1227 2078
1227 2145
1227 2173
1227 2219
1227 2231
1228 1248
1228 1249
1228 1295
1228 1360
1228 1546
1228 1608
1228 1678
1228 1723
1228 1746
1228 1825
1228 1845
1228 1908
1228 1962
1228 2030
1228 2096
1229 1264
1229 1289
1229 1533
1229 1634
1229 1749
1229 1775
1229 1912
1229 1927
1229 1944
1229 1993
1229 2091
1229 2173
1229 2184
1229 2214
1229 2226
1230 1367
1230 2233
1231 1251
1231 1286
1231 1316
1231 1372
1231 1387
1231 1401
1231 1428
1231 1439
1231 1442
1231 1465
1231 1547
1231 1549
1231 1612
1231 1645
1231 1649
1231 1661
1231 1690
1231 1705
1231 1779
1231 1792
1231 1808
1231 1812
1231 1813
1231 1872
1231 1890
1231 1923
1231 2045
1231 2049
1231 2101
1231 2121
1231 2168
1231 2209
1232 1368
1232 1384
1232 1386
1232 1436
1232 1523
1232 1725
1232 1819
1232 1822
1232 1896
1232 1904
1232 1989
1232 2068
1232 2112
1232 2131
1232 2204
1233 1247
1233 1251
1233 1271
1233 1308
1233 1310
1233 1323
1233 1340
1233 1363
1233 1365
1233 1366
1233 1382
1233 1410
1233 1411
1233 1436
1233 1439
1233 1449
1233 1475
1233 1529
1233 1534
1233 1539
1233 1547
1233 1554
1233 1578
1233 1596
1233 1598
1233 1629
1233 1635
1233 1638
1233 1644
1233 1646
1233 1655
1233 1667
1233 1680
1233 1733
1233 1747
1233 1779
1233 1799
1233 1804
1233 1812
1233 1819
1233 1827
1233 1829
1233 1837
1233 1844
1233 1848
1233 1855
1233 1856
1233 1914
1233 1955
1233 1962
1233 1984
1233 1993
1233 1997
1233 2033
1233 2050
1233 2091
1233 2120
1233 2121
1233 2132
1233 2139
1233 2145
1233 2165
1233 2182
1233 2184
1233 2190
1233 2196
1233 2209
1233 2217
1233 2226
1234 1422
1234 1975
1235 1373
1235 1410
1235 1411
1235 1472
1235 1475
1235 1490
1235 1506
1235 1530
1235 1588
1235 1626
1235 1663
1235 1667
1235 1668
1235 1713
1235 1717
1235 1733
1235 1747
1235 1757
1235 1799
1235 1813
1235 1855
1235 1900
1235 1915
1235 1921
1235 1928
1235 2008
1235 2029
1235 2053
1235 2062
1235 2064
1235 2092
1235 2119
1235 2163
1235 2173
1235 2174
1235 2209
1235 2230
1236 1372
1236 1399
1236 1541
1236 1623
1236 1819
1236 1849
1236 1957
1236 1976
1236 2014
1236 2104
1236 2113
1236 2131
1237 1277
1237 1341
1237 1495
1237 1502
1237 1514
1237 1534
1237 1565
1237 1599
1237 1611
1237 1612
1237 1638
1237 1650
1237 1696
1237 1744
1237 1793
1237 1804
1237 1831
1237 1851
1237 1864
1237 1887
1237 1999
1237 2056
1237 2125
1237 2184
1237 2220
1238 1304
1238 1320
1238 1473
1238 1500
1238 1507
1238 1514
1238 1526
1238 1533
1238 1543
1238 1544
1238 1576
1238 1581
1238 1585
1238 1604
1238 1607
1238 1612
1238 1618
1238 1661
1238 1664
1238 1724
1238 1816
1238 1823
1238 1852
1238 1879
1238 1901
1238 1904
1238 1970
1238 2018
1238 2033
1238 2145
1239 1255
1239 1320
1239 1352
1239 1439
1239 1490
1239 1507
1239 1512
1239 1518
1239 1634
1239 1637
1239 1638
1239 1699
1239 1700
1239 1745
1239 1751
1239 1753
1239 1808
1239 1815
1239 1881
1239 1890
1239 1914
1239 1964
1239 1971
1239 1975
1239 2118
1239 2145
1239 2158
1239 2223
1240 1262
1240 1271
1240 1291
1240 1320
1240 1387
1240 1424
1240 1446
1240 1475
1240 1506
1240 1507
1240 1525
1240 1539
1240 1554
1240 1574
1240 1590
1240 1667
1240 1690
1240 1701
1240 1702
1240 1708
1240 1713
1240 1717
1240 1749
1240 1760
1240 1799
1240 1806
1240 1824
1240 1832
1240 1855
1240 1856
1240 1862
1240 1869
1240 1890
1240 1898
1240 1903
1240 1914
1240 1929
1240 1942
1240 1964
1240 1993
1240 2038
1240 2062
1240 2103
1240 2145
1240 2173
1240 2174
1240 2223
1241 1259
1241 1266
1241 1267
1241 1284
1241 1294
1241 1300
1241 1304
1241 1312
1241 1333
1241 1377
1241 1378
1241 1387
1241 1396
1241 1405
1241 1413
1241 1414
1241 1438
1241 1442
1241 1457
1241 1465
1241 1467
1241 1470
1241 1486
1241 1489
1241 1515
1241 1523
1241 1615
1241 1620
1241 1626
1241 1644
1241 1662
1241 1670
1241 1674
1241 1677
1241 1699
1241 1796
1241 1820
1241 1821
1241 1870
1241 1903
1241 1915
1241 1930
1241 1935
1241 1936
1241 1938
1241 1941
1241 1951
1241 1957
1241 1972
1241 1974
1241 1977
1241 2014
1241 2049
1241 2054
1241 2098
1241 2100
1241 2111
1241 2113
1241 2131
1241 2144
1241 2181
1241 2188
1241 2203
1241 2206
1241 2228
1242 1244
1242 1369
1242 1398
1242 1476
1242 1505
1242 1521
1242 1557
1242 1575
1242 1669
1242 1746
1242 1846
1242 1941
1242 1954
1242 1960
1242 2027
1242 2159
1242 2181
1242 2213
1243 1258
1243 1404
1243 1539
1243 1606
1243 1612
1243 1645
1243 1694
1243 1718
1243 1816
1243 1844
1243 1874
1243 1944
1243 2028
1243 2121
1244 1249
1244 1301
1244 1356
1244 1360
1244 1369
1244 1384
1244 1395
1244 1466
1244 1521
1244 1527
1244 1572
1244 1642
1244 1845
1244 1866
1244 1926
1244 1960
1244 1962
1244 1977
1244 2066
1244 2074
1244 2158
1244 2169
1244 2183
1244 2203
1245 1297
1245 1894
1245 1945
1245 2009
1245 2159
1246 1310
1246 1321
1246 1492
1246 1514
1246 1541
1246 1563
1246 1598
1246 1600
1246 1721
1246 1781
1246 1852
1246 1856
1246 1867
1246 1989
1246 2054
1246 2091
1246 2121
1246 2184
1246 2190
1246 2226
1247 1258
1247 1303
1247 1341
1247 1366
1247 1368
1247 1392
1247 1422
1247 1474
1247 1492
1247 1539
1247 1553
1247 1568
1247 1590
1247 1595
1247 1602
1247 1687
1247 1713
1247 1785
1247 1804
1247 1826
1247 1831
1247 1855
1247 1903
1247 1920
1247 1977
1247 1993
1247 2023
1247 2028
1247 2049
1247 2097
1247 2107
1247 2127
1247 2184
1247 2204
1247 2206
1248 1295
1248 1297
1248 1349
1248 1374
1248 1385
1248 1458
1248 1463
1248 1468
1248 1562
1248 1575
1248 1722
1248 1817
1248 1937
1248 1962
1248 2040
1249 1276
1249 1278
1249 1295
1249 1355
1249 1369
1249 1452
1249 1463
1249 1466
1249 1528
1249 1557
1249 1562
1249 1608
1249 1620
1249 1633
1249 1647
1249 1648
1249 1651
1249 1720
1249 1725
1249 1787
1249 1801
1249 1845
1249 1846
1249 1910
1249 1917
1249 1925
1249 1958
1249 1979
1249 2027
1249 2048
1249 2057
1249 2066
1249 2074
1249 2096
1249 2125
1249 2134
1249 2169
1249 2178
1249 2183
1249 2200
1250 1303
1250 1326
1250 1376
1250 1379
1250 1393
1250 1394
1250 1445
1250 1494
1250 1499
1250 1529
1250 1537
1250 1542
1250 1576
1250 1583
1250 1604
1250 1634
1250 1661
1250 1664
1250 1699
1250 1700
1250 1711
1250 1800
1250 1833
1250 1857
1250 1881
1250 1897
1250 1984
1250 2090
1250 2117
1250 2139
1250 2189
1251 1403
1251 1604
1251 1667
1251 1719
1251 1843
1251 1952
1251 1963
1251 2101
1251 2132
1252 1258
1252 1277
1252 1330
1252 1338
1252 1397
1252 1434
1252 1499
1252 1511
1252 1524
1252 1595
1252 1599
1252 1641
1252 1702
1252 1731
1252 1749
1252 1757
1252 1804
1252 1810
1252 1823
1252 1831
1252 1898
1252 1900
1252 1901
1252 1904
1252 2005
1252 2010
1252 2016
1252 2084
1252 2089
1252 2122
1252 2141
1252 2173
1252 2194
1253 1259
1253 1323
1253 1413
1253 1465
1253 1487
1253 1490
1253 1491
1253 1538
1253 1639
1253 1841
1253 1935
1253 1936
1253 2188
1253 2221
1254 1298
1254 1308
1254 1330
1254 1333
1254 1414
1254 1460
1254 1462
1254 1560
1254 1580
1254 1602
1254 1607
1254 1622
1254 1666
1254 1685
1254 1771
1254 1795
1254 1804
1254 1820
1254 1838
1254 1863
1254 1911
1254 1951
1254 1967
1254 2008
1254 2010
1254 2016
1254 2029
1254 2065
1254 2070
1254 2076
1254 2149
1254 2158
1254 2187
1254 2207
1254 2227
1255 1315
1255 1568
1255 1659
1255 1705
1255 1773
1255 1843
1255 1897
1255 1900
1255 1980
1255 2098
1256 1257
1256 1361
1256 1368
1256 1372
1256 1406
1256 1437
1256 1446
1256 1456
1256 1465
1256 1490
1256 1498
1256 1534
1256 1538
1256 1558
1256 1578
1256 1596
1256 1626
1256 1635
1256 1638
1256 1644
1256 1662
1256 1669
1256 1699
1256 1714
1256 1783
1256 1792
1256 1807
1256 1830
1256 1936
1256 1940
1256 1955
1256 1972
1256 1994
1256 1997
1256 2021
1256 2023
1256 2045
1256 2068
1256 2098
1256 2107
1256 2127
1256 2136
1256 2150
1256 2164
1256 2194
1256 2196
1256 2202
1256 2204
1256 2206
1256 2220
1257 1268
1257 1317
1257 1364
1257 1367
1257 1429
1257 1439
1257 1477
1257 1487
1257 1489
1257 1490
1257 1491
1257 1507
1257 1521
1257 1531
1257 1538
1257 1558
1257 1570
1257 1617
1257 1637
1257 1638
1257 1646
1257 1667
1257 1672
1257 1677
1257 1702
1257 1705
1257 1808
1257 1843
1257 1854
1257 1867
1257 1918
1257 1921
1257 1923
1257 1949
1257 1957
1257 1965
1257 1994
1257 2054
1257 2085
1257 2116
1257 2148
1257 2180
1258 1291
1258 1305
1258 1310
1258 1333
1258 1494
1258 1506
1258 1539
1258 1544
1258 1563
1258 1613
1258 1618
1258 1654
1258 1724
1258 1797
1258 1804
1258 1849
1258 1904
1258 1920
1258 1940
1258 1955
1258 1964
1258 2121
1258 2142
1258 2207
1258 2217
1259 1270
1259 1298
1259 1312
1259 1318
1259 1333
1259 1338
1259 1377
1259 1384
1259 1390
1259 1401
1259 1405
1259 1413
1259 1418
1259 1432
1259 1446
1259 1460
1259 1470
1259 1487
1259 1493
1259 1509
1259 1517
1259 1531
1259 1538
1259 1559
1259 1570
1259 1594
1259 1620
1259 1639
1259 1662
1259 1684
1259 1716
1259 1762
1259 1771
1259 1795
1259 1815
1259 1820
1259 1841
1259 1849
1259 1854
1259 1861
1259 1867
1259 1883
1259 1899
1259 1903
1259 1930
1259 1935
1259 1936
1259 1938
1259 1939
1259 1947
1259 1957
1259 1967
1259 1994
1259 1997
1259 2087
1259 2096
1259 2104
1259 2108
1259 2116
1259 2117
1259 2131
1259 2144
1259 2164
1259 2181
1259 2215
1260 1371
1260 1412
1260 1429
1260 1663
1260 1665
1260 1784
1260 1868
1260 1949
1261 1355
1261 1616
1261 2065
1261 2097
1261 2207
1262 1320
1262 1362
1262 1414
1262 1446
1262 1475
1262 1483
1262 1506
1262 1514
1262 1541
1262 1556
1262 1598
1262 1599
1262 1606
1262 1623
1262 1638
1262 1641
1262 1650
1262 1653
1262 1672
1262 1676
1262 1690
1262 1699
1262 1702
1262 1708
1262 1717
1262 1718
1262 1753
1262 1780
1262 1793
1262 1816
1262 1844
1262 1849
1262 1860
1262 1865
1262 1878
1262 1890
1262 1898
1262 1900
1262 1903
1262 1907
1262 1929
1262 1953
1262 1964
1262 1970
1262 2033
1262 2045
1262 2089
1262 2103
1262 2118
1262 2129
1262 2148
1262 2158
1262 2174
1262 2194
1262 2204
1262 2208
1262 2226
1263 1305
1263 1394
1263 1542
1263 1583
1263 1782
1263 1893
1263 1897
1263 1984
1263 2052
1264 1532
1264 1578
1264 1689
1264 1749
1264 1752
1264 2005
1265 1572
1265 1761
1265 1873
1265 1958
1266 1312
1266 1338
1266 1390
1266 1405
1266 1412
1266 1439
1266 1457
1266 1470
1266 1491
1266 1519
1266 1538
1266 1605
1266 1622
1266 1684
1266 1762
1266 1880
1266 1885
1266 1935
1266 1943
1266 1957
1266 1972
1266 1994
1266 2010
1266 2059
1266 2150
1267 1270
1267 1371
1267 1403
1267 1460
1267 1462
1267 1489
1267 1536
1267 1561
1267 1580
1267 1607
1267 1624
1267 1838
1267 1860
1267 1911
1267 2016
1267 2206
1267 2228
1268 1439
1268 1487
1268 1637
1268 1646
1268 1765
1268 1914
1268 1942
1268 1947
1268 2117
1268 2223
1269 1287
1269 1299
1269 1338
1269 1351
1269 1403
1269 1420
1269 1474
1269 1496
1269 1499
1269 1559
1269 1604
1269 1646
1269 1738
1269 1794
1269 1812
1269 1823
1269 1838
1269 1886
1269 1986
1269 2035
1269 2125
1269 2227
1270 1287
1270 1312
1270 1333
1270 1338
1270 1348
1270 1377
1270 1384
1270 1390
1270 1421
1270 1456
1270 1460
1270 1489
1270 1561
1270 1580
1270 1624
1270 1667
1270 1684
1270 1762
1270 1763
1270 1795
1270 1812
1270 1820
1270 1838
1270 1860
1270 1865
1270 1868
1270 1911
1270 1934
1270 1938
1270 1967
1270 1999
1270 2008
1270 2016
1270 2035
1270 2068
1270 2121
1270 2188
1270 2207
1270 2227
1270 2228
1271 1291
1271 1323
1271 1327
1271 1340
1271 1366
1271 1392
1271 1474
1271 1507
1271 1510
1271 1539
1271 1554
1271 1565
1271 1612
1271 1636
1271 1640
1271 1687
1271 1689
1271 1701
1271 1713
1271 1739
1271 1781
1271 1819
1271 1844
1271 1900
1271 1929
1271 1955
1271 1993
1271 2001
1271 2062
1271 2091
1271 2099
1271 2119
1271 2161
1271 2184
1271 2196
1271 2223
1272 1396
1272 1438
1272 1439
1272 1465
1272 1626
1272 1630
1272 1637
1272 1697
1272 1918
1272 1939
1272 1976
1272 2014
1272 2091
1273 1312
1273 1646
1273 1651
1273 1891
1273 1977
1274 1347
1274 1422
1274 1444
1274 1494
1274 1529
1274 1599
1274 1646
1274 1724
1274 1781
1274 1783
1274 1831
1274 1886
1274 1900
1274 2091
1275 1475
1275 1514
1275 1554
1275 1602
1275 1612
1275 1993
1275 2028
1275 2033
1275 2081
1275 2196
1276 1505
1276 1536
1276 1746
1276 1866
1276 1894
1277 1291
1277 1320
1277 1323
1277 1341
1277 1368
1277 1416
1277 1422
1277 1464
1277 1498
1277 1544
1277 1556
1277 1585
1277 1602
1277 1613
1277 1623
1277 1641
1277 1646
1277 1650
1277 1654
1277 1699
1277 1713
1277 1754
1277 1778
1277 1804
1277 1810
1277 1823
1277 1826
1277 1831
1277 1856
1277 1900
1277 1907
1277 1920
1277 1961
1277 2001
1277 2028
1277 2045
1277 2049
1277 2050
1277 2148
1277 2158
1277 2206
1277 2217
1277 2220
1277 2228
1278 1333
1278 1360
1278 1369
1278 1384
1278 1466
1278 1527
1278 1557
1278 1608
1278 1839
1278 1845
1278 1846
1278 1902
1278 1945
1278 1958
1278 1977
1278 2000
1278 2048
1278 2074
1278 2096
1278 2203
1279 1298
1279 1304
1279 1312
1279 1330
1279 1333
1279 1338
1279 1353
1279 1390
1279 1417
1279 1432
1279 1519
1279 1540
1279 1559
1279 1560
1279 1569
1279 1580
1279 1605
1279 1619
1279 1620
1279 1621
1279 1662
1279 1682
1279 1684
1279 1707
1279 1744
1279 1762
1279 1771
1279 1805
1279 1806
1279 1814
1279 1894
1279 1903
1279 1943
1279 1947
1279 1967
1279 1974
1279 1977
1279 1980
1279 2031
1279 2092
1279 2150
1279 2152
1279 2164
1279 2182
1280 1307
1280 1388
1280 1560
1280 1919
1280 1934
1280 1967
1280 1986
1280 2029
1280 2056
1280 2228
1281 1418
1281 1966
1281 1978
1281 2163
1282 1350
1282 1670
1282 1957
1282 1970
1282 1991
1282 2036
1282 2207
1283 1304
1283 1361
1283 1370
1283 1380
1283 1422
1283 1453
1283 1457
1283 1647
1283 1673
1283 1803
1283 1805
1283 1965
1283 2010
1283 2044
1283 2149
1283 2154
1283 2164
1283 2228
1284 1327
1284 1332
1284 1450
1284 1457
1284 1460
1284 1462
1284 1493
1284 1712
1284 1779
1284 1820
1284 1930
1284 1935
1284 1943
1284 2228
1286 1325
1286 1378
1286 1428
1286 1475
1286 1558
1286 1645
1286 1707
1286 1739
1286 1779
1286 1813
1286 1952
1286 1963
1286 2117
1286 2127
1286 2150
1286 2191
1287 1333
1287 1338
1287 1351
1287 1357
1287 1361
1287 1384
1287 1414
1287 1420
1287 1422
1287 1489
1287 1494
1287 1496
1287 1534
1287 1556
1287 1580
1287 1607
1287 1646
1287 1673
1287 1754
1287 1812
1287 1820
1287 1863
1287 1899
1287 1911
1287 1943
1287 1962
1287 2016
1287 2035
1287 2121
1287 2207
1287 2217
1288 1303
1288 1706
1288 1815
1288 1835
1288 1837
1288 1843
1289 1305
1289 1310
1289 1344
1289 1391
1289 1397
1289 1425
1289 1454
1289 1492
1289 1532
1289 1539
1289 1553
1289 1578
1289 1585
1289 1591
1289 1610
1289 1691
1289 1713
1289 1721
1289 1731
1289 1749
1289 1767
1289 1806
1289 1826
1289 1834
1289 1901
1289 1904
1289 1912
1289 1920
1289 1944
1289 1989
1289 2005
1289 2041
1289 2089
1289 2121
1289 2190
1289 2209
1289 2232
1290 1620
1290 1632
1290 1985
1290 2106
1290 2213
1291 1307
1291 1327
1291 1368
1291 1372
1291 1399
1291 1498
1291 1499
1291 1553
1291 1563
1291 1581
1291 1582
1291 1602
1291 1614
1291 1623
1291 1626
1291 1638
1291 1646
1291 1699
1291 1701
1291 1724
1291 1734
1291 1743
1291 1785
1291 1794
1291 1804
1291 1806
1291 1831
1291 1855
1291 1875
1291 1879
1291 1904
1291 1920
1291 1922
1291 1929
1291 1955
1291 1972
1291 1999
1291 2001
1291 2011
1291 2039
1291 2045
1291 2049
1291 2094
1291 2100
1291 2148
1291 2149
1291 2158
1291 2175
1291 2181
1291 2184
1291 2193
1291 2206
1291 2208
1291 2220
1292 1314
1292 1767
1293 1514
1293 1612
1293 1636
1293 1826
1293 1864
1293 2196
1294 1333
1294 1364
1294 1370
1294 1372
1294 1422
1294 1489
1294 1569
1294 1615
1294 1738
1294 1771
1294 1883
1294 1930
1294 1943
1294 1967
1294 2035
1294 2197
1294 2227
1295 1302
1295 1385
1295 1505
1295 1608
1295 1633
1295 1703
1295 1746
1295 1825
1295 1828
1295 1842
1295 1866
1295 1904
1295 1926
1295 1985
1295 1998
1295 2009
1295 2015
1295 2057
1295 2065
1295 2096
1295 2097
1295 2114
1295 2130
1295 2159
1295 2200
1295 2213
1296 1310
1296 1494
1296 1544
1296 1721
1296 1781
1296 1900
1296 1904
1297 1346
1297 1385
1297 1398
1297 1817
1297 1866
1297 2040
1297 2057
1297 2060
1297 2065
1297 2159
1297 2176
1297 2178
1297 2192
1298 1299
1298 1333
1298 1357
1298 1361
1298 1381
1298 1384
1298 1405
1298 1427
1298 1432
1298 1479
1298 1489
1298 1560
1298 1561
1298 1580
1298 1605
1298 1622
1298 1668
1298 1682
1298 1795
1298 1863
1298 1865
1298 1894
1298 1899
1298 1957
1298 1970
1298 1997
1298 2093
1298 2138
1298 2144
1298 2164
1298 2227
1299 1305
1299 1307
1299 1330
1299 1333
1299 1338
1299 1357
1299 1370
1299 1403
1299 1405
1299 1425
1299 1435
1299 1457
1299 1496
1299 1530
1299 1557
1299 1559
1299 1580
1299 1639
1299 1658
1299 1684
1299 1735
1299 1750
1299 1762
1299 1769
1299 1796
1299 1836
1299 1852
1299 1934
1299 1970
1299 1986
1299 1997
1299 2010
1299 2026
1299 2073
1299 2093
1299 2125
1299 2164
1299 2189
1299 2218
1299 2228
1300 1304
1300 1330
1300 1361
1300 1384
1300 1422
1300 1457
1300 1536
1300 1608
1300 1796
1300 1866
1300 1870
1300 1931
1300 1951
1300 2005
1300 2013
1300 2016
1300 2044
1300 2145
1301 1356
1301 1422
1301 1441
1301 1463
1301 1527
1301 1557
1301 1575
1301 1633
1301 1638
1301 1678
1301 1699
1301 1786
1301 1817
1301 1828
1301 1866
1301 1917
1301 2226
1302 1459
1302 1499
1302 1527
1303 1393
1303 1410
1303 1422
1303 1499
1303 1514
1303 1533
1303 1583
1303 1590
1303 1634
1303 1661
1303 1705
1303 1710
1303 1713
1303 1773
1303 1781
1303 1800
1303 1831
1303 1833
1303 1834
1303 1897
1303 1914
1303 1921
1303 1993
1303 2018
1303 2049
1303 2080
1303 2121
1303 2139
1303 2145
1303 2184
1303 2189
1303 2190
1303 2195
1303 2209
1303 2220
1304 1333
1304 1364
1304 1384
1304 1405
1304 1432
1304 1437
1304 1438
1304 1457
1304 1502
1304 1513
1304 1519
1304 1536
1304 1602
1304 1615
1304 1771
1304 1805
1304 1813
1304 1847
1304 1886
1304 1935
1304 1940
1304 1944
1304 1997
1304 2047
1304 2076
1304 2164
1304 2179
1304 2188
1304 2206
1304 2228
1305 1343
1305 1344
1305 1376
1305 1380
1305 1392
1305 1475
1305 1485
1305 1506
1305 1514
1305 1541
1305 1560
1305 1600
1305 1602
1305 1612
1305 1629
1305 1645
1305 1687
1305 1688
1305 1709
1305 1721
1305 1737
1305 1758
1305 1778
1305 1827
1305 1831
1305 1905
1305 1952
1305 2009
1305 2091
1305 2139
1305 2189
1305 2209
1306 1328
1306 1846
1307 1322
1307 1328
1307 1330
1307 1384
1307 1414
1307 1425
1307 1481
1307 1483
1307 1489
1307 1495
1307 1496
1307 1513
1307 1560
1307 1564
1307 1622
1307 1640
1307 1673
1307 1696
1307 1707
1307 1738
1307 1806
1307 1814
1307 1832
1307 1860
1307 1864
1307 1919
1307 1951
1307 1967
1307 2010
1307 2028
1307 2070
1307 2073
1307 2086
1307 2129
1307 2133
1307 2138
1307 2154
1307 2199
1307 2210
1307 2228
1308 1382
1308 1475
1308 1510
1308 1532
1308 1571
1308 1578
1308 1667
1308 1680
1308 1699
1308 1713
1308 1717
1308 1739
1308 1795
1308 2033
1308 2046
1308 2049
1308 2081
1308 2146
1308 2204
1308 2232
1309 1312
1309 1314
1309 1324
1309 1372
1309 1401
1309 1439
1309 1445
1309 1486
1309 1487
1309 1509
1309 1517
1309 1538
1309 1540
1309 1549
1309 1567
1309 1594
1309 1605
1309 1615
1309 1631
1309 1675
1309 1716
1309 1776
1309 1784
1309 1841
1309 1854
1309 1885
1309 1936
1309 1938
1309 1948
1309 1972
1309 1974
1309 2054
1309 2064
1309 2088
1309 2104
1309 2131
1309 2150
1309 2162
1309 2174
1310 1376
1310 1382
1310 1394
1310 1483
1310 1494
1310 1504
1310 1506
1310 1514
1310 1518
1310 1529
1310 1534
1310 1539
1310 1544
1310 1576
1310 1583
1310 1590
1310 1602
1310 1604
1310 1606
1310 1612
1310 1634
1310 1649
1310 1661
1310 1664
1310 1676
1310 1700
1310 1711
1310 1713
1310 1739
1310 1740
1310 1760
1310 1781
1310 1782
1310 1800
1310 1816
1310 1833
1310 1836
1310 1874
1310 1881
1310 1887
1310 1901
1310 1912
1310 1921
1310 1963
1310 1997
1310 2016
1310 2018
1310 2028
1310 2049
1310 2052
1310 2090
1310 2121
1310 2139
1310 2146
1310 2184
1310 2189
1310 2190
1310 2199
1310 2209
1310 2226
1310 2230
1310 2232
1311 1566
1312 1314
1312 1317
1312 1318
1312 1332
1312 1333
1312 1338
1312 1372
1312 1405
1312 1434
1312 1437
1312 1439
1312 1442
1312 1457
1312 1470
1312 1477
1312 1479
1312 1487
1312 1490
1312 1509
1312 1536
1312 1540
1312 1559
1312 1570
1312 1576
1312 1604
1312 1609
1312 1620
1312 1639
1312 1658
1312 1661
1312 1669
1312 1670
1312 1675
1312 1690
1312 1726
1312 1750
1312 1755
1312 1770
1312 1771
1312 1791
1312 1795
1312 1805
1312 1813
1312 1820
1312 1841
1312 1854
1312 1862
1312 1872
1312 1883
1312 1894
1312 1911
1312 1930
1312 1935
1312 1936
1312 1943
1312 1949
1312 1964
1312 1965
1312 1974
1312 1988
1312 2034
1312 2081
1312 2086
1312 2096
1312 2098
1312 2104
1312 2116
1312 2131
1312 2144
1312 2150
1312 2152
1312 2164
1312 2200
1312 2218
1312 2227
1313 1369
1313 1422
1313 1458
1313 1459
1313 1463
1313 1720
1313 1746
1313 1748
1313 1770
1313 1804
1313 1823
1313 1825
1313 1842
1313 1866
1313 1955
1313 2000
1313 2009
1313 2114
1313 2150
1314 1317
1314 1364
1314 1422
1314 1445
1314 1465
1314 1490
1314 1493
1314 1596
1314 1599
1314 1638
1314 1669
1314 1670
1314 1684
1314 1767
1314 1805
1314 1854
1314 1955
1314 1956
1314 2007
1314 2028
1314 2054
1314 2116
1314 2127
1314 2156
1314 2163
1314 2164
1314 2206
1315 1326
1315 1422
1315 1583
1315 1597
1315 1765
1315 1781
1315 1819
1315 1844
1315 1893
1315 1921
1316 1378
1316 1443
1316 1574
1316 1630
1316 1667
1316 1713
1316 1725
1316 1799
1316 1890
1316 1928
1316 1972
1316 2026
1316 2038
1317 1401
1317 1429
1317 1439
1317 1442
1317 1480
1317 1508
1317 1677
1317 1784
1317 1805
1317 1813
1317 1843
1317 1847
1317 1861
1317 1862
1317 1947
1317 2116
1317 2162
1317 2174
1318 1333
1318 1417
1318 1449
1318 1456
1318 1470
1318 1594
1318 1615
1318 1639
1318 1726
1318 1841
1318 1935
1318 2024
1318 2104
1319 1327
1319 1392
1319 1879
1319 1976
1319 2045
1319 2204
1320 1336
1320 1341
1320 1362
1320 1368
1320 1386
1320 1414
1320 1426
1320 1436
1320 1456
1320 1464
1320 1487
1320 1498
1320 1499
1320 1507
1320 1512
1320 1534
1320 1541
1320 1544
1320 1549
1320 1556
1320 1591
1320 1596
1320 1606
1320 1613
1320 1618
1320 1650
1320 1653
1320 1664
1320 1666
1320 1667
1320 1672
1320 1676
1320 1699
1320 1702
1320 1714
1320 1717
1320 1718
1320 1725
1320 1754
1320 1767
1320 1778
1320 1780
1320 1793
1320 1799
1320 1810
1320 1844
1320 1849
1320 1851
1320 1878
1320 1896
1320 1898
1320 1899
1320 1903
1320 1911
1320 1918
1320 1929
1320 1951
1320 1957
1320 1972
1320 2033
1320 2037
1320 2039
1320 2045
1320 2081
1320 2089
1320 2103
1320 2111
1320 2118
1320 2121
1320 2133
1320 2145
1320 2148
1320 2150
1320 2158
1320 2165
1320 2168
1320 2174
1320 2182
1320 2188
1320 2193
1320 2205
1320 2217
1321 1363
1321 1514
1321 1568
1321 1635
1321 1807
1321 1827
1321 1831
1321 1840
1321 1900
1321 1969
1322 1403
1322 1453
1322 1622
1322 1744
1322 1919
1322 1934
1322 2055
1322 2073
1322 2123
1322 2138
1322 2228
1323 1341
1323 1378
1323 1386
1323 1412
1323 1418
1323 1422
1323 1445
1323 1449
1323 1456
1323 1492
1323 1581
1323 1582
1323 1591
1323 1602
1323 1615
1323 1618
1323 1623
1323 1626
1323 1639
1323 1667
1323 1669
1323 1701
1323 1725
1323 1726
1323 1743
1323 1804
1323 1831
1323 1841
1323 1875
1323 1903
1323 1905
1323 1932
1323 1936
1323 1981
1323 1989
1323 2023
1323 2025
1323 2028
1323 2045
1323 2054
1323 2104
1323 2116
1323 2127
1323 2150
1323 2158
1323 2174
1323 2206
1323 2221
1323 2228
1324 1371
1324 1401
1324 1418
1324 1437
1324 1457
1324 1486
1324 1490
1324 1493
1324 1508
1324 1567
1324 1582
1324 1594
1324 1605
1324 1623
1324 1638
1324 1792
1324 1854
1324 1904
1324 1930
1324 1948
1324 1972
1324 2007
1324 2014
1324 2064
1324 2072
1324 2088
1324 2104
1324 2107
1324 2116
1324 2131
1324 2150
1324 2162
1324 2168
1324 2174
1324 2181
1324 2206
1325 1421
1325 1524
1325 1626
1325 1630
1325 1638
1325 1646
1325 1658
1325 1699
1325 1707
1325 1735
1325 1852
1325 1868
1325 1916
1325 1952
1325 1977
1325 2014
1325 2024
1325 2041
1325 2099
1326 1366
1326 1376
1326 1382
1326 1431
1326 1518
1326 1534
1326 1537
1326 1583
1326 1590
1326 1626
1326 1646
1326 1687
1326 1699
1326 1711
1326 1714
1326 1781
1326 1799
1326 1800
1326 1836
1326 1897
1326 1900
1326 1927
1326 1932
1326 2038
1326 2090
1326 2121
1326 2139
1326 2165
1326 2168
1326 2174
1326 2184
1326 2189
1326 2197
1326 2207
1326 2209
1327 1336
1327 1344
1327 1380
1327 1392
1327 1469
1327 1553
1327 1554
1327 1624
1327 1636
1327 1699
1327 1713
1327 1721
1327 1734
1327 1759
1327 1820
1327 1826
1327 1865
1327 1875
1327 1903
1327 1922
1327 1988
1327 1993
1327 2008
1327 2016
1327 2039
1327 2204
1328 1330
1328 1338
1328 1351
1328 1381
1328 1384
1328 1388
1328 1390
1328 1398
1328 1403
1328 1436
1328 1470
1328 1506
1328 1534
1328 1560
1328 1568
1328 1598
1328 1605
1328 1622
1328 1626
1328 1738
1328 1742
1328 1783
1328 1796
1328 1806
1328 1820
1328 1822
1328 1823
1328 1831
1328 1839
1328 1846
1328 1894
1328 1903
1328 1911
1328 1934
1328 1986
1328 1992
1328 1994
1328 2010
1328 2035
1328 2044
1328 2060
1328 2062
1328 2073
1328 2076
1328 2080
1328 2105
1328 2118
1328 2138
1328 2168
1328 2173
1328 2178
1328 2207
1328 2227
1328 2228
1329 1376
1329 1407
1329 1461
1329 1507
1329 1659
1330 1333
1330 1390
1330 1414
1330 1422
1330 1514
1330 1536
1330 1555
1330 1557
1330 1578
1330 1591
1330 1598
1330 1622
1330 1624
1330 1639
1330 1661
1330 1668
1330 1673
1330 1676
1330 1791
1330 1870
1330 1951
1330 1961
1330 1999
1330 2010
1330 2035
1330 2076
1330 2086
1330 2092
1330 2125
1330 2154
1330 2164
1330 2228
1331 1369
1331 1565
1331 1945
1331 1962
1331 2094
1332 1338
1332 1364
1332 1371
1332 1384
1332 1387
1332 1399
1332 1413
1332 1442
1332 1450
1332 1457
1332 1476
1332 1493
1332 1536
1332 1564
1332 1569
1332 1615
1332 1626
1332 1726
1332 1762
1332 1779
1332 1795
1332 1805
1332 1943
1332 1977
1332 1994
1332 2047
1332 2076
1332 2113
1332 2144
1332 2188
1333 1338
1333 1357
1333 1358
1333 1361
1333 1370
1333 1377
1333 1390
1333 1403
1333 1405
1333 1412
1333 1417
1333 1422
1333 1442
1333 1457
1333 1465
1333 1469
1333 1489
1333 1515
1333 1535
1333 1536
1333 1559
1333 1560
1333 1570
1333 1588
1333 1596
1333 1615
1333 1620
1333 1622
1333 1624
1333 1639
1333 1646
1333 1658
1333 1682
1333 1701
1333 1707
1333 1726
1333 1738
1333 1750
1333 1771
1333 1784
1333 1795
1333 1796
1333 1801
1333 1805
1333 1840
1333 1870
1333 1894
1333 1904
1333 1911
1333 1935
1333 1951
1333 1965
1333 1967
1333 1972
1333 1977
1333 1986
1333 1988
1333 2011
1333 2043
1333 2045
1333 2049
1333 2059
1333 2104
1333 2150
1333 2164
1333 2174
1333 2197
1333 2206
1333 2207
1333 2227
1333 2228
1334 1645
1334 1709
1334 1900
1334 1944
1335 1434
1335 1499
1335 1504
1335 1524
1335 1544
1335 1584
1335 1595
1335 1611
1335 1629
1335 1656
1335 1679
1335 1804
1335 1905
1335 1920
1335 1993
1335 1999
1335 2016
1335 2084
1335 2141
1335 2145
1335 2168
1335 2175
1335 2206
1335 2208
1336 1420
1336 1446
1336 1611
1336 1679
1336 1687
1336 1734
1336 1851
1336 1875
1336 2149
1336 2165
1336 2229
1337 1350
1337 1385
1337 1521
1337 1557
1337 1620
1337 1729
1337 2186
1338 1357
1338 1384
1338 1405
1338 1422
1338 1432
1338 1439
1338 1457
1338 1465
1338 1470
1338 1474
1338 1519
1338 1544
1338 1559
1338 1570
1338 1580
1338 1622
1338 1639
1338 1646
1338 1662
1338 1707
1338 1738
1338 1771
1338 1795
1338 1805
1338 1812
1338 1854
1338 1880
1338 1911
1338 1931
1338 1949
1338 1972
1338 1974
1338 1994
1338 2016
1338 2059
1338 2086
1338 2125
1338 2144
1338 2164
1338 2188
1339 1442
1339 1491
1339 1663
1339 1670
1339 1862
1339 1876
1339 2158
1339 2168
1340 1408
1340 1454
1340 1474
1340 1514
1340 1543
1340 1676
1340 1701
1340 1713
1340 1827
1340 1844
1340 1855
1340 1944
1340 1969
1340 2041
1340 2071
1340 2091
1340 2100
1340 2193
1340 2214
1340 2223
1341 1368
1341 1386
1341 1411
1341 1434
1341 1435
1341 1436
1341 1449
1341 1464
1341 1475
1341 1490
1341 1492
1341 1499
1341 1504
1341 1506
1341 1539
1341 1541
1341 1544
1341 1554
1341 1568
1341 1582
1341 1583
1341 1588
1341 1599
1341 1610
1341 1611
1341 1618
1341 1638
1341 1670
1341 1680
1341 1696
1341 1714
1341 1725
1341 1731
1341 1784
1341 1792
1341 1793
1341 1804
1341 1811
1341 1827
1341 1830
1341 1831
1341 1855
1341 1907
1341 1940
1341 1955
1341 1964
1341 1989
1341 1993
1341 2011
1341 2018
1341 2025
1341 2028
1341 2033
1341 2041
1341 2045
1341 2068
1341 2081
1341 2122
1341 2138
1341 2184
1341 2194
1341 2196
1341 2206
1341 2208
1341 2209
1341 2217
1341 2228
1342 1413
1342 1445
1342 1489
1342 1536
1342 1636
1342 1670
1342 1671
1342 1776
1342 1785
1342 1823
1342 1868
1342 1940
1342 2039
1342 2092
1342 2228
1343 1365
1343 1464
1343 1514
1343 1577
1343 1585
1343 1612
1343 1635
1343 1802
1343 1879
1343 2021
1343 2112
1344 1376
1344 1422
1344 1474
1344 1560
1344 1568
1344 1598
1344 1646
1344 1710
1344 1721
1344 1804
1344 1826
1344 1904
1344 1920
1344 1952
1345 1350
1345 1370
1345 2138
1346 1839
1347 1397
1347 1420
1347 1425
1347 1474
1347 1490
1347 1578
1347 1585
1347 1602
1347 1606
1347 1623
1347 1629
1347 1702
1347 1783
1347 1844
1347 1918
1347 1929
1347 1951
1347 2001
1347 2049
1348 1388
1348 1462
1348 1566
1348 1624
1348 1763
1348 1823
1348 2016
1348 2149
1348 2154
1349 1374
1349 1388
1349 1419
1349 1562
1349 1703
1349 1894
1350 1369
1350 1548
1350 1620
1350 2213
1351 1384
1351 1403
1351 1420
1351 1463
1351 1496
1351 1580
1351 1646
1351 1699
1351 1707
1351 1796
1351 1823
1351 1863
1351 1899
1351 1911
1351 1986
1351 2016
1351 2031
1351 2228
1352 1464
1352 1474
1352 1529
1352 1571
1352 1659
1352 1704
1352 1752
1352 1753
1352 1800
1352 1904
1352 1912
1352 1927
1352 1929
1352 2033
1352 2046
1352 2049
1352 2190
1352 2214
1353 1388
1353 1417
1353 1432
1353 1591
1353 1673
1353 1676
1353 1732
1353 1806
1353 1947
1353 2056
1353 2092
1353 2131
1354 1777
1355 1458
1355 1557
1355 1825
1355 2030
1355 2036
1355 2105
1355 2174
1356 1398
1356 1441
1356 1476
1356 1501
1356 1548
1356 1557
1356 1608
1356 1633
1356 1678
1356 1825
1356 1828
1356 1866
1356 1985
1356 2048
1356 2065
1356 2069
1356 2097
1356 2157
1356 2159
1356 2178
1357 1377
1357 1401
1357 1417
1357 1422
1357 1457
1357 1519
1357 1536
1357 1560
1357 1580
1357 1615
1357 1631
1357 1639
1357 1675
1357 1684
1357 1712
1357 1796
1357 1812
1357 1899
1357 1911
1357 1930
1357 1935
1357 1943
1357 1948
1357 2010
1357 2029
1357 2059
1357 2064
1357 2088
1357 2134
1357 2218
1358 1388
1358 1425
1358 1441
1358 1506
1358 1536
1358 1591
1358 1646
1358 1667
1358 1712
1358 1965
1358 2154
1358 2228
1359 1548
1359 1616
1359 2082
1359 2106
1359 2160
1360 1395
1360 1414
1360 1506
1360 1527
1360 1572
1360 1575
1360 1628
1360 1678
1360 1985
1360 2066
1361 1381
1361 1384
1361 1390
1361 1422
1361 1457
1361 1460
1361 1469
1361 1472
1361 1498
1361 1513
1361 1536
1361 1541
1361 1581
1361 1600
1361 1615
1361 1673
1361 1737
1361 1743
1361 1767
1361 1781
1361 1886
1361 1905
1361 1911
1361 1931
1361 1935
1361 1944
1361 1951
1361 1956
1361 1997
1361 2008
1361 2013
1361 2045
1361 2047
1361 2093
1361 2099
1361 2136
1361 2149
1361 2174
1361 2207
1361 2228
1362 1410
1362 1472
1362 1474
1362 1500
1362 1506
1362 1530
1362 1588
1362 1596
1362 1626
1362 1702
1362 1713
1362 1781
1362 1823
1362 1855
1362 1921
1362 1935
1362 2005
1362 2008
1362 2010
1362 2062
1362 2145
1362 2214
1362 2219
1363 1376
1363 1436
1363 1504
1363 1514
1363 1581
1363 1604
1363 1629
1363 1679
1363 1724
1363 1827
1363 1831
1363 1840
1363 1900
1363 1906
1363 1969
1363 2062
1363 2080
1363 2145
1363 2168
1364 1615
1364 1762
1364 1771
1364 1791
1364 1797
1364 1804
1364 1994
1364 2218
1364 2221
1365 1513
1365 1534
1365 1539
1365 1556
1365 1566
1365 1576
1365 1596
1365 1667
1365 1701
1365 1779
1365 1799
1365 1859
1365 1976
1365 1993
1365 2119
1365 2136
1365 2145
1365 2163
1365 2214
1365 2219
1365 2223
1366 1382
1366 1394
1366 1436
1366 1448
1366 1539
1366 1574
1366 1667
1366 1702
1366 1739
1366 1797
1366 1799
1366 1819
1366 1855
1366 1875
1366 1907
1366 1912
1366 1922
1366 1993
1366 2033
1366 2038
1366 2039
1366 2165
1366 2173
1366 2189
1367 1376
1367 1422
1367 1439
1367 1487
1367 1558
1367 1867
1367 1896
1367 1921
1367 1928
1367 1947
1367 2087
1367 2111
1367 2116
1367 2117
1368 1411
1368 1422
1368 1431
1368 1449
1368 1484
1368 1490
1368 1492
1368 1498
1368 1544
1368 1556
1368 1560
1368 1582
1368 1584
1368 1588
1368 1596
1368 1600
1368 1602
1368 1623
1368 1644
1368 1690
1368 1702
1368 1713
1368 1714
1368 1717
1368 1725
1368 1776
1368 1781
1368 1792
1368 1794
1368 1797
1368 1799
1368 1804
1368 1815
1368 1819
1368 1822
1368 1831
1368 1849
1368 1851
1368 1896
1368 1904
1368 1916
1368 1918
1368 1936
1368 1942
1368 1951
1368 1955
1368 1964
1368 1983
1368 1989
1368 2003
1368 2007
1368 2011
1368 2023
1368 2038
1368 2039
1368 2045
1368 2064
1368 2068
1368 2104
1368 2111
1368 2145
1368 2148
1368 2163
1368 2168
1368 2194
1368 2202
1368 2206
1369 1441
1369 1466
1369 1476
1369 1501
1369 1608
1369 1676
1369 1678
1369 1729
1369 1770
1369 1828
1369 1842
1369 1985
1369 1991
1369 2066
1369 2096
1369 2105
1370 1403
1370 1457
1370 1470
1370 1489
1370 1536
1370 1560
1370 1699
1370 1820
1370 1930
1370 1934
1370 1943
1370 1965
1370 1967
1370 1986
1370 1994
1370 2010
1370 2035
1370 2044
1370 2073
1370 2075
1370 2149
1370 2154
1370 2197
1370 2227
1370 2228
1371 1387
1371 1396
1371 1418
1371 1438
1371 1442
1371 1445
1371 1475
1371 1487
1371 1493
1371 1509
1371 1517
1371 1631
1371 1663
1371 1677
1371 1699
1371 1713
1371 1726
1371 1745
1371 1779
1371 1807
1371 1808
1371 1820
1371 1829
1371 1861
1371 1867
1371 1868
1371 1903
1371 1915
1371 1930
1371 1955
1371 1966
1371 1982
1371 2024
1371 2034
1371 2072
1371 2113
1371 2116
1371 2120
1371 2131
1371 2161
1372 1382
1372 1384
1372 1405
1372 1470
1372 1503
1372 1527
1372 1582
1372 1615
1372 1623
1372 1670
1372 1675
1372 1676
1372 1690
1372 1713
1372 1714
1372 1719
1372 1743
1372 1813
1372 1849
1372 1876
1372 1883
1372 1928
1372 1935
1372 1936
1372 1939
1372 1972
1372 1977
1372 1994
1372 2007
1372 2064
1372 2108
1372 2131
1372 2143
1372 2148
1372 2150
1372 2158
1372 2174
1372 2206
1372 2233
1373 1422
1373 1450
1373 1464
1373 1475
1373 1518
1373 1524
1373 1535
1373 1547
1373 1618
1373 1667
1373 1713
1373 1784
1373 1799
1373 1819
1373 1844
1373 1855
1373 1895
1373 1906
1373 1915
1373 1928
1373 2008
1373 2120
1373 2163
1373 2174
1374 1385
1374 1562
1374 1633
1374 2040
1375 1568
1375 1578
1375 1600
1375 1691
1375 1904
1375 2102
1375 2103
1375 2145
1375 2214
1376 1382
1376 1448
1376 1516
1376 1529
1376 1537
1376 1590
1376 1661
1376 1700
1376 1800
1376 1912
1376 2090
1376 2121
1376 2139
1376 2167
1376 2194
1376 2206
1376 2211
1377 1384
1377 1445
1377 1457
1377 1470
1377 1536
1377 1558
1377 1570
1377 1609
1377 1622
1377 1639
1377 1712
1377 1750
1377 1784
1377 1930
1377 1935
1377 1948
1378 1382
1378 1392
1378 1399
1378 1422
1378 1450
1378 1465
1378 1467
1378 1574
1378 1576
1378 1578
1378 1618
1378 1626
1378 1662
1378 1663
1378 1667
1378 1713
1378 1779
1378 1813
1378 1903
1378 1929
1378 1963
1378 1971
1378 2053
1378 2075
1378 2109
1378 2145
1378 2150
1378 2232
1379 1392
1379 1529
1379 1953
1379 2049
1379 2167
1380 1388
1380 1411
1380 1469
1380 1513
1380 1535
1380 1624
1380 1685
1380 1707
1380 1734
1380 1738
1380 1760
1380 1764
1380 1794
1380 1806
1380 1814
1380 1865
1380 1894
1380 1899
1380 1951
1380 1967
1380 1970
1380 1997
1380 2009
1380 2010
1380 2138
1380 2154
1380 2228
1381 1403
1381 1432
1381 1479
1381 1569
1381 1605
1381 1635
1381 1640
1381 1682
1381 1685
1381 1734
1381 1767
1381 1795
1381 1894
1381 1899
1381 1970
1381 1980
1381 1994
1381 2010
1381 2013
1381 2138
1382 1391
1382 1392
1382 1396
1382 1411
1382 1422
1382 1431
1382 1448
1382 1475
1382 1486
1382 1492
1382 1518
1382 1541
1382 1554
1382 1576
1382 1606
1382 1610
1382 1629
1382 1637
1382 1639
1382 1644
1382 1653
1382 1661
1382 1662
1382 1663
1382 1680
1382 1696
1382 1699
1382 1713
1382 1717
1382 1743
1382 1759
1382 1804
1382 1807
1382 1813
1382 1819
1382 1844
1382 1869
1382 1916
1382 1922
1382 1934
1382 1947
1382 1953
1382 1963
1382 1976
1382 1987
1382 1993
1382 2038
1382 2039
1382 2046
1382 2053
1382 2075
1382 2081
1382 2101
1382 2102
1382 2109
1382 2118
1382 2119
1382 2145
1382 2146
1382 2165
1382 2171
1382 2189
1382 2206
1382 2220
1382 2226
1384 1405
1384 1414
1384 1445
1384 1446
1384 1453
1384 1486
1384 1490
1384 1493
1384 1496
1384 1502
1384 1506
1384 1512
1384 1513
1384 1517
1384 1519
1384 1523
1384 1536
1384 1541
1384 1564
1384 1600
1384 1615
1384 1622
1384 1623
1384 1624
1384 1630
1384 1638
1384 1639
1384 1640
1384 1646
1384 1673
1384 1682
1384 1707
1384 1712
1384 1714
1384 1726
1384 1734
1384 1750
1384 1762
1384 1771
1384 1792
1384 1795
1384 1796
1384 1801
1384 1805
1384 1812
1384 1820
1384 1823
1384 1844
1384 1854
1384 1860
1384 1861
1384 1870
1384 1894
1384 1911
1384 1929
1384 1935
1384 1936
1384 1938
1384 1939
1384 1943
1384 1951
1384 1970
1384 1974
1384 1994
1384 1997
1384 2000
1384 2013
1384 2035
1384 2038
1384 2076
1384 2086
1384 2087
1384 2093
1384 2096
1384 2112
1384 2125
1384 2138
1384 2158
1384 2164
1384 2199
1384 2206
1384 2215
1384 2227
1384 2228
1385 1562
1385 1839
1385 2009
1385 2040
1385 2082
1385 2178
1386 1411
1386 1446
1386 1474
1386 1490
1386 1498
1386 1613
1386 1638
1386 1654
1386 1702
1386 1778
1386 1793
1386 1797
1386 1804
1386 1869
1386 1907
1386 1951
1386 1964
1386 2033
1386 2098
1386 2149
1386 2164
1386 2194
1386 2217
1386 2220
1387 1393
1387 1402
1387 1439
1387 1442
1387 1448
1387 1467
1387 1487
1387 1490
1387 1523
1387 1547
1387 1549
1387 1615
1387 1626
1387 1674
1387 1699
1387 1705
1387 1717
1387 1726
1387 1730
1387 1799
1387 1813
1387 1819
1387 1844
1387 1867
1387 1876
1387 1896
1387 1938
1387 2014
1387 2034
1387 2045
1387 2054
1387 2061
1387 2116
1387 2119
1387 2127
1387 2168
1387 2173
1388 1414
1388 1453
1388 1489
1388 1513
1388 1561
1388 1622
1388 1624
1388 1671
1388 1680
1388 1744
1388 1760
1388 1763
1388 1794
1388 1801
1388 1803
1388 1806
1388 1814
1388 1863
1388 1865
1388 1886
1388 1934
1388 1970
1388 1999
1388 2010
1388 2029
1388 2044
1388 2049
1388 2055
1388 2070
1388 2129
1388 2138
1388 2149
1388 2184
1388 2199
1388 2207
1388 2208
1389 1704
1389 1912
1390 1457
1390 1460
1390 1470
1390 1489
1390 1560
1390 1584
1390 1588
1390 1596
1390 1607
1390 1622
1390 1639
1390 1699
1390 1796
1390 1812
1390 1820
1390 1931
1390 1935
1390 1951
1390 1967
1390 2011
1390 2076
1390 2107
1390 2144
1390 2206
1390 2227
1390 2228
1391 1571
1391 1638
1391 1698
1391 1713
1391 1733
1391 1800
1391 1944
1391 1976
1391 2109
1391 2145
1392 1446
1392 1514
1392 1554
1392 1578
1392 1600
1392 1606
1392 1610
1392 1619
1392 1626
1392 1636
1392 1659
1392 1698
1392 1699
1392 1701
1392 1733
1392 1739
1392 1775
1392 1814
1392 1826
1392 1869
1392 1879
1392 1916
1392 1987
1392 1989
1392 2041
1392 2049
1392 2083
1392 2099
1392 2148
1392 2167
1392 2204
1392 2209
1392 2228
1392 2232
1392 2234
1393 1422
1393 1428
1393 1516
1393 1537
1393 1590
1393 1634
1393 1664
1393 1689
1393 1705
1393 1711
1393 1773
1393 1800
1393 1837
1393 1874
1393 1882
1393 1887
1393 1921
1393 1969
1393 1977
1393 2090
1393 2139
1393 2163
1393 2167
1393 2190
1393 2214
1394 1617
1394 1667
1394 1699
1394 1710
1394 1751
1394 1753
1394 1843
1394 1881
1394 1914
1394 1921
1394 1929
1394 1953
1394 1975
1394 1997
1394 2046
1394 2049
1394 2080
1394 2090
1394 2139
1394 2140
1394 2223
1394 2226
1395 1572
1395 1575
1395 1770
1395 2158
1396 1411
1396 1421
1396 1450
1396 1465
1396 1538
1396 1626
1396 1630
1396 1644
1396 1699
1396 1844
1396 1868
1396 1907
1396 1976
1396 2081
1396 2113
1396 2165
1397 1422
1397 1474
1397 1532
1397 1578
1397 1585
1397 1679
1397 1733
1397 1749
1397 2141
1398 1575
1398 1839
1398 2060
1398 2178
1399 1411
1399 1446
1399 1450
1399 1454
1399 1465
1399 1503
1399 1506
1399 1507
1399 1598
1399 1600
1399 1639
1399 1653
1399 1666
1399 1667
1399 1674
1399 1699
1399 1718
1399 1735
1399 1745
1399 1757
1399 1780
1399 1802
1399 1865
1399 1878
1399 1896
1399 1903
1399 1918
1399 1931
1399 1940
1399 1953
1399 1971
1399 1976
1399 2118
1399 2121
1399 2144
1401 1439
1401 1442
1401 1480
1401 1487
1401 1508
1401 1517
1401 1552
1401 1567
1401 1594
1401 1615
1401 1631
1401 1677
1401 1701
1401 1716
1401 1777
1401 1779
1401 1818
1401 1841
1401 1854
1401 1861
1401 1880
1401 1885
1401 1915
1401 1948
1401 1949
1401 1974
1401 2026
1401 2054
1401 2108
1401 2117
1401 2162
1401 2215
1402 1480
1402 1523
1402 1547
1402 1674
1402 1843
1402 2117
1403 1427
1403 1432
1403 1435
1403 1470
1403 1501
1403 1559
1403 1560
1403 1622
1403 1644
1403 1680
1403 1738
1403 1805
1403 1838
1403 1894
1403 1908
1403 1911
1403 1943
1403 1952
1403 1963
1403 1977
1403 1986
1403 2027
1403 2031
1403 2035
1403 2043
1403 2044
1403 2050
1403 2092
1403 2105
1403 2113
1403 2120
1403 2125
1403 2157
1403 2164
1403 2183
1403 2227
1404 1425
1404 1514
1404 1585
1404 1612
1404 1664
1404 1816
1404 1887
1404 2091
1405 1418
1405 1442
1405 1457
1405 1469
1405 1470
1405 1491
1405 1513
1405 1519
1405 1531
1405 1536
1405 1538
1405 1570
1405 1594
1405 1615
1405 1622
1405 1639
1405 1675
1405 1676
1405 1682
1405 1796
1405 1841
1405 1870
1405 1880
1405 1894
1405 1900
1405 1911
1405 1915
1405 1931
1405 1949
1405 1951
1405 1974
1405 1994
1405 2043
1405 2054
1405 2055
1405 2076
1405 2093
1405 2131
1405 2150
1405 2188
1405 2228
1406 1435
1406 1436
1406 1449
1406 1490
1406 1528
1406 1538
1406 1576
1406 1601
1406 1602
1406 1666
1406 1679
1406 1699
1406 1709
1406 1720
1406 1797
1406 1804
1406 1851
1406 1866
1406 1898
1406 1904
1406 1905
1406 1929
1406 2010
1406 2016
1406 2018
1406 2028
1406 2045
1406 2099
1406 2136
1406 2145
1406 2148
1406 2156
1406 2165
1406 2185
1406 2202
1406 2204
1406 2220
1406 2229
1407 1529
1407 1551
1407 1598
1407 1739
1407 1783
1407 1984
1408 1454
1408 1499
1408 1701
1408 1713
1408 1733
1408 1735
1408 1757
1408 1844
1408 1944
1408 2039
1408 2049
1408 2062
1408 2193
1408 2223
1409 1735
1409 1921
1409 2137
1410 1426
1410 1439
1410 1450
1410 1518
1410 1539
1410 1566
1410 1578
1410 1618
1410 1626
1410 1713
1410 1733
1410 1759
1410 1855
1410 1862
1410 1888
1410 1892
1410 1904
1410 1906
1410 1932
1410 2005
1410 2061
1410 2062
1410 2119
1410 2145
1410 2173
1410 2174
1410 2184
1410 2209
1410 2231
1411 1446
1411 1453
1411 1474
1411 1490
1411 1506
1411 1513
1411 1585
1411 1629
1411 1637
1411 1638
1411 1667
1411 1699
1411 1708
1411 1717
1411 1739
1411 1745
1411 1778
1411 1781
1411 1793
1411 1804
1411 1822
1411 1831
1411 1878
1411 1895
1411 1900
1411 1903
1411 1911
1411 1929
1411 1964
1411 1970
1411 2028
1411 2049
1411 2102
1411 2121
1411 2174
1411 2194
1411 2196
1411 2204
1411 2228
1412 1418
1412 1437
1412 1439
1412 1442
1412 1445
1412 1457
1412 1487
1412 1491
1412 1538
1412 1570
1412 1588
1412 1595
1412 1615
1412 1622
1412 1714
1412 1784
1412 1811
1412 1830
1412 1854
1412 1880
1412 1885
1412 1915
1412 1949
1412 1955
1412 2007
1412 2064
1412 2104
1412 2111
1412 2131
1412 2148
1412 2150
1412 2158
1412 2174
1412 2227
1413 1450
1413 1467
1413 1489
1413 1644
1413 1677
1413 1726
1413 1779
1413 1804
1413 1930
1413 1935
1413 1938
1413 1983
1413 2014
1413 2034
1413 2113
1413 2166
1414 1417
1414 1420
1414 1424
1414 1427
1414 1512
1414 1544
1414 1602
1414 1606
1414 1622
1414 1624
1414 1646
1414 1702
1414 1738
1414 1744
1414 1771
1414 1823
1414 1832
1414 1849
1414 1851
1414 1894
1414 1898
1414 1899
1414 1918
1414 1929
1414 1951
1414 1967
1414 2033
1414 2045
1414 2056
1414 2070
1414 2138
1414 2154
1414 2199
1414 2207
1414 2227
1414 2228
1415 1444
1415 1494
1415 1588
1415 1604
1415 1699
1415 1713
1415 1834
1415 1887
1415 2016
1415 2190
1416 1456
1416 1489
1416 1492
1416 1602
1416 1650
1416 1654
1416 1679
1416 1696
1416 1804
1416 1887
1416 1904
1416 1997
1416 1999
1416 2028
1416 2098
1416 2194
1416 2202
1416 2204
1416 2208
1416 2217
1416 2220
1417 1456
1417 1470
1417 1483
1417 1519
1417 1560
1417 1569
1417 1570
1417 1605
1417 1639
1417 1682
1417 1744
1417 1771
1417 1806
1417 1812
1417 1814
1417 1863
1417 1883
1417 1894
1417 1911
1417 1931
1417 1935
1417 1943
1417 1967
1417 1970
1417 2008
1417 2031
1417 2043
1417 2053
1417 2056
1417 2059
1417 2070
1417 2082
1417 2092
1417 2191
1417 2227
1418 1422
1418 1438
1418 1445
1418 1490
1418 1493
1418 1536
1418 1538
1418 1584
1418 1595
1418 1617
1418 1623
1418 1639
1418 1653
1418 1667
1418 1669
1418 1690
1418 1698
1418 1713
1418 1725
1418 1726
1418 1776
1418 1779
1418 1841
1418 1880
1418 1890
1418 1936
1418 1940
1418 1982
1418 1983
1418 2001
1418 2034
1418 2104
1418 2111
1418 2144
1418 2145
1418 2168
1418 2188
1418 2193
1418 2204
1419 1582
1419 1770
1419 2114
1420 1422
1420 1496
1420 1497
1420 1512
1420 1656
1420 1673
1420 1687
1420 1709
1420 1734
1420 1744
1420 1758
1420 1794
1420 1795
1420 1803
1420 1805
1420 1823
1420 1864
1420 1961
1420 1996
1420 2125
1420 2133
1420 2138
1420 2227
1420 2228
1421 1450
1421 1527
1421 1612
1421 1696
1421 1779
1421 1816
1421 1819
1421 1868
1421 1887
1421 1907
1421 1916
1421 1955
1421 1988
1421 2061
1421 2068
1421 2100
1421 2139
1421 2202
1422 1425
1422 1426
1422 1434
1422 1444
1422 1449
1422 1454
1422 1462
1422 1482
1422 1489
1422 1492
1422 1504
1422 1514
1422 1518
1422 1532
1422 1535
1422 1538
1422 1539
1422 1544
1422 1547
1422 1560
1422 1564
1422 1571
1422 1581
1422 1582
1422 1588
1422 1606
1422 1627
1422 1637
1422 1638
1422 1641
1422 1644
1422 1646
1422 1653
1422 1667
1422 1670
1422 1689
1422 1699
1422 1704
1422 1706
1422 1708
1422 1713
1422 1721
1422 1724
1422 1726
1422 1731
1422 1739
1422 1744
1422 1749
1422 1752
1422 1758
1422 1777
1422 1778
1422 1784
1422 1792
1422 1794
1422 1810
1422 1815
1422 1819
1422 1826
1422 1830
1422 1835
1422 1837
1422 1840
1422 1851
1422 1852
1422 1862
1422 1865
1422 1886
1422 1887
1422 1888
1422 1899
1422 1904
1422 1906
1422 1910
1422 1915
1422 1922
1422 1929
1422 1967
1422 1970
1422 1983
1422 1989
1422 1993
1422 2001
1422 2016
1422 2023
1422 2027
1422 2033
1422 2035
1422 2043
1422 2045
1422 2047
1422 2054
1422 2060
1422 2068
1422 2075
1422 2076
1422 2089
1422 2098
1422 2099
1422 2100
1422 2111
1422 2118
1422 2120
1422 2121
1422 2125
1422 2130
1422 2133
1422 2137
1422 2140
1422 2141
1422 2148
1422 2161
1422 2189
1422 2197
1422 2204
1422 2206
1422 2208
1422 2209
1422 2216
1422 2217
1422 2223
1422 2227
1423 1461
1423 1542
1423 2170
1423 2190
1424 1462
1424 1513
1424 1623
1424 1624
1424 1638
1424 1702
1424 1929
1424 2118
1424 2158
1424 2207
1425 1475
1425 1482
1425 1514
1425 1568
1425 1576
1425 1585
1425 1588
1425 1602
1425 1646
1425 1665
1425 1721
1425 1731
1425 1783
1425 1819
1425 1831
1425 1852
1425 1868
1425 1961
1425 2056
1425 2075
1425 2110
1425 2112
1425 2190
1426 1464
1426 1475
1426 1503
1426 1529
1426 1554
1426 1563
1426 1583
1426 1598
1426 1612
1426 1618
1426 1635
1426 1667
1426 1677
1426 1807
1426 1900
1426 1904
1426 2033
1426 2049
1426 2081
1426 2091
1426 2099
1426 2142
1426 2173
1426 2190
1426 2196
1426 2223
1427 1446
1427 1483
1427 1489
1427 1557
1427 1570
1427 1581
1427 1592
1427 1605
1427 1635
1427 1640
1427 1685
1427 1707
1427 1734
1427 1738
1427 1753
1427 1794
1427 1886
1427 1887
1427 1911
1427 1970
1427 1980
1427 2010
1427 2013
1427 2086
1427 2125
1427 2133
1427 2138
1427 2149
1427 2164
1427 2217
1427 2227
1428 1475
1428 1590
1428 1609
1428 1634
1428 1779
1428 1808
1428 1843
1428 1881
1428 1923
1428 1982
1428 2117
1428 2193
1428 2233
1429 1439
1429 1660
1429 1705
1429 2116
1429 2139
1430 1751
1430 2214
1431 1450
1431 1467
1431 1541
1431 1547
1431 1690
1431 1896
1431 1907
1431 2038
1431 2045
1431 2079
1431 2108
1431 2171
1432 1437
1432 1470
1432 1479
1432 1493
1432 1517
1432 1534
1432 1559
1432 1588
1432 1605
1432 1640
1432 1668
1432 1682
1432 1712
1432 1762
1432 1795
1432 1813
1432 1831
1432 1947
1432 1967
1432 1970
1432 1994
1432 2131
1432 2138
1432 2144
1432 2149
1432 2150
1432 2164
1432 2188
1432 2227
1433 1561
1433 1588
1433 1633
1433 1668
1433 1863
1433 1899
1433 2016
1433 2029
1434 1464
1434 1499
1434 1504
1434 1541
1434 1576
1434 1583
1434 1598
1434 1604
1434 1612
1434 1618
1434 1629
1434 1661
1434 1679
1434 1699
1434 1781
1434 1795
1434 1901
1434 1903
1434 1904
1434 1927
1434 1997
1434 2016
1434 2018
1434 2122
1434 2129
1434 2141
1434 2189
1434 2196
1434 2220
1435 1449
1435 1492
1435 1501
1435 1505
1435 1581
1435 1638
1435 1680
1435 1696
1435 1797
1435 1804
1435 1812
1435 1826
1435 1829
1435 1843
1435 1904
1435 1908
1435 1978
1435 2027
1435 2028
1435 2031
1435 2075
1435 2157
1435 2165
1435 2182
1435 2217
1435 2220
1436 1475
1436 1481
1436 1499
1436 1560
1436 1564
1436 1588
1436 1646
1436 1713
1436 1717
1436 1721
1436 1781
1436 1797
1436 1823
1436 1827
1436 1860
1436 1940
1436 2025
1436 2028
1436 2033
1436 2045
1436 2080
1436 2098
1436 2139
1436 2174
1436 2206
1436 2217
1436 2220
1437 1490
1437 1538
1437 1594
1437 1669
1437 1675
1437 1705
1437 1726
1437 1743
1437 1792
1437 1811
1437 1813
1437 1841
1437 1847
1437 1876
1437 1936
1437 1983
1437 2064
1437 2107
1437 2163
1437 2164
1437 2221
1438 1474
1438 1477
1438 1480
1438 1487
1438 1509
1438 1523
1438 1531
1438 1538
1438 1549
1438 1552
1438 1567
1438 1601
1438 1615
1438 1662
1438 1675
1438 1677
1438 1690
1438 1705
1438 1755
1438 1843
1438 1854
1438 1861
1438 1867
1438 1896
1438 1938
1438 1939
1438 1947
1438 1949
1438 1957
1438 2024
1438 2113
1438 2116
1438 2131
1438 2150
1438 2188
1439 1450
1439 1477
1439 1486
1439 1489
1439 1490
1439 1519
1439 1531
1439 1536
1439 1547
1439 1558
1439 1596
1439 1615
1439 1617
1439 1618
1439 1626
1439 1630
1439 1662
1439 1667
1439 1672
1439 1674
1439 1677
1439 1690
1439 1698
1439 1699
1439 1702
1439 1714
1439 1725
1439 1730
1439 1753
1439 1765
1439 1777
1439 1779
1439 1784
1439 1808
1439 1819
1439 1841
1439 1854
1439 1857
1439 1880
1439 1907
1439 1915
1439 1918
1439 1928
1439 1938
1439 1939
1439 1943
1439 1949
1439 1972
1439 1988
1439 2007
1439 2012
1439 2033
1439 2054
1439 2076
1439 2088
1439 2101
1439 2107
1439 2111
1439 2131
1439 2132
1439 2148
1439 2150
1439 2165
1439 2173
1439 2174
1439 2182
1439 2223
1440 1603
1440 1657
1440 2108
1440 2137
1441 1463
1441 1470
1441 1501
1441 1505
1441 1528
1441 1601
1441 1620
1441 1669
1441 1761
1441 1770
1441 1820
1441 1866
1441 1926
1441 1958
1441 1960
1441 2000
1441 2096
1441 2200
1441 2207
1442 1450
1442 1457
1442 1475
1442 1477
1442 1480
1442 1491
1442 1493
1442 1503
1442 1509
1442 1523
1442 1536
1442 1552
1442 1568
1442 1585
1442 1615
1442 1626
1442 1639
1442 1662
1442 1674
1442 1677
1442 1699
1442 1750
1442 1755
1442 1779
1442 1813
1442 1815
1442 1819
1442 1830
1442 1854
1442 1861
1442 1862
1442 1872
1442 1878
1442 1916
1442 1935
1442 1938
1442 1943
1442 1947
1442 1966
1442 1983
1442 1988
1442 1997
1442 2011
1442 2014
1442 2026
1442 2034
1442 2039
1442 2054
1442 2064
1442 2098
1442 2111
1442 2116
1442 2117
1442 2131
1442 2135
1442 2150
1442 2164
1442 2168
1442 2181
1442 2188
1442 2206
1443 1447
1443 1506
1443 1507
1443 1571
1443 1606
1443 1638
1443 1727
1443 2019
1443 2026
1443 2103
1443 2148
1443 2158
1443 2161
1444 1523
1444 1699
1444 1733
1444 1922
1444 1942
1444 2075
1444 2173
1444 2184
1445 1465
1445 1486
1445 1487
1445 1509
1445 1517
1445 1521
1445 1552
1445 1609
1445 1631
1445 1662
1445 1675
1445 1684
1445 1716
1445 1726
1445 1730
1445 1755
1445 1776
1445 1841
1445 1852
1445 1861
1445 1904
1445 1935
1445 1947
1445 1948
1445 1974
1445 1982
1445 2034
1445 2072
1445 2104
1445 2111
1445 2116
1445 2131
1445 2150
1445 2174
1445 2181
1445 2206
1445 2215
1446 1456
1446 1499
1446 1506
1446 1512
1446 1541
1446 1549
1446 1556
1446 1557
1446 1582
1446 1599
1446 1606
1446 1623
1446 1626
1446 1635
1446 1637
1446 1638
1446 1641
1446 1653
1446 1667
1446 1690
1446 1699
1446 1702
1446 1708
1446 1718
1446 1725
1446 1730
1446 1753
1446 1767
1446 1776
1446 1793
1446 1797
1446 1806
1446 1810
1446 1844
1446 1849
1446 1851
1446 1928
1446 1953
1446 1964
1446 1972
1446 1977
1446 2028
1446 2033
1446 2045
1446 2049
1446 2081
1446 2089
1446 2132
1446 2145
1446 2148
1446 2174
1446 2182
1446 2194
1446 2196
1446 2202
1446 2204
1446 2208
1446 2220
1446 2228
1447 1626
1447 1659
1447 1727
1448 1518
1448 1571
1448 1578
1448 1680
1448 1717
1448 1739
1448 1779
1448 1807
1448 1916
1448 2034
1448 2037
1448 2038
1448 2075
1448 2081
1448 2100
1448 2102
1448 2171
1448 2177
1448 2232
1449 1489
1449 1492
1449 1556
1449 1602
1449 1638
1449 1680
1449 1696
1449 1726
1449 1779
1449 1797
1449 1812
1449 1829
1449 1843
1449 1879
1449 1904
1449 1952
1449 1962
1449 2031
1449 2050
1449 2075
1449 2111
1449 2113
1449 2157
1449 2161
1449 2165
1449 2220
1450 1467
1450 1518
1450 1523
1450 1524
1450 1541
1450 1547
1450 1578
1450 1626
1450 1644
1450 1667
1450 1674
1450 1690
1450 1702
1450 1730
1450 1751
1450 1776
1450 1779
1450 1799
1450 1807
1450 1819
1450 1829
1450 1872
1450 1888
1450 1890
1450 1907
1450 1916
1450 1976
1450 1977
1450 2034
1450 2037
1450 2038
1450 2049
1450 2054
1450 2061
1450 2108
1450 2113
1450 2119
1450 2132
1450 2139
1450 2156
1450 2171
1450 2173
1450 2184
1450 2216
1451 1575
1451 1957
1451 2207
1452 1476
1452 1501
1452 1521
1452 1528
1452 1572
1452 1625
1452 1628
1452 1633
1452 1669
1452 1729
1452 1762
1452 1788
1452 1828
1452 1908
1452 1917
1452 1960
1452 2183
1452 2200
1453 1489
1453 1758
1453 1794
1453 1803
1453 1805
1453 1879
1453 1886
1453 1965
1453 1970
1453 2154
1453 2228
1454 1464
1454 1475
1454 1568
1454 1583
1454 1598
1454 1735
1454 1757
1454 1827
1454 1840
1454 1887
1454 1897
1454 1916
1454 1927
1454 1961
1454 2091
1454 2099
1454 2145
1454 2167
1454 2193
1454 2231
1456 1490
1456 1506
1456 1540
1456 1541
1456 1591
1456 1596
1456 1638
1456 1639
1456 1690
1456 1699
1456 1702
1456 1743
1456 1780
1456 1804
1456 1844
1456 1898
1456 1918
1456 1935
1456 1942
1456 1953
1456 1957
1456 1964
1456 2045
1456 2107
1456 2118
1456 2127
1456 2131
1456 2148
1456 2158
1456 2174
1456 2191
1456 2204
1456 2217
1457 1465
1457 1470
1457 1484
1457 1489
1457 1518
1457 1534
1457 1540
1457 1570
1457 1582
1457 1615
1457 1622
1457 1639
1457 1662
1457 1682
1457 1684
1457 1699
1457 1707
1457 1750
1457 1794
1457 1795
1457 1796
1457 1803
1457 1804
1457 1820
1457 1830
1457 1870
1457 1894
1457 1905
1457 1911
1457 1931
1457 1941
1457 1943
1457 1951
1457 1956
1457 1967
1457 1972
1457 1974
1457 1977
1457 1978
1457 1994
1457 1997
1457 2008
1457 2013
1457 2054
1457 2086
1457 2104
1457 2164
1457 2187
1457 2197
1457 2206
1457 2228
1458 1468
1458 1476
1458 1746
1458 1825
1458 2004
1458 2030
1458 2157
1459 1505
1459 1683
1459 1720
1459 1825
1459 1960
1459 2114
1460 1462
1460 1489
1460 1561
1460 1580
1460 1596
1460 1671
1460 1763
1460 1820
1460 1823
1460 1855
1460 1863
1460 1911
1460 1970
1460 1994
1460 1999
1460 2000
1460 2008
1460 2045
1460 2121
1460 2158
1460 2164
1460 2187
1460 2204
1460 2207
1461 1529
1461 1542
1461 1551
1461 1583
1461 1659
1461 1921
1461 1946
1461 1984
1461 2137
1461 2145
1461 2167
1461 2173
1462 1489
1462 1535
1462 1561
1462 1580
1462 1624
1462 1801
1462 1838
1462 1863
1462 2008
1462 2016
1462 2121
1462 2187
1462 2207
1463 1476
1463 1506
1463 1628
1463 1692
1463 1746
1463 1770
1463 1798
1463 1823
1463 1839
1463 1945
1463 1998
1463 2027
1463 2043
1463 2094
1463 2105
1463 2159
1463 2212
1464 1503
1464 1507
1464 1529
1464 1534
1464 1554
1464 1568
1464 1571
1464 1583
1464 1596
1464 1598
1464 1606
1464 1612
1464 1635
1464 1664
1464 1667
1464 1674
1464 1676
1464 1702
1464 1708
1464 1713
1464 1724
1464 1757
1464 1778
1464 1783
1464 1799
1464 1816
1464 1844
1464 1900
1464 1903
1464 1916
1464 1918
1464 1977
1464 2028
1464 2033
1464 2039
1464 2062
1464 2091
1464 2100
1464 2121
1464 2164
1464 2184
1464 2190
1464 2194
1464 2206
1465 1470
1465 1480
1465 1486
1465 1487
1465 1538
1465 1558
1465 1570
1465 1661
1465 1662
1465 1670
1465 1674
1465 1690
1465 1697
1465 1705
1465 1779
1465 1813
1465 1818
1465 1830
1465 1854
1465 1867
1465 1872
1465 1915
1465 1935
1465 1957
1465 1972
1465 1977
1465 2014
1465 2043
1465 2054
1465 2107
1465 2111
1465 2116
1465 2150
1465 2163
1465 2221
1466 1476
1466 1527
1466 1557
1466 1562
1466 1662
1466 1684
1466 1748
1466 1828
1466 1842
1466 1866
1466 1926
1466 2000
1466 2066
1466 2096
1466 2160
1466 2169
1466 2203
1467 1523
1467 1662
1467 1779
1467 1938
1467 1971
1467 1977
1467 2014
1467 2034
1467 2113
1467 2144
1468 1683
1468 1722
1468 1787
1468 1817
1468 1917
1468 1960
1468 2004
1468 2213
1469 1524
1469 1535
1469 1578
1469 1639
1469 1646
1469 1658
1469 1699
1469 1724
1469 1785
1469 1804
1469 1852
1469 1875
1469 1900
1469 2026
1469 2091
1469 2133
1469 2145
1470 1489
1470 1499
1470 1509
1470 1519
1470 1538
1470 1560
1470 1570
1470 1598
1470 1615
1470 1620
1470 1622
1470 1669
1470 1684
1470 1707
1470 1726
1470 1762
1470 1771
1470 1795
1470 1796
1470 1805
1470 1812
1470 1820
1470 1883
1470 1935
1470 1938
1470 1943
1470 1967
1470 1972
1470 1994
1470 1997
1470 2035
1470 2059
1470 2144
1470 2164
1470 2188
1470 2197
1470 2218
1470 2226
1470 2227
1470 2228
1471 1705
1471 1843
1471 1939
1472 1530
1472 1535
1472 1559
1472 1589
1472 1639
1472 1668
1472 1997
1472 2029
1472 2062
1472 2092
1472 2184
1472 2204
1473 1474
1473 1475
1473 1494
1473 1495
1473 1500
1473 1612
1473 1664
1473 1724
1473 1760
1473 1768
1473 1874
1473 1887
1473 1900
1473 2100
1473 2210
1474 1481
1474 1495
1474 1496
1474 1500
1474 1534
1474 1544
1474 1552
1474 1556
1474 1565
1474 1574
1474 1598
1474 1606
1474 1612
1474 1636
1474 1637
1474 1699
1474 1718
1474 1724
1474 1733
1474 1749
1474 1797
1474 1813
1474 1826
1474 1848
1474 1879
1474 1884
1474 1900
1474 1918
1474 2033
1474 2049
1474 2062
1474 2138
1474 2194
1474 2204
1474 2210
1474 2228
1475 1498
1475 1507
1475 1525
1475 1529
1475 1539
1475 1554
1475 1558
1475 1563
1475 1595
1475 1598
1475 1602
1475 1604
1475 1606
1475 1612
1475 1629
1475 1635
1475 1640
1475 1658
1475 1667
1475 1696
1475 1708
1475 1717
1475 1721
1475 1749
1475 1757
1475 1778
1475 1783
1475 1785
1475 1789
1475 1799
1475 1807
1475 1829
1475 1851
1475 1868
1475 1887
1475 1895
1475 1903
1475 1906
1475 1912
1475 1918
1475 1921
1475 1928
1475 1989
1475 1993
1475 1997
1475 2012
1475 2018
1475 2024
1475 2026
1475 2033
1475 2046
1475 2068
1475 2081
1475 2100
1475 2102
1475 2118
1475 2120
1475 2132
1475 2139
1475 2163
1475 2190
1475 2194
1475 2196
1475 2204
1475 2209
1475 2232
1476 1527
1476 1528
1476 1557
1476 1616
1476 1620
1476 1722
1476 1729
1476 1770
1476 1845
1476 1866
1476 1910
1476 1933
1476 1954
1476 1959
1476 1960
1476 2000
1476 2027
1476 2096
1476 2105
1476 2114
1476 2134
1476 2169
1476 2183
1476 2203
1477 1508
1477 1552
1477 1606
1477 1670
1477 1805
1477 1808
1477 1854
1477 1861
1477 1947
1477 1949
1479 1544
1479 1605
1479 1668
1479 1682
1479 1767
1479 1795
1479 1863
1479 1894
1479 1899
1479 1994
1479 2010
1479 2133
1479 2144
1479 2149
1479 2187
1479 2202
1480 1508
1480 1531
1480 1567
1480 1570
1480 1667
1480 1674
1480 1725
1480 1777
1480 1779
1480 1854
1480 1857
1480 1861
1480 1940
1480 2019
1480 2088
1480 2116
1480 2117
1480 2120
1480 2125
1481 1495
1481 1500
1481 1564
1481 1565
1481 1599
1481 1606
1481 1702
1481 1717
1481 1734
1481 1738
1481 1794
1481 1806
1481 1838
1481 1879
1481 1884
1481 2133
1481 2149
1481 2204
1482 1574
1482 1585
1482 1602
1482 1713
1482 1731
1482 1813
1482 2042
1482 2049
1482 2109
1482 2112
1482 2165
1482 2232
1483 1664
1483 1676
1483 1702
1483 1707
1483 1760
1483 1771
1483 1806
1483 1816
1483 1970
1483 2028
1483 2031
1483 2056
1483 2070
1483 2089
1483 2092
1484 1599
1484 1644
1484 1713
1484 1716
1484 1804
1484 1904
1484 1955
1484 1993
1484 2054
1484 2127
1484 2156
1485 1699
1485 1717
1485 1745
1485 1865
1485 1929
1485 2196
1486 1487
1486 1508
1486 1517
1486 1552
1486 1567
1486 1605
1486 1631
1486 1662
1486 1674
1486 1675
1486 1698
1486 1712
1486 1854
1486 1861
1486 1879
1486 1930
1486 1949
1486 1966
1486 1967
1486 1974
1486 1982
1486 2087
1486 2116
1487 1490
1487 1493
1487 1531
1487 1538
1487 1609
1487 1653
1487 1662
1487 1663
1487 1675
1487 1677
1487 1714
1487 1750
1487 1784
1487 1805
1487 1808
1487 1849
1487 1857
1487 1861
1487 1862
1487 1867
1487 1880
1487 1885
1487 1936
1487 1939
1487 1948
1487 1949
1487 1964
1487 2054
1487 2087
1487 2131
1487 2148
1487 2164
1487 2181
1487 2215
1487 2221
1488 1586
1488 1593
1488 1604
1488 1741
1488 1834
1488 1984
1488 2077
1489 1500
1489 1530
1489 1534
1489 1536
1489 1544
1489 1561
1489 1564
1489 1580
1489 1596
1489 1602
1489 1605
1489 1606
1489 1615
1489 1622
1489 1639
1489 1671
1489 1717
1489 1794
1489 1801
1489 1805
1489 1806
1489 1822
1489 1872
1489 1879
1489 1886
1489 1907
1489 1930
1489 1931
1489 1934
1489 1935
1489 1940
1489 1943
1489 1951
1489 1965
1489 1967
1489 1970
1489 1974
1489 1986
1489 1988
1489 1997
1489 2010
1489 2044
1489 2045
1489 2047
1489 2055
1489 2059
1489 2060
1489 2070
1489 2073
1489 2093
1489 2125
1489 2127
1489 2129
1489 2133
1489 2138
1489 2154
1489 2207
1489 2218
1490 1507
1490 1541
1490 1549
1490 1581
1490 1588
1490 1615
1490 1623
1490 1637
1490 1638
1490 1646
1490 1658
1490 1662
1490 1667
1490 1696
1490 1702
1490 1717
1490 1725
1490 1726
1490 1753
1490 1780
1490 1792
1490 1804
1490 1823
1490 1841
1490 1849
1490 1876
1490 1898
1490 1905
1490 1907
1490 1918
1490 1928
1490 1929
1490 1936
1490 1939
1490 1948
1490 1953
1490 1964
1490 1972
1490 2007
1490 2029
1490 2033
1490 2045
1490 2049
1490 2074
1490 2098
1490 2103
1490 2104
1490 2107
1490 2111
1490 2116
1490 2118
1490 2132
1490 2145
1490 2174
1490 2181
1491 1514
1491 1541
1491 1558
1491 1559
1491 1570
1491 1588
1491 1622
1491 1626
1491 1667
1491 1682
1491 1854
1491 1880
1491 1885
1491 1896
1491 1900
1491 1928
1491 1940
1491 1949
1491 1957
1491 1972
1491 1983
1491 2007
1491 2024
1491 2111
1491 2120
1491 2162
1491 2164
1491 2168
1491 2196
1492 1498
1492 1534
1492 1591
1492 1602
1492 1606
1492 1644
1492 1694
1492 1702
1492 1713
1492 1721
1492 1792
1492 1804
1492 1872
1492 1896
1492 1899
1492 1904
1492 2025
1492 2028
1492 2045
1492 2127
1492 2142
1492 2194
1492 2204
1492 2206
1492 2226
1492 2232
1493 1509
1493 1517
1493 1558
1493 1567
1493 1570
1493 1580
1493 1609
1493 1663
1493 1712
1493 1750
1493 1805
1493 1811
1493 1820
1493 1831
1493 1841
1493 1861
1493 1867
1493 1880
1493 1885
1493 1894
1493 1896
1493 1928
1493 1930
1493 1935
1493 1938
1493 1948
1493 1957
1493 1967
1493 2024
1493 2054
1493 2086
1493 2087
1493 2111
1493 2116
1493 2164
1493 2186
1493 2188
1493 2215
1493 2228
1494 1510
1494 1539
1494 1556
1494 1574
1494 1576
1494 1585
1494 1588
1494 1590
1494 1602
1494 1611
1494 1661
1494 1664
1494 1673
1494 1717
1494 1760
1494 1789
1494 1824
1494 1834
1494 1874
1494 1879
1494 2016
1494 2028
1494 2068
1494 2075
1494 2165
1494 2190
1494 2217
1495 1500
1495 1565
1495 1636
1495 1806
1495 2033
1495 2039
1495 2086
1495 2138
1495 2149
1496 1556
1496 1624
1496 1646
1496 1967
1496 2154
1496 2197
1496 2199
1496 2228
1497 1646
1497 1769
1497 1823
1497 1904
1498 1530
1498 1556
1498 1571
1498 1578
1498 1602
1498 1626
1498 1635
1498 1641
1498 1688
1498 1699
1498 1717
1498 1724
1498 1745
1498 1763
1498 1804
1498 1807
1498 1810
1498 1869
1498 1900
1498 1903
1498 1904
1498 1940
1498 1976
1498 2010
1498 2026
1498 2028
1498 2045
1498 2089
1498 2136
1498 2149
1498 2156
1498 2165
1498 2182
1498 2202
1498 2208
1498 2220
1499 1504
1499 1506
1499 1541
1499 1555
1499 1556
1499 1581
1499 1595
1499 1599
1499 1602
1499 1604
1499 1612
1499 1646
1499 1656
1499 1688
1499 1699
1499 1702
1499 1721
1499 1724
1499 1754
1499 1763
1499 1791
1499 1820
1499 1831
1499 1901
1499 1927
1499 1970
1499 1997
1499 2000
1499 2016
1499 2036
1499 2045
1499 2056
1499 2084
1499 2089
1499 2100
1499 2121
1499 2129
1499 2139
1499 2141
1499 2182
1499 2189
1499 2208
1499 2220
1500 1530
1500 1565
1500 1588
1500 1664
1500 1689
1500 1760
1500 1852
1500 1874
1500 1887
1500 1910
1500 1921
1500 1965
1500 2002
1500 2062
1500 2108
1500 2230
1501 1505
1501 1515
1501 1546
1501 1620
1501 1638
1501 1742
1501 1770
1501 1812
1501 1908
1501 1958
1501 1960
1501 1962
1501 2027
1501 2031
1501 2096
1501 2157
1501 2169
1501 2183
1501 2213
1502 1536
1502 1559
1502 1564
1502 1615
1502 1639
1502 1744
1502 1758
1502 1796
1502 1801
1502 1805
1502 1870
1502 1886
1502 1935
1502 2076
1502 2164
1502 2188
1502 2206
1502 2227
1503 1637
1503 1674
1503 1779
1503 1918
1503 1928
1503 2054
1503 2064
1503 2113
1504 1534
1504 1556
1504 1557
1504 1561
1504 1595
1504 1599
1504 1602
1504 1611
1504 1622
1504 1629
1504 1656
1504 1688
1504 1731
1504 1901
1504 1944
1504 1951
1504 1978
1504 1996
1504 1997
1504 2107
1504 2141
1504 2145
1504 2208
1504 2220
1505 1638
1505 1786
1505 1828
1505 1866
1505 1908
1505 1962
1505 2009
1505 2097
1505 2130
1505 2155
1505 2183
1506 1507
1506 1512
1506 1513
1506 1538
1506 1572
1506 1575
1506 1591
1506 1599
1506 1611
1506 1612
1506 1623
1506 1626
1506 1628
1506 1638
1506 1646
1506 1650
1506 1653
1506 1664
1506 1666
1506 1667
1506 1672
1506 1676
1506 1690
1506 1694
1506 1714
1506 1717
1506 1780
1506 1788
1506 1799
1506 1819
1506 1822
1506 1849
1506 1860
1506 1865
1506 1890
1506 1893
1506 1918
1506 1929
1506 1953
1506 1994
1506 2037
1506 2045
1506 2074
1506 2103
1506 2118
1506 2132
1506 2148
1506 2158
1506 2174
1506 2181
1506 2204
1506 2207
1506 2228
1507 1591
1507 1612
1507 1619
1507 1635
1507 1646
1507 1663
1507 1667
1507 1676
1507 1699
1507 1702
1507 1717
1507 1721
1507 1735
1507 1750
1507 1759
1507 1760
1507 1779
1507 1785
1507 1844
1507 1846
1507 1849
1507 1875
1507 1887
1507 1900
1507 1903
1507 1914
1507 1918
1507 1922
1507 1929
1507 1942
1507 1972
1507 1997
1507 2026
1507 2033
1507 2045
1507 2091
1507 2100
1507 2148
1507 2150
1507 2158
1507 2168
1507 2230
1508 1525
1508 1531
1508 1631
1508 1674
1508 1675
1508 1677
1508 1777
1508 1824
1508 1854
1508 1880
1508 1885
1508 2088
1508 2116
1508 2162
1509 1536
1509 1621
1509 1762
1509 1820
1509 1854
1509 1867
1509 1915
1509 1936
1509 1943
1509 1974
1509 1983
1509 1988
1509 2072
1509 2075
1509 2116
1509 2131
1509 2164
1509 2188
1509 2216
1510 1717
1510 1815
1510 1824
1510 1834
1510 1912
1511 1636
1511 1641
1511 1650
1511 1999
1511 2197
1512 1523
1512 1617
1512 1630
1512 1638
1512 1666
1512 1745
1512 1753
1512 1844
1512 1890
1512 1918
1512 1929
1512 1970
1512 1994
1512 1997
1512 2033
1512 2049
1512 2132
1512 2140
1512 2204
1513 1536
1513 1615
1513 1624
1513 1639
1513 1673
1513 1699
1513 1796
1513 1844
1513 1860
1513 1865
1513 1898
1513 1911
1513 1931
1513 1951
1513 1970
1513 2013
1513 2061
1513 2206
1514 1529
1514 1543
1514 1544
1514 1554
1514 1565
1514 1574
1514 1578
1514 1585
1514 1593
1514 1598
1514 1600
1514 1604
1514 1609
1514 1612
1514 1652
1514 1661
1514 1685
1514 1691
1514 1694
1514 1701
1514 1713
1514 1724
1514 1802
1514 1816
1514 1827
1514 1831
1514 1834
1514 1884
1514 1900
1514 1901
1514 1912
1514 2016
1514 2018
1514 2021
1514 2056
1514 2091
1514 2112
1514 2118
1514 2121
1514 2154
1514 2168
1514 2217
1514 2229
1515 1557
1515 1620
1515 1729
1515 1762
1515 2004
1515 2027
1515 2152
1515 2200
1516 1537
1516 1587
1516 1711
1516 1727
1516 1808
1516 1857
1516 1921
1516 1982
1516 2042
1516 2075
1516 2101
1516 2139
1516 2223
1517 1795
1517 1930
1517 1935
1517 1974
1517 1994
1517 2215
1518 1578
1518 1582
1518 1602
1518 1667
1518 1717
1518 1733
1518 1759
1518 1781
1518 1799
1518 1800
1518 1819
1518 1855
1518 1856
1518 1862
1518 1872
1518 1906
1518 2025
1518 2038
1518 2075
1518 2100
1518 2108
1518 2139
1518 2145
1518 2161
1518 2163
1518 2164
1518 2173
1518 2184
1518 2185
1518 2193
1518 2208
1518 2209
1518 2226
1519 1536
1519 1615
1519 1622
1519 1646
1519 1682
1519 1726
1519 1805
1519 1931
1519 1943
1519 2013
1519 2096
1519 2104
1519 2206
1520 1529
1520 1704
1520 1912
1520 1993
1520 2126
1520 2190
1521 1527
1521 1572
1521 1575
1521 1702
1521 1729
1521 1734
1521 1770
1521 1798
1521 1894
1521 1991
1521 1994
1521 2000
1521 2203
1522 2024
1523 1539
1523 1541
1523 1578
1523 1600
1523 1626
1523 1630
1523 1662
1523 1665
1523 1690
1523 1725
1523 1792
1523 1799
1523 1819
1523 1829
1523 1843
1523 1844
1523 1872
1523 1896
1523 1903
1523 1916
1523 1922
1523 1989
1523 2010
1523 2034
1523 2112
1523 2113
1523 2120
1523 2135
1523 2168
1523 2184
1523 2193
1523 2209
1523 2223
1524 1535
1524 1626
1524 1679
1524 1699
1524 1713
1524 1731
1524 1733
1524 1735
1524 1745
1524 1757
1524 1826
1524 1827
1524 1860
1524 1892
1524 1901
1524 1906
1524 1916
1524 1920
1524 1969
1524 1976
1524 1997
1524 2014
1524 2018
1524 2033
1524 2041
1524 2043
1524 2061
1524 2084
1524 2091
1524 2103
1524 2122
1524 2145
1524 2206
1524 2214
1524 2226
1524 2231
1524 2232
1525 1531
1525 1571
1525 1578
1525 1612
1525 1680
1525 1694
1525 1804
1525 1824
1525 1912
1525 1993
1525 2033
1525 2109
1525 2162
1525 2217
1526 1664
1526 1816
1526 1874
1526 1887
1526 2091
1526 2210
1527 1536
1527 1557
1527 1628
1527 1642
1527 1699
1527 1828
1527 1868
1527 1910
1527 1943
1527 1962
1527 1963
1527 2000
1527 2068
1527 2082
1527 2159
1528 1562
1528 1608
1528 1628
1528 1646
1528 1651
1528 1845
1528 1866
1528 1925
1528 2105
1529 1542
1529 1551
1529 1571
1529 1576
1529 1578
1529 1586
1529 1604
1529 1612
1529 1629
1529 1634
1529 1658
1529 1659
1529 1704
1529 1710
1529 1717
1529 1739
1529 1741
1529 1789
1529 1800
1529 1833
1529 1990
1529 1993
1529 2038
1529 2039
1529 2046
1529 2052
1529 2081
1529 2118
1529 2121
1529 2137
1529 2167
1529 2184
1529 2189
1529 2190
1529 2196
1529 2209
1529 2211
1529 2214
1529 2222
1529 2226
1529 2230
1529 2232
1530 1556
1530 1647
1530 1665
1530 1676
1530 1677
1530 1768
1530 1928
1530 2001
1530 2029
1530 2062
1530 2089
1530 2092
1530 2154
1530 2192
1530 2220
1530 2226
1531 1677
1531 1784
1531 1854
1531 1867
1531 1880
1531 1885
1531 1947
1531 1949
1531 1976
1531 2116
1531 2162
1532 1578
1532 1680
1532 1702
1532 1717
1532 1869
1532 1912
1532 1924
1532 1928
1532 1993
1532 1999
1532 2005
1532 2049
1533 1634
1533 1659
1533 1753
1533 1921
1534 1544
1534 1556
1534 1571
1534 1600
1534 1605
1534 1611
1534 1612
1534 1638
1534 1644
1534 1646
1534 1668
1534 1682
1534 1685
1534 1687
1534 1696
1534 1699
1534 1713
1534 1738
1534 1754
1534 1776
1534 1797
1534 1799
1534 1804
1534 1849
1534 1871
1534 1898
1534 1904
1534 1934
1534 1935
1534 1955
1534 1993
1534 1994
1534 1997
1534 1999
1534 2016
1534 2028
1534 2054
1534 2066
1534 2121
1534 2138
1534 2139
1534 2184
1534 2194
1534 2196
1534 2206
1534 2217
1534 2227
1534 2229
1535 1626
1535 1639
1535 1682
1535 1699
1535 1701
1535 1724
1535 1735
1535 1750
1535 1900
1535 1920
1535 1943
1535 1944
1535 1997
1535 1999
1535 2062
1535 2093
1535 2099
1535 2145
1535 2180
1535 2189
1536 1570
1536 1615
1536 1626
1536 1639
1536 1673
1536 1682
1536 1699
1536 1734
1536 1745
1536 1795
1536 1796
1536 1801
1536 1820
1536 1841
1536 1865
1536 1868
1536 1870
1536 1898
1536 1904
1536 1905
1536 1931
1536 1935
1536 1943
1536 1951
1536 1955
1536 1957
1536 1960
1536 1965
1536 1972
1536 1976
1536 1981
1536 1994
1536 2010
1536 2011
1536 2054
1536 2059
1536 2076
1536 2093
1536 2098
1536 2107
1536 2138
1536 2161
1536 2181
1536 2206
1536 2228
1537 1556
1537 1590
1537 1711
1537 1773
1537 2090
1537 2139
1538 1540
1538 1582
1538 1588
1538 1594
1538 1638
1538 1644
1538 1654
1538 1662
1538 1675
1538 1699
1538 1702
1538 1719
1538 1726
1538 1745
1538 1762
1538 1776
1538 1841
1538 1876
1538 1928
1538 1936
1538 1938
1538 1939
1538 1948
1538 1957
1538 1964
1538 1967
1538 1994
1538 2007
1538 2023
1538 2034
1538 2049
1538 2064
1538 2096
1538 2104
1538 2107
1538 2158
1538 2164
1538 2181
1538 2188
1538 2206
1538 2218
1539 1638
1539 1645
1539 1665
1539 1701
1539 1733
1539 1819
1539 1843
1539 1855
1539 1900
1539 1922
1539 2010
1539 2018
1539 2028
1539 2119
1539 2120
1539 2121
1539 2139
1539 2173
1539 2184
1539 2190
1539 2209
1539 2217
1540 1549
1540 1621
1540 1662
1540 1669
1540 1684
1540 1726
1540 1780
1540 1797
1540 1813
1540 1852
1540 1879
1540 1965
1540 1981
1540 1983
1540 2103
1540 2127
1540 2150
1540 2152
1540 2164
1540 2191
1541 1556
1541 1576
1541 1577
1541 1582
1541 1599
1541 1600
1541 1602
1541 1613
1541 1622
1541 1623
1541 1629
1541 1630
1541 1641
1541 1653
1541 1667
1541 1690
1541 1721
1541 1725
1541 1743
1541 1754
1541 1784
1541 1807
1541 1819
1541 1822
1541 1823
1541 1896
1541 1898
1541 1907
1541 1916
1541 1929
1541 1940
1541 2010
1541 2064
1541 2084
1541 2089
1541 2112
1541 2129
1541 2194
1541 2208
1541 2220
1542 1843
1542 1984
1542 2003
1542 2189
1542 2190
1543 1724
1543 1781
1543 1874
1543 1877
1543 2039
1543 2071
1543 2231
1544 1556
1544 1560
1544 1565
1544 1604
1544 1606
1544 1612
1544 1661
1544 1679
1544 1696
1544 1699
1544 1717
1544 1721
1544 1724
1544 1754
1544 1781
1544 1792
1544 1793
1544 1832
1544 1834
1544 1896
1544 1901
1544 1903
1544 1907
1544 1927
1544 1978
1544 1997
1544 1999
1544 2016
1544 2018
1544 2045
1544 2080
1544 2089
1544 2098
1544 2139
1544 2148
1544 2189
1544 2208
1545 1998
1546 1647
1546 1770
1546 1845
1546 1865
1546 1866
1546 2000
1546 2009
1546 2096
1547 1566
1547 1733
1547 1737
1547 1855
1547 1872
1547 2038
1547 2049
1547 2164
1547 2173
1547 2185
1547 2209
1548 1557
1548 1616
1548 1678
1548 1761
1548 1766
1548 1770
1548 1828
1548 1883
1548 2048
1548 2094
1548 2105
1548 2159
1548 2203
1548 2234
1549 1591
1549 1620
1549 1621
1549 1662
1549 1690
1549 1702
1549 1896
1549 1965
1549 1977
1549 1988
1549 2045
1549 2131
1549 2150
1549 2152
1549 2164
1549 2168
1550 1843
1552 1677
1552 1784
1552 1808
1552 1813
1552 1843
1552 1854
1552 1935
1552 1949
1552 1988
1552 2054
1552 2087
1552 2088
1552 2164
1552 2165
1552 2215
1553 1679
1553 1699
1553 1725
1553 1785
1553 1815
1553 1826
1553 1900
1553 1996
1553 1997
1553 2164
1554 1606
1554 1610
1554 1622
1554 1680
1554 1699
1554 1701
1554 1717
1554 1760
1554 1764
1554 1799
1554 1804
1554 1815
1554 1819
1554 1869
1554 1875
1554 1912
1554 2033
1554 2049
1554 2075
1554 2091
1554 2102
1554 2196
1554 2209
1554 2223
1555 1578
1555 1637
1555 1679
1555 1693
1555 1713
1555 1855
1555 2141
1556 1564
1556 1579
1556 1596
1556 1599
1556 1602
1556 1613
1556 1641
1556 1690
1556 1702
1556 1756
1556 1810
1556 1874
1556 1896
1556 1904
1556 1961
1556 1999
1556 2007
1556 2045
1556 2122
1556 2145
1556 2165
1556 2175
1556 2182
1556 2217
1556 2220
1557 1585
1557 1614
1557 1615
1557 1620
1557 1628
1557 1633
1557 1651
1557 1729
1557 1748
1557 1766
1557 1770
1557 1806
1557 1846
1557 1849
1557 1908
1557 1926
1557 1933
1557 1945
1557 1959
1557 2027
1557 2040
1557 2048
1557 2065
1557 2066
1557 2105
1557 2130
1557 2159
1557 2160
1557 2183
1557 2224
1557 2228
1558 1609
1558 1626
1558 1646
1558 1658
1558 1663
1558 1667
1558 1697
1558 1726
1558 1735
1558 1750
1558 1765
1558 1808
1558 1843
1558 1861
1558 1896
1558 1900
1558 1921
1558 1928
1558 1938
1558 1947
1558 1972
1558 1983
1558 2007
1558 2053
1558 2096
1558 2101
1558 2107
1558 2111
1558 2116
1558 2168
1559 1569
1559 1588
1559 1605
1559 1615
1559 1633
1559 1668
1559 1682
1559 1763
1559 1771
1559 1830
1559 1838
1559 1841
1559 1883
1559 1931
1559 1943
1559 1974
1559 1977
1559 1994
1559 2008
1559 2016
1559 2143
1559 2152
1559 2158
1559 2218
1560 1561
1560 1604
1560 1668
1560 1671
1560 1732
1560 1738
1560 1746
1560 1758
1560 1801
1560 1875
1560 1894
1560 1919
1560 1931
1560 1934
1560 1986
1560 1997
1560 2008
1560 2010
1560 2035
1560 2044
1560 2055
1560 2073
1560 2092
1560 2125
1560 2149
1560 2164
1560 2189
1560 2197
1561 1624
1561 1642
1561 1682
1561 1744
1561 1758
1561 1763
1561 1795
1561 1801
1561 1809
1561 1838
1561 1860
1561 1934
1561 1937
1561 1967
1561 1970
1561 2010
1561 2016
1561 2056
1561 2070
1561 2121
1561 2125
1561 2138
1561 2207
1561 2227
1562 1828
1563 1568
1563 1604
1563 1618
1563 1619
1563 1627
1563 1646
1563 1688
1563 1900
1563 1914
1563 1944
1563 1997
1563 2021
1563 2091
1563 2112
1564 1582
1564 1606
1564 1622
1564 1641
1564 1650
1564 1653
1564 1671
1564 1717
1564 1734
1564 1738
1564 1743
1564 1745
1564 1758
1564 1762
1564 1805
1564 1810
1564 1823
1564 1860
1564 1865
1564 1899
1564 1929
1564 1957
1564 2001
1564 2047
1564 2076
1564 2084
1564 2158
1564 2179
1564 2181
1564 2199
1564 2204
1564 2228
1565 1611
1565 1612
1565 1638
1565 1717
1565 1734
1565 1760
1565 1763
1565 1864
1565 1869
1565 1879
1565 1900
1565 2033
1565 2039
1565 2044
1565 2056
1565 2089
1565 2102
1565 2138
1565 2149
1565 2208
1565 2229
1566 1596
1566 1713
1566 1733
1566 1737
1566 1749
1566 1759
1566 1848
1566 1888
1566 1892
1566 1904
1566 1906
1566 1922
1566 1923
1566 2041
1566 2095
1566 2142
1566 2145
1566 2223
1566 2231
1567 1631
1567 1674
1567 1677
1567 1712
1567 1820
1567 1861
1567 1966
1567 1974
1567 1982
1567 2087
1567 2165
1567 2215
1568 1583
1568 1585
1568 1598
1568 1606
1568 1610
1568 1640
1568 1687
1568 1709
1568 1757
1568 1781
1568 1819
1568 1826
1568 1831
1568 1875
1568 1916
1568 1969
1568 1989
1568 1993
1568 2091
1568 2098
1568 2103
1568 2168
1568 2204
1568 2207
1569 1639
1569 1771
1569 1883
1569 1939
1569 1943
1569 1994
1569 2056
1569 2218
1569 2221
1570 1607
1570 1622
1570 1639
1570 1646
1570 1682
1570 1707
1570 1714
1570 1796
1570 1860
1570 1943
1570 1972
1570 1994
1570 2007
1570 2024
1570 2125
1570 2158
1570 2207
1571 1606
1571 1610
1571 1626
1571 1659
1571 1667
1571 1680
1571 1695
1571 1702
1571 1704
1571 1717
1571 1727
1571 1737
1571 1739
1571 1760
1571 1778
1571 1804
1571 1819
1571 1869
1571 1875
1571 1903
1571 1912
1571 1929
1571 1942
1571 1976
1571 1993
1571 2026
1571 2028
1571 2033
1571 2039
1571 2081
1571 2088
1571 2100
1571 2102
1571 2109
1571 2118
1571 2126
1571 2132
1571 2162
1571 2177
1571 2190
1571 2209
1571 2232
1572 1575
1572 1628
1572 1720
1572 1722
1572 1770
1572 1985
1572 2030
1573 1746
1573 2009
1574 1578
1574 1600
1574 1602
1574 1760
1574 1819
1574 1831
1574 1834
1574 1875
1574 1887
1574 1900
1574 2033
1574 2184
1574 2204
1575 1678
1575 1692
1575 1817
1575 1828
1575 1846
1575 1925
1575 1926
1575 1959
1575 1985
1575 1991
1575 2027
1575 2036
1575 2069
1575 2212
1576 1583
1576 1590
1576 1598
1576 1661
1576 1667
1576 1834
1576 1869
1576 1920
1576 1987
1576 1993
1576 2016
1576 2098
1576 2099
1576 2121
1576 2136
1576 2139
1576 2184
1576 2189
1576 2190
1576 2220
1577 1602
1577 1804
1577 1848
1577 2099
1577 2107
1577 2112
1578 1581
1578 1602
1578 1606
1578 1610
1578 1611
1578 1629
1578 1680
1578 1699
1578 1701
1578 1713
1578 1717
1578 1724
1578 1739
1578 1749
1578 1775
1578 1776
1578 1779
1578 1803
1578 1804
1578 1819
1578 1824
1578 1843
1578 1872
1578 1875
1578 1912
1578 1922
1578 1923
1578 1929
1578 1944
1578 1947
1578 1971
1578 1976
1578 1993
1578 2005
1578 2007
1578 2018
1578 2033
1578 2038
1578 2049
1578 2075
1578 2078
1578 2079
1578 2081
1578 2086
1578 2088
1578 2099
1578 2103
1578 2119
1578 2120
1578 2121
1578 2132
1578 2162
1578 2165
1578 2171
1578 2173
1578 2204
1578 2220
1578 2226
1579 1594
1579 1654
1579 1826
1579 1851
1579 1920
1579 1936
1579 2028
1579 2127
1579 2217
1580 1604
1580 1624
1580 1801
1580 1805
1580 1838
1580 1863
1580 1943
1580 2016
1580 2064
1580 2121
1580 2125
1580 2207
1580 2215
1580 2227
1580 2228
1581 1602
1581 1610
1581 1629
1581 1635
1581 1638
1581 1650
1581 1699
1581 1731
1581 1737
1581 1797
1581 1807
1581 1898
1581 1903
1581 1905
1581 1940
1581 1996
1581 1997
1581 1999
1581 2018
1581 2025
1581 2028
1581 2045
1581 2089
1581 2098
1581 2136
1581 2149
1581 2156
1581 2165
1581 2171
1581 2189
1581 2194
1581 2202
1581 2208
1581 2217
1581 2220
1582 1591
1582 1623
1582 1670
1582 1679
1582 1690
1582 1743
1582 1849
1582 1865
1582 1905
1582 1907
1582 1918
1582 1920
1582 1929
1582 1972
1582 1977
1582 2007
1582 2045
1582 2049
1582 2064
1582 2150
1582 2181
1582 2208
1583 1606
1583 1661
1583 1700
1583 1706
1583 1710
1583 1765
1583 1831
1583 1843
1583 1855
1583 1857
1583 1881
1583 1916
1583 1921
1583 2098
1583 2145
1583 2168
1583 2189
1584 1679
1584 1713
1584 1804
1584 1849
1584 1955
1584 2054
1584 2084
1585 1598
1585 1606
1585 1664
1585 1699
1585 1713
1585 1721
1585 1783
1585 1802
1585 1819
1585 1831
1585 1844
1585 1852
1585 1887
1585 1961
1585 2033
1585 2068
1585 2075
1585 2091
1585 2110
1585 2194
1585 2196
1585 2221
1586 1610
1586 2049
1586 2091
1586 2184
1586 2190
1587 1705
1587 1808
1587 1843
1587 1857
1587 2101
1587 2117
1587 2139
1588 1622
1588 1639
1588 1667
1588 1690
1588 1738
1588 1747
1588 1767
1588 1778
1588 1804
1588 1831
1588 1898
1588 1899
1588 1903
1588 1904
1588 1921
1588 1928
1588 1943
1588 2008
1588 2028
1588 2029
1588 2062
1588 2108
1588 2121
1589 1646
1589 1717
1589 1852
1589 2006
1589 2010
1590 1604
1590 1634
1590 1649
1590 1659
1590 1661
1590 1710
1590 1711
1590 1773
1590 1833
1590 1874
1590 1875
1590 1881
1590 1921
1590 2139
1590 2184
1590 2189
1590 2190
1590 2211
1590 2233
1591 1600
1591 1637
1591 1644
1591 1646
1591 1658
1591 1707
1591 1713
1591 1714
1591 1730
1591 1738
1591 1744
1591 1771
1591 1780
1591 1781
1591 1804
1591 1812
1591 1830
1591 1894
1591 1896
1591 1903
1591 1904
1591 1907
1591 1965
1591 1978
1591 1981
1591 1997
1591 2025
1591 2031
1591 2043
1591 2045
1591 2056
1591 2070
1591 2092
1591 2127
1591 2156
1591 2168
1591 2174
1591 2181
1591 2191
1591 2202
1591 2206
1591 2227
1592 1685
1592 1734
1592 1758
1592 1864
1592 1894
1592 2047
1594 1605
1594 1631
1594 1639
1594 1669
1594 1675
1594 1841
1594 1905
1594 1948
1594 2104
1594 2131
1594 2150
1594 2233
1595 1599
1595 1602
1595 1700
1595 1702
1595 1724
1595 1785
1595 1804
1595 1904
1595 2028
1595 2127
1595 2175
1596 1635
1596 1644
1596 1646
1596 1672
1596 1674
1596 1677
1596 1698
1596 1701
1596 1702
1596 1773
1596 1776
1596 1779
1596 1833
1596 1849
1596 1854
1596 1855
1596 1857
1596 1900
1596 1905
1596 1918
1596 1922
1596 1929
1596 1935
1596 1943
1596 1964
1596 1969
1596 1976
1596 1997
1596 2011
1596 2041
1596 2064
1596 2091
1596 2100
1596 2116
1596 2145
1596 2173
1596 2174
1596 2180
1596 2188
1598 1604
1598 1606
1598 1664
1598 1676
1598 1708
1598 1718
1598 1721
1598 1764
1598 1781
1598 1804
1598 1816
1598 1831
1598 1844
1598 1874
1598 1878
1598 1881
1598 1900
1598 1916
1598 1963
1598 2018
1598 2033
1598 2076
1598 2091
1598 2101
1598 2145
1598 2168
1598 2196
1598 2220
1599 1635
1599 1646
1599 1699
1599 1702
1599 1713
1599 1731
1599 1778
1599 1804
1599 1810
1599 1851
1599 1884
1599 1987
1599 2008
1599 2054
1599 2122
1599 2150
1599 2182
1599 2194
1599 2206
1599 2208
1599 2217
1599 2229
1600 1612
1600 1635
1600 1646
1600 1652
1600 1690
1600 1699
1600 1721
1600 1725
1600 1792
1600 1797
1600 1805
1600 1819
1600 1831
1600 1844
1600 1856
1600 1875
1600 1896
1600 1903
1600 1969
1600 1989
1600 1994
1600 2038
1600 2049
1600 2068
1600 2111
1600 2112
1600 2121
1600 2163
1600 2168
1601 1628
1601 1683
1601 1722
1601 1871
1601 2097
1601 2131
1601 2157
1602 1606
1602 1611
1602 1623
1602 1626
1602 1644
1602 1663
1602 1669
1602 1670
1602 1679
1602 1699
1602 1702
1602 1716
1602 1731
1602 1749
1602 1754
1602 1760
1602 1767
1602 1778
1602 1830
1602 1857
1602 1865
1602 1879
1602 1887
1602 1898
1602 1904
1602 1922
1602 1951
1602 1983
1602 1996
1602 1997
1602 2028
1602 2033
1602 2039
1602 2054
1602 2056
1602 2081
1602 2084
1602 2098
1602 2107
1602 2108
1602 2112
1602 2138
1602 2149
1602 2154
1602 2165
1602 2168
1602 2174
1602 2175
1602 2191
1602 2196
1602 2202
1602 2204
1602 2208
1602 2217
1602 2220
1603 1843
1603 1854
1603 1857
1603 2233
1604 1626
1604 1661
1604 1664
1604 1781
1604 1804
1604 1834
1604 1874
1604 1903
1604 2018
1604 2090
1604 2098
1604 2112
1604 2189
1604 2190
1604 2232
1605 1631
1605 1640
1605 1734
1605 1738
1605 1794
1605 1795
1605 1796
1605 1831
1605 1899
1605 1934
1605 1970
1605 1977
1605 1980
1605 1994
1605 2035
1605 2086
1605 2088
1605 2138
1605 2149
1605 2162
1605 2207
1605 2228
1606 1635
1606 1640
1606 1641
1606 1653
1606 1659
1606 1667
1606 1687
1606 1696
1606 1699
1606 1702
1606 1714
1606 1717
1606 1760
1606 1781
1606 1782
1606 1799
1606 1806
1606 1810
1606 1816
1606 1824
1606 1875
1606 1879
1606 1881
1606 1887
1606 1918
1606 1929
1606 1963
1606 1993
1606 2033
1606 2045
1606 2049
1606 2052
1606 2073
1606 2086
1606 2089
1606 2103
1606 2194
1606 2199
1606 2205
1606 2209
1606 2232
1607 1684
1607 1762
1607 1769
1607 1796
1607 1823
1607 1864
1607 1899
1607 1904
1607 1951
1607 1986
1607 2013
1607 2076
1607 2125
1607 2197
1607 2218
1607 2227
1607 2228
1608 1703
1608 1748
1608 1801
1608 1804
1608 1866
1608 1925
1608 1960
1608 2000
1608 2096
1609 1646
1609 1667
1609 1674
1609 1697
1609 1724
1609 1726
1609 1750
1609 1765
1609 1779
1609 1820
1609 1852
1609 1861
1609 1930
1609 1935
1609 1938
1609 1948
1609 1972
1609 1983
1609 2048
1609 2101
1609 2112
1609 2150
1609 2196
1610 1629
1610 1679
1610 1724
1610 1819
1610 1826
1610 1912
1610 1993
1610 2005
1610 2033
1610 2190
1610 2209
1611 1638
1611 1679
1611 1687
1611 1688
1611 1714
1611 1768
1611 1792
1611 1793
1611 1826
1611 1907
1611 1916
1611 1927
1611 1932
1611 1972
1611 1993
1611 1999
1611 2039
1611 2056
1611 2102
1611 2158
1611 2194
1611 2202
1611 2208
1611 2228
1611 2229
1612 1613
1612 1618
1612 1649
1612 1664
1612 1676
1612 1702
1612 1718
1612 1724
1612 1760
1612 1768
1612 1792
1612 1812
1612 1816
1612 1824
1612 1834
1612 1844
1612 1879
1612 1887
1612 1927
1612 1963
1612 1968
1612 1999
1612 2016
1612 2018
1612 2033
1612 2038
1612 2087
1612 2089
1612 2109
1612 2118
1612 2121
1612 2168
1613 1708
1613 1724
1613 1851
1613 1900
1613 1940
1613 1955
1613 2103
1613 2154
1613 2193
1613 2207
1613 2226
1613 2229
1614 2105
1614 2228
1615 1622
1615 1637
1615 1669
1615 1670
1615 1675
1615 1849
1615 1870
1615 1872
1615 1880
1615 1883
1615 1911
1615 1915
1615 1935
1615 1939
1615 1943
1615 1965
1615 1972
1615 1977
1615 2013
1615 2076
1615 2088
1615 2104
1615 2111
1615 2131
1615 2143
1615 2149
1615 2162
1615 2181
1615 2188
1615 2206
1615 2218
1615 2221
1616 1683
1616 1722
1616 1902
1616 2027
1616 2048
1616 2228
1617 1666
1617 1698
1617 1699
1617 1719
1617 1725
1617 1751
1617 1753
1617 1808
1617 1918
1617 1921
1617 1928
1617 1942
1617 1953
1617 2118
1617 2132
1617 2204
1617 2233
1618 1626
1618 1635
1618 1661
1618 1667
1618 1676
1618 1690
1618 1699
1618 1823
1618 1834
1618 1897
1618 1904
1618 1922
1618 1964
1618 1970
1618 2005
1618 2099
1618 2118
1618 2145
1619 1922
1619 2037
1619 2099
1619 2152
1620 1729
1620 1762
1620 1770
1620 1943
1620 1960
1620 1985
1620 2105
1620 2152
1620 2164
1620 2186
1621 1705
1621 1762
1621 1813
1621 1843
1621 1867
1621 2075
1622 1639
1622 1682
1622 1771
1622 1796
1622 1806
1622 1820
1622 1822
1622 1860
1622 1865
1622 1883
1622 1894
1622 1899
1622 1919
1622 1931
1622 1934
1622 1943
1622 1949
1622 1951
1622 1957
1622 1970
1622 1972
1622 1986
1622 1994
1622 2007
1622 2010
1622 2029
1622 2055
1622 2073
1622 2118
1622 2138
1622 2155
1622 2158
1622 2197
1622 2199
1622 2218
1622 2227
1622 2228
1623 1650
1623 1653
1623 1666
1623 1690
1623 1699
1623 1702
1623 1780
1623 1841
1623 1849
1623 1865
1623 1878
1623 1898
1623 1905
1623 1918
1623 1928
1623 1951
1623 1964
1623 1970
1623 1972
1623 2007
1623 2033
1623 2045
1623 2049
1623 2064
1623 2148
1623 2150
1623 2158
1623 2175
1623 2181
1623 2188
1623 2204
1624 1699
1624 1744
1624 1763
1624 1832
1624 1860
1624 1863
1624 1865
1624 1943
1624 1970
1624 1977
1624 1994
1624 2008
1624 2016
1624 2033
1624 2056
1624 2065
1624 2076
1624 2086
1624 2103
1624 2129
1624 2138
1624 2196
1625 1684
1626 1630
1626 1635
1626 1637
1626 1638
1626 1644
1626 1646
1626 1659
1626 1661
1626 1662
1626 1667
1626 1680
1626 1687
1626 1701
1626 1702
1626 1710
1626 1717
1626 1735
1626 1779
1626 1808
1626 1822
1626 1829
1626 1844
1626 1867
1626 1875
1626 1880
1626 1893
1626 1898
1626 1900
1626 1903
1626 1904
1626 1918
1626 1923
1626 1939
1626 1971
1626 1976
1626 1977
1626 1997
1626 2011
1626 2018
1626 2026
1626 2034
1626 2049
1626 2054
1626 2081
1626 2084
1626 2100
1626 2113
1626 2120
1626 2142
1626 2148
1626 2158
1626 2165
1626 2168
1626 2171
1626 2174
1626 2180
1626 2202
1626 2204
1626 2223
1627 1645
1627 1688
1627 1699
1627 1724
1627 1745
1627 1804
1627 1807
1627 1978
1627 2018
1627 2121
1628 1746
1628 1748
1628 1846
1628 1866
1628 1925
1628 1926
1628 1991
1628 2000
1628 2027
1628 2065
1628 2114
1628 2134
1628 2203
1628 2207
1629 1655
1629 1699
1629 1789
1629 1804
1629 1807
1629 1819
1629 1869
1629 1875
1629 1976
1629 1993
1629 2005
1629 2038
1629 2049
1629 2100
1629 2133
1629 2164
1629 2165
1629 2168
1629 2171
1629 2175
1629 2189
1629 2190
1629 2232
1630 1666
1630 1697
1630 1708
1630 1717
1630 1743
1630 1819
1630 1868
1630 1914
1630 1916
1630 1918
1630 1942
1630 1971
1630 1976
1630 1989
1630 2084
1631 1675
1631 1677
1631 1880
1631 1895
1631 1915
1631 1948
1631 2088
1631 2117
1631 2162
1631 2215
1632 1985
1633 1642
1633 1736
1633 1825
1633 1894
1633 1985
1633 2048
1633 2058
1633 2092
1633 2097
1633 2155
1633 2186
1633 2192
1634 1637
1634 1646
1634 1672
1634 1700
1634 1706
1634 1710
1634 1711
1634 1739
1634 1773
1634 1793
1634 1802
1634 1836
1634 1897
1634 1900
1634 1912
1634 1921
1634 2032
1634 2033
1634 2049
1634 2052
1634 2090
1634 2139
1634 2214
1634 2226
1634 2230
1634 2233
1635 1638
1635 1644
1635 1667
1635 1708
1635 1709
1635 1717
1635 1724
1635 1807
1635 1874
1635 1887
1635 1900
1635 1918
1635 1977
1635 1993
1635 2021
1635 2031
1635 2045
1635 2081
1635 2099
1635 2112
1635 2121
1635 2149
1635 2168
1635 2182
1635 2202
1635 2217
1636 1694
1636 1717
1636 1724
1636 1785
1636 1803
1636 1824
1636 1879
1636 1903
1636 1961
1636 1970
1636 2039
1636 2049
1636 2138
1636 2149
1636 2175
1636 2199
1636 2208
1637 1653
1637 1667
1637 1672
1637 1676
1637 1698
1637 1717
1637 1719
1637 1759
1637 1843
1637 1878
1637 1890
1637 1893
1637 1918
1637 1928
1637 1932
1637 1935
1637 1939
1637 1953
1637 1957
1637 1964
1637 1976
1637 1994
1637 2012
1637 2019
1637 2045
1637 2049
1637 2137
1637 2148
1637 2158
1637 2221
1638 1641
1638 1650
1638 1654
1638 1662
1638 1666
1638 1667
1638 1680
1638 1696
1638 1699
1638 1702
1638 1714
1638 1742
1638 1743
1638 1745
1638 1767
1638 1780
1638 1781
1638 1797
1638 1804
1638 1810
1638 1812
1638 1821
1638 1830
1638 1851
1638 1876
1638 1898
1638 1900
1638 1903
1638 1907
1638 1908
1638 1928
1638 1929
1638 1936
1638 1940
1638 1957
1638 1962
1638 1970
1638 1972
1638 1976
1638 1997
1638 1999
1638 2014
1638 2027
1638 2028
1638 2031
1638 2037
1638 2049
1638 2050
1638 2061
1638 2096
1638 2098
1638 2104
1638 2106
1638 2113
1638 2120
1638 2148
1638 2157
1638 2158
1638 2182
1638 2183
1638 2204
1638 2206
1638 2208
1638 2220
1639 1669
1639 1682
1639 1707
1639 1735
1639 1771
1639 1795
1639 1830
1639 1847
1639 1870
1639 1911
1639 1935
1639 1936
1639 1940
1639 1943
1639 1965
1639 1972
1639 1997
1639 2008
1639 2011
1639 2054
1639 2064
1639 2076
1639 2104
1639 2125
1639 2131
1639 2150
1639 2188
1639 2206
1639 2217
1639 2227
1639 2228
1640 1673
1640 1682
1640 1717
1640 1738
1640 1806
1640 1814
1640 1831
1640 1838
1640 1851
1640 1899
1640 1918
1640 1993
1640 2013
1640 2043
1640 2073
1640 2125
1640 2133
1640 2149
1641 1650
1641 1666
1641 1702
1641 1745
1641 1793
1641 1810
1641 1903
1641 1929
1641 1961
1641 2158
1641 2182
1642 1809
1642 1873
1642 1902
1642 1908
1642 1933
1642 1937
1642 1962
1642 1985
1642 2027
1642 2159
1642 2164
1644 1680
1644 1726
1644 1843
1644 1904
1644 1938
1644 1948
1644 1951
1644 1955
1644 1977
1644 2007
1644 2023
1644 2031
1644 2061
1644 2111
1644 2120
1644 2148
1644 2156
1644 2168
1644 2182
1644 2193
1645 1667
1645 1900
1645 1901
1645 1989
1645 2028
1645 2217
1646 1672
1646 1684
1646 1691
1646 1697
1646 1699
1646 1735
1646 1745
1646 1750
1646 1762
1646 1769
1646 1784
1646 1793
1646 1800
1646 1812
1646 1823
1646 1851
1646 1852
1646 1856
1646 1865
1646 1894
1646 1900
1646 1903
1646 1911
1646 1940
1646 1951
1646 1955
1646 1977
1646 1989
1646 1994
1646 2010
1646 2024
1646 2026
1646 2039
1646 2059
1646 2068
1646 2075
1646 2098
1646 2103
1646 2107
1646 2111
1646 2117
1646 2120
1646 2121
1646 2125
1646 2139
1646 2174
1646 2196
1646 2206
1646 2207
1646 2218
1646 2228
1647 1722
1647 1809
1647 2092
1648 1821
1648 1982
1648 2125
1648 2133
1648 2168
1649 1912
1649 1963
1649 2090
1649 2121
1649 2211
1650 1653
1650 1666
1650 1725
1650 1743
1650 1745
1650 1754
1650 1780
1650 1793
1650 1849
1650 1860
1650 1896
1650 1929
1650 1961
1650 2049
1650 2182
1650 2204
1650 2208
1651 1894
1651 2082
1651 2203
1652 1824
1652 1879
1652 1887
1652 1900
1653 1672
1653 1690
1653 1699
1653 1708
1653 1745
1653 1780
1653 1797
1653 1819
1653 1893
1653 1898
1653 1907
1653 1929
1653 1971
1653 1976
1653 2047
1653 2054
1653 2084
1653 2087
1653 2103
1653 2204
1653 2215
1654 1696
1654 1731
1654 1780
1654 1804
1654 1851
1654 1855
1654 1901
1654 1904
1654 1977
1654 1981
1654 2028
1654 2081
1654 2098
1654 2194
1654 2204
1654 2208
1654 2229
1655 1724
1655 1819
1655 1952
1655 2220
1656 1823
1656 2010
1656 2229
1658 1670
1658 1697
1658 1735
1658 1750
1658 1797
1658 1830
1658 1831
1658 1900
1658 1916
1658 1939
1658 1948
1658 1965
1658 1972
1658 1983
1658 1988
1658 2026
1658 2168
1658 2190
1659 1699
1659 1745
1659 1819
1659 1953
1659 1975
1659 2019
1659 2046
1659 2049
1659 2140
1659 2161
1659 2167
1659 2189
1659 2190
1660 1784
1660 2128
1660 2139
1661 1663
1661 1667
1661 1781
1661 1813
1661 1834
1661 1893
1661 1947
1661 2098
1661 2109
1661 2139
1661 2190
1662 1684
1662 1690
1662 1705
1662 1762
1662 1779
1662 1813
1662 1826
1662 1879
1662 1903
1662 1936
1662 1943
1662 2007
1662 2116
1662 2131
1662 2135
1662 2150
1662 2152
1662 2174
1662 2188
1662 2221
1663 1667
1663 1680
1663 1715
1663 1735
1663 1813
1663 1819
1663 1855
1663 1862
1663 1912
1663 1921
1663 1963
1663 2024
1663 2045
1663 2064
1663 2109
1663 2111
1663 2119
1663 2150
1663 2223
1664 1694
1664 1702
1664 1754
1664 1760
1664 1768
1664 1771
1664 1782
1664 1810
1664 1816
1664 1898
1664 1961
1664 1970
1664 2089
1664 2127
1664 2129
1664 2210
1664 2221
1665 1689
1665 1698
1665 1710
1665 1868
1665 2075
1665 2101
1665 2108
1665 2161
1665 2165
1665 2184
1666 1702
1666 1717
1666 1725
1666 1745
1666 1751
1666 1810
1666 1849
1666 1860
1666 1878
1666 1918
1666 1925
1666 1929
1666 2054
1666 2145
1666 2148
1666 2174
1666 2204
1667 1676
1667 1680
1667 1690
1667 1699
1667 1713
1667 1714
1667 1717
1667 1725
1667 1733
1667 1743
1667 1745
1667 1747
1667 1754
1667 1760
1667 1779
1667 1813
1667 1815
1667 1819
1667 1854
1667 1862
1667 1875
1667 1896
1667 1900
1667 1907
1667 1916
1667 1918
1667 1921
1667 1923
1667 1928
1667 1947
1667 1952
1667 1964
1667 1976
1667 1977
1667 1994
1667 1997
1667 2001
1667 2007
1667 2026
1667 2028
1667 2037
1667 2038
1667 2039
1667 2045
1667 2046
1667 2053
1667 2062
1667 2071
1667 2075
1667 2100
1667 2132
1667 2136
1667 2140
1667 2148
1667 2150
1667 2158
1667 2161
1667 2171
1667 2204
1667 2226
1667 2232
1668 1682
1668 1734
1668 1795
1668 1970
1668 1994
1668 2008
1668 2029
1668 2053
1668 2062
1668 2092
1668 2122
1668 2138
1668 2149
1668 2164
1669 1675
1669 1677
1669 1726
1669 1750
1669 1784
1669 1813
1669 1820
1669 1841
1669 1849
1669 1854
1669 1861
1669 1867
1669 1935
1669 1936
1669 1948
1669 1974
1669 1981
1669 1985
1669 2007
1669 2054
1669 2064
1669 2101
1669 2107
1669 2131
1669 2181
1670 1696
1670 1714
1670 1750
1670 1776
1670 1797
1670 1804
1670 1805
1670 1811
1670 1819
1670 1862
1670 1920
1670 1955
1670 1972
1670 1988
1670 1994
1670 2007
1670 2028
1670 2050
1670 2064
1670 2120
1670 2181
1670 2204
1670 2208
1670 2215
1670 2221
1671 1685
1671 1758
1671 1803
1671 1806
1671 1830
1671 1875
1671 1899
1671 1972
1671 2010
1671 2011
1671 2039
1671 2136
1671 2181
1671 2202
1671 2227
1671 2228
1672 1698
1672 1699
1672 1700
1672 1702
1672 1751
1672 1822
1672 1907
1672 1914
1672 1921
1672 1929
1672 1932
1672 1975
1672 2049
1672 2158
1673 1732
1673 1738
1673 1805
1673 1870
1673 1931
1673 1986
1673 2035
1673 2044
1673 2073
1673 2227
1673 2228
1674 1725
1674 1726
1674 1776
1674 1777
1674 1829
1674 1867
1674 1880
1674 1940
1674 2098
1674 2113
1674 2125
1674 2181
1675 1726
1675 1841
1675 1904
1675 1938
1675 1949
1675 1972
1675 2104
1675 2117
1675 2131
1675 2150
1675 2162
1675 2188
1676 1698
1676 1702
1676 1708
1676 1713
1676 1753
1676 1806
1676 1816
1676 1837
1676 1874
1676 1951
1676 1983
1676 2028
1676 2049
1676 2089
1676 2194
1676 2199
1677 1784
1677 1818
1677 1830
1677 1854
1677 1859
1677 1867
1677 1880
1677 1885
1677 1915
1677 1935
1677 1936
1677 1948
1677 1949
1677 1997
1677 2011
1677 2014
1677 2049
1677 2072
1677 2148
1677 2163
1677 2164
1677 2174
1677 2190
1678 1720
1678 1748
1678 1788
1678 1866
1678 1933
1678 1954
1678 1957
1678 2066
1678 2082
1678 2203
1679 1709
1679 1731
1679 1743
1679 1749
1679 1754
1679 1901
1679 1927
1679 1993
1679 1996
1679 1997
1679 1999
1679 2005
1679 2016
1679 2049
1679 2084
1679 2141
1679 2168
1680 1733
1680 1756
1680 1794
1680 1812
1680 1843
1680 1934
1680 1963
1680 1976
1680 1993
1680 2026
1680 2050
1680 2053
1680 2081
1680 2109
1680 2113
1680 2120
1680 2136
1680 2182
1680 2194
1680 2209
1680 2232
1682 1794
1682 1818
1682 1894
1682 1899
1682 1957
1682 2007
1682 2016
1682 2086
1682 2125
1682 2227
1683 2017
1683 2040
1683 2207
1684 1726
1684 1762
1684 1805
1684 1911
1684 1943
1684 1994
1684 2010
1684 2024
1684 2116
1684 2131
1684 2188
1685 1724
1685 1734
1685 1758
1685 1794
1685 1805
1685 1864
1685 1894
1685 1970
1685 1994
1685 2047
1685 2138
1685 2149
1685 2197
1685 2228
1686 1793
1687 1709
1687 1713
1687 1747
1687 1781
1687 1844
1687 1875
1687 1900
1687 1929
1687 1932
1687 1993
1687 2103
1687 2121
1687 2124
1687 2165
1687 2174
1687 2189
1687 2206
1688 1699
1688 1717
1688 1724
1688 1745
1688 1804
1688 1807
1688 1823
1688 1831
1688 1916
1688 1978
1688 2228
1689 1782
1689 1837
1689 1882
1689 1897
1689 1900
1689 1921
1689 1924
1689 2075
1689 2117
1690 1699
1690 1702
1690 1717
1690 1725
1690 1767
1690 1896
1690 1907
1690 1964
1690 1965
1690 1972
1690 2011
1690 2038
1690 2045
1690 2054
1690 2150
1690 2156
1690 2168
1690 2174
1690 2182
1690 2188
1690 2202
1691 1717
1691 1749
1691 1785
1691 1826
1691 2049
1692 1788
1692 1798
1694 1717
1694 1718
1694 1724
1694 1816
1694 1824
1694 1874
1694 2010
1694 2033
1694 2103
1695 1704
1695 2046
1696 1713
1696 1717
1696 1778
1696 1780
1696 1792
1696 1797
1696 1828
1696 1830
1696 1851
1696 1868
1696 1896
1696 1898
1696 1903
1696 1920
1696 1933
1696 1964
1696 1988
1696 2023
1696 2028
1696 2035
1696 2050
1696 2127
1696 2133
1696 2164
1696 2174
1696 2194
1696 2203
1696 2204
1696 2220
1697 1726
1697 1750
1697 1784
1697 1808
1697 1939
1697 2193
1698 1717
1698 1759
1698 1805
1698 1823
1698 1843
1698 1928
1698 1942
1698 1949
1698 1976
1698 2026
1698 2039
1698 2049
1698 2092
1698 2108
1698 2158
1698 2180
1698 2188
1699 1701
1699 1702
1699 1717
1699 1733
1699 1739
1699 1745
1699 1746
1699 1749
1699 1750
1699 1759
1699 1779
1699 1780
1699 1781
1699 1785
1699 1815
1699 1818
1699 1819
1699 1820
1699 1855
1699 1865
1699 1878
1699 1886
1699 1889
1699 1890
1699 1893
1699 1894
1699 1898
1699 1903
1699 1904
1699 1905
1699 1907
1699 1916
1699 1925
1699 1929
1699 1933
1699 1935
1699 1939
1699 1951
1699 1963
1699 1971
1699 1972
1699 1976
1699 1989
1699 1993
1699 1994
1699 1997
1699 1999
1699 2010
1699 2026
1699 2039
1699 2043
1699 2049
1699 2061
1699 2062
1699 2075
1699 2084
1699 2093
1699 2099
1699 2100
1699 2110
1699 2118
1699 2132
1699 2145
1699 2154
1699 2156
1699 2158
1699 2165
1699 2171
1699 2174
1699 2181
1699 2193
1699 2202
1699 2204
1699 2208
1699 2226
1699 2228
1699 2231
1700 1710
1700 1711
1700 1745
1700 1781
1700 1800
1700 1843
1700 2090
1700 2139
1700 2189
1700 2226
1701 1717
1701 1724
1701 1735
1701 1756
1701 1804
1701 1875
1701 1920
1701 1993
1701 2091
1701 2119
1701 2223
1702 1713
1702 1714
1702 1717
1702 1718
1702 1719
1702 1725
1702 1754
1702 1760
1702 1778
1702 1780
1702 1792
1702 1797
1702 1799
1702 1810
1702 1819
1702 1849
1702 1874
1702 1877
1702 1878
1702 1896
1702 1898
1702 1907
1702 1942
1702 1950
1702 1961
1702 1963
1702 1964
1702 1970
1702 1997
1702 2028
1702 2045
1702 2049
1702 2081
1702 2089
1702 2091
1702 2118
1702 2125
1702 2127
1702 2148
1702 2150
1702 2174
1702 2182
1702 2194
1702 2196
1702 2204
1702 2226
1703 1985
1703 2010
1703 2017
1703 2160
1704 1710
1704 1739
1704 1775
1704 1881
1704 1924
1704 2046
1704 2190
1704 2222
1705 1808
1705 1813
1705 1843
1705 1947
1705 2072
1705 2101
1705 2117
1705 2131
1705 2233
1706 1775
1706 1835
1706 1843
1706 1855
1706 1984
1706 2214
1707 1771
1707 1812
1707 1943
1707 1977
1707 2024
1707 2036
1707 2092
1707 2199
1708 1745
1708 1844
1708 1890
1708 1892
1708 1898
1708 1916
1708 1918
1708 1929
1708 1953
1708 1971
1708 2045
1708 2118
1709 1721
1709 1900
1709 1932
1709 1996
1710 1721
1710 1752
1710 1819
1710 1875
1710 1912
1710 1914
1710 1989
1710 1993
1710 2046
1710 2139
1710 2223
1711 1800
1711 1893
1711 2117
1711 2151
1711 2189
1711 2226
1712 1726
1712 1784
1712 1820
1712 1861
1712 1894
1712 1930
1712 1938
1712 1948
1712 1974
1713 1724
1713 1731
1713 1739
1713 1745
1713 1747
1713 1757
1713 1759
1713 1778
1713 1781
1713 1793
1713 1797
1713 1799
1713 1804
1713 1819
1713 1827
1713 1831
1713 1855
1713 1869
1713 1875
1713 1888
1713 1892
1713 1897
1713 1903
1713 1905
1713 1963
1713 1969
1713 1976
1713 1977
1713 1987
1713 1993
1713 2011
1713 2022
1713 2033
1713 2041
1713 2049
1713 2061
1713 2075
1713 2079
1713 2098
1713 2112
1713 2119
1713 2121
1713 2136
1713 2148
1713 2150
1713 2158
1713 2171
1713 2173
1713 2174
1713 2181
1713 2206
1713 2208
1713 2209
1713 2210
1713 2223
1713 2226
1713 2228
1713 2232
1714 1804
1714 1831
1714 1872
1714 1876
1714 1880
1714 1901
1714 1955
1714 1983
1714 2007
1714 2049
1714 2068
1714 2098
1714 2131
1714 2158
1714 2208
1714 2209
1714 2226
1714 2232
1716 1755
1716 1804
1716 1830
1716 1857
1716 1867
1716 1903
1716 1972
1716 1982
1716 1997
1716 2007
1716 2054
1716 2075
1716 2087
1716 2098
1716 2108
1716 2116
1716 2145
1716 2181
1716 2227
1717 1738
1717 1745
1717 1793
1717 1794
1717 1799
1717 1814
1717 1819
1717 1824
1717 1832
1717 1849
1717 1851
1717 1855
1717 1860
1717 1875
1717 1898
1717 1900
1717 1903
1717 1921
1717 1929
1717 1942
1717 1953
1717 1971
1717 1987
1717 1999
1717 2005
1717 2028
1717 2033
1717 2045
1717 2046
1717 2073
1717 2081
1717 2103
1717 2121
1717 2132
1717 2145
1717 2173
1717 2190
1717 2196
1717 2199
1717 2204
1717 2208
1717 2217
1718 1912
1718 1918
1718 1970
1718 2121
1718 2158
1719 1918
1719 1923
1719 1928
1719 1953
1719 2108
1719 2132
1719 2216
1719 2221
1719 2233
1720 1804
1720 1873
1720 1904
1720 2030
1720 2130
1720 2157
1720 2192
1721 1783
1721 1785
1721 1789
1721 1793
1721 1807
1721 1819
1721 1826
1721 1831
1721 1840
1721 1844
1721 1852
1721 1856
1721 1884
1721 1899
1721 1903
1721 1904
1721 1920
1721 1952
1721 2091
1721 2118
1721 2168
1722 1723
1722 1770
1722 1839
1722 1902
1722 2030
1722 2159
1722 2160
1723 2030
1724 1745
1724 1785
1724 1807
1724 1840
1724 1851
1724 1900
1724 1903
1724 1920
1724 1944
1724 1950
1724 1999
1724 2005
1724 2021
1724 2039
1724 2091
1724 2099
1724 2100
1724 2121
1724 2190
1724 2196
1724 2220
1725 1743
1725 1767
1725 1776
1725 1819
1725 1844
1725 1849
1725 1896
1725 1907
1725 1918
1725 1928
1725 1942
1725 1948
1725 1964
1725 1977
1725 2037
1725 2068
1725 2125
1725 2131
1725 2132
1725 2135
1725 2148
1725 2168
1726 1771
1726 1779
1726 1784
1726 1808
1726 1813
1726 1820
1726 1841
1726 1865
1726 1930
1726 1935
1726 1943
1726 1948
1726 1965
1726 1981
1726 2034
1726 2054
1726 2064
1726 2101
1726 2113
1726 2127
1726 2131
1726 2150
1726 2188
1726 2221
1727 1751
1727 2012
1727 2026
1727 2046
1727 2196
1728 1871
1728 1975
1729 1762
1729 1787
1729 1934
1729 2150
1729 2157
1729 2164
1729 2203
1730 1854
1730 1900
1730 1907
1730 1955
1730 1981
1730 2049
1730 2054
1730 2142
1730 2148
1730 2164
1730 2174
1731 1754
1731 1944
1731 2075
1731 2122
1731 2145
1731 2165
1732 1744
1733 1799
1733 1815
1733 1835
1733 1875
1733 1906
1733 1969
1733 1993
1733 2041
1733 2049
1733 2062
1733 2080
1733 2095
1733 2102
1733 2173
1733 2174
1733 2184
1733 2214
1734 1764
1734 1769
1734 1794
1734 1806
1734 1823
1734 1831
1734 1899
1734 1903
1734 1970
1734 1994
1734 2039
1734 2086
1734 2133
1734 2138
1734 2149
1734 2199
1734 2228
1735 1757
1735 1847
1735 1852
1735 1906
1735 1997
1735 2008
1735 2026
1735 2041
1735 2119
1735 2145
1735 2163
1735 2168
1737 1767
1737 1807
1737 1848
1737 1869
1737 1905
1737 1955
1737 1973
1737 2045
1737 2047
1737 2075
1737 2099
1737 2136
1737 2149
1737 2156
1737 2170
1737 2185
1737 2202
1738 1758
1738 1831
1738 1849
1738 1860
1738 1911
1738 1935
1738 1967
1738 1986
1738 2010
1738 2035
1738 2043
1738 2086
1738 2149
1738 2168
1738 2199
1738 2229
1739 1745
1739 1793
1739 1799
1739 1802
1739 1804
1739 1813
1739 1814
1739 1819
1739 1855
1739 1916
1739 1929
1739 1976
1739 2028
1739 2033
1739 2037
1739 2039
1739 2046
1739 2053
1739 2073
1739 2075
1739 2081
1739 2120
1739 2136
1739 2145
1739 2184
1739 2209
1739 2220
1739 2226
1739 2232
1740 2075
1742 1846
1742 1962
1742 2027
1742 2060
1742 2183
1743 1784
1743 1849
1743 1896
1743 1907
1743 1929
1743 2043
1743 2049
1743 2064
1743 2131
1743 2150
1743 2158
1743 2208
1743 2221
1744 1756
1744 1759
1744 1763
1744 1769
1744 1771
1744 1794
1744 1806
1744 1814
1744 1823
1744 1838
1744 1874
1744 1884
1744 1899
1744 1934
1744 1967
1744 1970
1744 2016
1744 2043
1744 2070
1744 2092
1745 1810
1745 1819
1745 1844
1745 1918
1745 1929
1745 1971
1745 1995
1745 2026
1745 2033
1745 2061
1745 2081
1745 2084
1745 2103
1745 2145
1745 2161
1745 2165
1745 2190
1746 1766
1746 1770
1746 1845
1746 1998
1746 2159
1746 2183
1746 2213
1747 1921
1747 2080
1747 2174
1748 1828
1748 1845
1748 1866
1748 1910
1748 2000
1748 2027
1748 2082
1749 1824
1749 1875
1749 1922
1749 1993
1749 2049
1749 2214
1750 1784
1750 1808
1750 1820
1750 1844
1750 1861
1750 1896
1750 1900
1750 1915
1750 1935
1750 1948
1750 2026
1750 2101
1750 2111
1750 2174
1751 1835
1751 1890
1751 1907
1751 1921
1751 1928
1751 1976
1751 1987
1751 2137
1752 1881
1752 1912
1753 1898
1753 1929
1753 1953
1753 2019
1753 2103
1753 2145
1754 1757
1754 1810
1754 1907
1754 1920
1754 1929
1754 1970
1754 1981
1754 2045
1754 2122
1754 2194
1755 1784
1755 1815
1755 1841
1755 1867
1755 1938
1755 1948
1755 1955
1755 2108
1756 1773
1756 1789
1756 1875
1756 1887
1756 1912
1756 2091
1756 2184
1757 1852
1757 1878
1757 1901
1757 2039
1757 2043
1757 2053
1757 2091
1757 2099
1757 2118
1757 2122
1757 2145
1757 2231
1758 1803
1758 1886
1758 2157
1758 2164
1759 1773
1759 1799
1759 1823
1759 1826
1759 1833
1759 1900
1759 1922
1759 2033
1759 2231
1760 1768
1760 1816
1760 1819
1760 1881
1760 1976
1760 1993
1760 2184
1761 1873
1761 1958
1761 2200
1762 1771
1762 1812
1762 1813
1762 1841
1762 1883
1762 1911
1762 1943
1762 1974
1762 1977
1762 2150
1762 2152
1762 2188
1762 2200
1763 1801
1763 1823
1763 1838
1763 1863
1763 1865
1763 1904
1763 1919
1763 1978
1763 2016
1763 2129
1763 2138
1763 2149
1763 2154
1763 2187
1763 2207
1763 2208
1764 1884
1765 1843
1765 1881
1765 2012
1765 2108
1765 2233
1766 1828
1766 1839
1766 1998
1766 2094
1766 2105
1767 1795
1767 1807
1767 1838
1767 1886
1767 1911
1767 1955
1767 1970
1767 2011
1767 2021
1767 2047
1767 2089
1767 2136
1767 2149
1767 2158
1767 2171
1767 2174
1767 2181
1768 1816
1768 1843
1768 1844
1768 1856
1768 1874
1768 1879
1768 1887
1768 2049
1768 2099
1768 2220
1768 2228
1769 1864
1769 1986
1769 2125
1769 2138
1769 2228
1770 1839
1770 1873
1770 1926
1770 1985
1770 1991
1770 2004
1770 2066
1770 2074
1770 2096
1770 2130
1770 2207
1771 1791
1771 1795
1771 1796
1771 1805
1771 1806
1771 1814
1771 1838
1771 1883
1771 1894
1771 1931
1771 1939
1771 1943
1771 1950
1771 1967
1771 1977
1771 1994
1771 2008
1771 2016
1771 2035
1771 2089
1771 2150
1771 2164
1771 2218
1771 2221
1771 2227
1772 1957
1773 1800
1773 1887
1773 1912
1773 1969
1773 2090
1773 2139
1773 2190
1773 2195
1773 2211
1774 1793
1775 1875
1775 1912
1775 2214
1776 1778
1776 1779
1776 1792
1776 1830
1776 1857
1776 1896
1776 1903
1776 1940
1776 1972
1776 1977
1776 2011
1776 2034
1776 2064
1776 2068
1776 2131
1776 2174
1776 2181
1777 1779
1777 1857
1777 2125
1777 2164
1777 2165
1777 2181
1778 1830
1778 1851
1778 1900
1778 1996
1778 2023
1778 2028
1778 2054
1778 2098
1778 2112
1778 2122
1778 2148
1778 2175
1778 2189
1778 2194
1778 2217
1779 1792
1779 1808
1779 1813
1779 1829
1779 1830
1779 1841
1779 1854
1779 1867
1779 1868
1779 1916
1779 1923
1779 1977
1779 1983
1779 1993
1779 1997
1779 2034
1779 2038
1779 2042
1779 2054
1779 2101
1779 2113
1779 2117
1779 2119
1779 2120
1779 2131
1779 2135
1779 2150
1780 1797
1780 1804
1780 1851
1780 1898
1780 1916
1780 2023
1780 2039
1780 2049
1780 2127
1780 2142
1780 2191
1780 2206
1780 2217
1780 2228
1781 1799
1781 1823
1781 1844
1781 1875
1781 1940
1781 1989
1781 2080
1781 2098
1781 2103
1781 2111
1781 2121
1781 2168
1781 2174
1781 2189
1781 2190
1782 1837
1782 1881
1782 1897
1782 2052
1782 2139
1782 2194
1783 1826
1783 1848
1783 1900
1783 2069
1783 2209
1784 1808
1784 1820
1784 1852
1784 1868
1784 1915
1784 1930
1784 1938
1784 1943
1784 1948
1784 1949
1784 1955
1784 2007
1784 2075
1784 2080
1784 2158
1784 2169
1784 2215
1784 2221
1785 1903
1785 1999
1785 2039
1785 2206
1785 2228
1787 1809
1787 1962
1787 1985
1787 2155
1787 2169
1788 1846
1788 1933
1788 1957
1788 1985
1788 2027
1788 2036
1788 2213
1789 1834
1791 1883
1791 2174
1791 2221
1792 1794
1792 1797
1792 1815
1792 1819
1792 1822
1792 1856
1792 1896
1792 1916
1792 1940
1792 1963
1792 1989
1792 2007
1792 2025
1792 2038
1792 2045
1792 2064
1792 2107
1792 2112
1792 2121
1792 2204
1792 2217
1793 1804
1793 1810
1793 1900
1793 1907
1793 1927
1793 1945
1793 1961
1793 2033
1793 2089
1793 2148
1793 2204
1794 1806
1794 1823
1794 1831
1794 1899
1794 1934
1794 1951
1794 1965
1794 1970
1794 2055
1794 2086
1794 2118
1794 2138
1794 2142
1794 2149
1794 2154
1794 2187
1794 2199
1794 2228
1795 1820
1795 1865
1795 1883
1795 1886
1795 1899
1795 1911
1795 1967
1795 1994
1795 2086
1795 2133
1795 2149
1796 1801
1796 1804
1796 1805
1796 1823
1796 1870
1796 1931
1796 1935
1796 1951
1796 1967
1796 1997
1796 2079
1796 2093
1796 2164
1796 2188
1796 2206
1796 2228
1797 1799
1797 1822
1797 1876
1797 1903
1797 1904
1797 1955
1797 1964
1797 1972
1797 1989
1797 2023
1797 2028
1797 2050
1797 2081
1797 2103
1797 2127
1797 2148
1797 2194
1797 2206
1797 2217
1798 1991
1799 1804
1799 1819
1799 1855
1799 1856
1799 1875
1799 1878
1799 1881
1799 1900
1799 1903
1799 1918
1799 1929
1799 1955
1799 2038
1799 2119
1799 2139
1799 2145
1799 2173
1799 2181
1799 2184
1799 2189
1799 2196
1799 2206
1799 2209
1799 2219
1800 1843
1800 1881
1800 2012
1800 2049
1800 2090
1800 2139
1800 2190
1800 2211
1800 2214
1801 1838
1801 1863
1801 2010
1801 2016
1801 2055
1801 2070
1801 2133
1801 2187
1801 2207
1802 1814
1802 1900
1802 2112
1803 1886
1803 1899
1803 1965
1803 1981
1803 2044
1803 2133
1803 2154
1803 2227
1804 1814
1804 1826
1804 1830
1804 1839
1804 1851
1804 1855
1804 1866
1804 1876
1804 1892
1804 1900
1804 1903
1804 1904
1804 1905
1804 1907
1804 1920
1804 1932
1804 1940
1804 1956
1804 1964
1804 1970
1804 1972
1804 1997
1804 2001
1804 2011
1804 2018
1804 2028
1804 2033
1804 2045
1804 2065
1804 2066
1804 2068
1804 2078
1804 2081
1804 2084
1804 2091
1804 2093
1804 2098
1804 2107
1804 2127
1804 2139
1804 2145
1804 2174
1804 2175
1804 2177
1804 2184
1804 2194
1804 2204
1804 2206
1804 2217
1804 2220
1804 2221
1804 2228
1805 1806
1805 1854
1805 1886
1805 1931
1805 1935
1805 1974
1805 1986
1805 2031
1805 2047
1805 2054
1805 2076
1805 2086
1805 2092
1805 2188
1805 2202
1805 2228
1806 1814
1806 1823
1806 1860
1806 1899
1806 1951
1806 1967
1806 2035
1806 2039
1806 2043
1806 2070
1806 2086
1806 2129
1806 2149
1806 2154
1806 2227
1806 2228
1807 1831
1807 1848
1807 1905
1807 1920
1807 2018
1807 2045
1807 2099
1807 2121
1807 2136
1807 2149
1807 2165
1807 2171
1807 2185
1807 2190
1808 1938
1808 1947
1808 1948
1808 2034
1808 2042
1808 2053
1808 2101
1808 2117
1808 2223
1809 1902
1809 2069
1809 2094
1810 1903
1810 1961
1810 2158
1810 2164
1811 2221
1812 1821
1812 1823
1812 1829
1812 1911
1812 1951
1812 1962
1812 1963
1812 1997
1812 2027
1812 2031
1812 2035
1812 2096
1812 2120
1812 2125
1812 2157
1812 2164
1812 2182
1812 2197
1813 1819
1813 1847
1813 1862
1813 1867
1813 1916
1813 1963
1813 1972
1813 2024
1813 2053
1813 2064
1813 2075
1813 2109
1813 2131
1813 2150
1813 2161
1813 2164
1813 2174
1813 2188
1814 1934
1814 1940
1814 1967
1814 1970
1814 2011
1814 2028
1814 2031
1814 2049
1814 2070
1814 2092
1814 2149
1814 2154
1814 2197
1815 1819
1815 1835
1815 1855
1815 1859
1815 1906
1815 1912
1815 1916
1815 1922
1815 1976
1815 1987
1815 2011
1815 2145
1815 2184
1815 2193
1815 2214
1816 1844
1816 1874
1816 1887
1816 1963
1816 2033
1816 2052
1816 2193
1816 2194
1816 2210
1816 2226
1818 1854
1818 1947
1818 1988
1818 2108
1818 2143
1818 2162
1818 2216
1819 1834
1819 1844
1819 1855
1819 1856
1819 1875
1819 1876
1819 1881
1819 1896
1819 1903
1819 1907
1819 1916
1819 1929
1819 1938
1819 1963
1819 1978
1819 1987
1819 1989
1819 1993
1819 2033
1819 2038
1819 2049
1819 2053
1819 2062
1819 2068
1819 2075
1819 2108
1819 2109
1819 2112
1819 2119
1819 2135
1819 2145
1819 2168
1819 2171
1819 2209
1819 2223
1819 2232
1820 1861
1820 1883
1820 1930
1820 1938
1820 1948
1820 1983
1820 1993
1820 2016
1820 2035
1820 2075
1820 2188
1820 2196
1820 2207
1820 2228
1821 1962
1821 2031
1821 2137
1822 1831
1822 1852
1822 1896
1822 1989
1822 1994
1822 2168
1822 2207
1823 1831
1823 1832
1823 1844
1823 1849
1823 1851
1823 1855
1823 1865
1823 1898
1823 1904
1823 1911
1823 1940
1823 1951
1823 1970
1823 1989
1823 1994
1823 2023
1823 2043
1823 2086
1823 2092
1823 2104
1823 2125
1823 2138
1823 2139
1823 2144
1823 2154
1823 2188
1823 2207
1823 2212
1823 2217
1823 2228
1823 2229
1824 1869
1824 1879
1824 1912
1824 2028
1824 2162
1825 1828
1825 2030
1825 2114
1826 1875
1826 1900
1826 1903
1826 1904
1826 1914
1826 1920
1826 1922
1826 1955
1826 1993
1826 2021
1826 2039
1826 2167
1826 2193
1826 2204
1826 2208
1827 1840
1827 1855
1827 1922
1827 2080
1827 2091
1827 2145
1827 2193
1827 2214
1828 1842
1828 1866
1828 1868
1828 1873
1828 1954
1828 2000
1828 2009
1828 2048
1828 2060
1828 2066
1828 2068
1828 2069
1828 2097
1828 2105
1828 2130
1828 2200
1829 1843
1829 1884
1829 1962
1829 1963
1829 1977
1829 1983
1829 1997
1829 2014
1829 2018
1829 2050
1829 2061
1829 2081
1829 2096
1829 2100
1829 2113
1829 2132
1829 2151
1829 2163
1829 2168
1829 2182
1829 2183
1829 2184
1830 1857
1830 1915
1830 1940
1830 1972
1830 1988
1830 2054
1830 2064
1830 2098
1830 2145
1830 2174
1831 1840
1831 1875
1831 1900
1831 1903
1831 1904
1831 1907
1831 1920
1831 1929
1831 1940
1831 1955
1831 1970
1831 1977
1831 1989
1831 1994
1831 2006
1831 2025
1831 2080
1831 2121
1831 2138
1831 2139
1831 2149
1831 2168
1831 2174
1831 2184
1831 2204
1831 2206
1831 2227
1831 2228
1832 2103
1832 2154
1832 2204
1833 1837
1833 1887
1833 1969
1833 2090
1833 2139
1833 2184
1834 1840
1834 1847
1834 2016
1834 2018
1834 2165
1834 2189
1834 2230
1835 1843
1835 1857
1835 2223
1836 1852
1836 2090
1836 2117
1836 2139
1836 2189
1836 2211
1836 2226
1836 2230
1836 2233
1837 1897
1837 1971
1837 2052
1837 2080
1837 2090
1838 1911
1838 1989
1838 2016
1838 2086
1838 2133
1838 2156
1838 2187
1838 2199
1838 2207
1839 1846
1839 1933
1839 1945
1839 1959
1839 2028
1839 2030
1839 2060
1839 2065
1839 2160
1839 2178
1839 2213
1840 1900
1840 1944
1840 2028
1840 2091
1840 2121
1840 2190
1841 1854
1841 1857
1841 1880
1841 1930
1841 1935
1841 1936
1841 1940
1841 1948
1841 1967
1841 2007
1841 2054
1841 2096
1841 2104
1841 2111
1841 2116
1841 2148
1841 2162
1841 2174
1841 2206
1842 2065
1843 1857
1843 1867
1843 1897
1843 1921
1843 1923
1843 1963
1843 2020
1843 2054
1843 2101
1843 2108
1843 2116
1843 2120
1843 2135
1843 2139
1843 2161
1843 2163
1843 2168
1843 2193
1843 2220
1843 2233
1844 1874
1844 1881
1844 1890
1844 1892
1844 1898
1844 1903
1844 1911
1844 1918
1844 1929
1844 1989
1844 2001
1844 2019
1844 2021
1844 2112
1844 2118
1844 2139
1844 2148
1844 2158
1844 2163
1844 2168
1844 2184
1845 1925
1845 2009
1845 2105
1845 2114
1846 1925
1846 1926
1846 1937
1846 2027
1846 2030
1846 2060
1846 2065
1846 2094
1846 2098
1846 2134
1847 1940
1847 1947
1847 2109
1847 2131
1847 2150
1848 1869
1848 1905
1848 2107
1848 2148
1848 2149
1849 1903
1849 1918
1849 1942
1849 1955
1849 1972
1849 2037
1849 2084
1849 2132
1849 2158
1849 2174
1849 2204
1850 1902
1850 1925
1850 2017
1851 1904
1851 1918
1851 1925
1851 1940
1851 2028
1851 2139
1851 2208
1851 2217
1851 2220
1852 1854
1852 1900
1852 1948
1852 1983
1852 1989
1852 2024
1852 2103
1852 2191
1853 1945
1853 2094
1853 2184
1853 2234
1854 1857
1854 1867
1854 1885
1854 1915
1854 1923
1854 1928
1854 1935
1854 1948
1854 1949
1854 1972
1854 1982
1854 1988
1854 2013
1854 2054
1854 2064
1854 2075
1854 2088
1854 2111
1854 2116
1854 2131
1854 2132
1854 2162
1854 2174
1854 2215
1854 2233
1855 1890
1855 1900
1855 1906
1855 1921
1855 1922
1855 1929
1855 1940
1855 1969
1855 1993
1855 2011
1855 2041
1855 2049
1855 2053
1855 2062
1855 2091
1855 2103
1855 2121
1855 2139
1855 2140
1855 2145
1855 2148
1855 2165
1855 2173
1855 2174
1855 2184
1855 2190
1855 2206
1855 2214
1855 2228
1856 1893
1856 1989
1856 2080
1856 2208
1857 1871
1857 1914
1857 1997
1857 2054
1857 2117
1859 1905
1859 1976
1859 2163
1859 2193
1860 1863
1860 1865
1860 1890
1860 1929
1860 1935
1860 1970
1860 1989
1860 2016
1860 2033
1860 2056
1860 2121
1860 2132
1860 2138
1860 2229
1861 1867
1861 1880
1861 1915
1861 1930
1861 1938
1861 1948
1861 1974
1861 2087
1861 2148
1861 2188
1862 2038
1862 2064
1862 2121
1863 1931
1863 2010
1863 2070
1863 2092
1863 2149
1863 2228
1864 2033
1864 2056
1864 2086
1864 2133
1864 2138
1864 2149
1864 2199
1864 2228
1865 1911
1865 1918
1865 1929
1865 1934
1865 1957
1865 1970
1865 1974
1865 1994
1865 2016
1865 2049
1865 2133
1865 2138
1865 2149
1865 2158
1865 2199
1865 2207
1865 2228
1866 1925
1866 1926
1866 1985
1866 2009
1866 2030
1866 2065
1866 2066
1866 2094
1866 2097
1866 2114
1866 2130
1866 2134
1866 2200
1866 2213
1867 1880
1867 1896
1867 1900
1867 1939
1867 1982
1867 1997
1867 2011
1867 2026
1867 2034
1867 2054
1867 2116
1867 2121
1867 2181
1867 2188
1867 2206
1868 1916
1868 1955
1868 1988
1868 2035
1868 2232
1869 1879
1869 1955
1869 2005
1869 2028
1869 2171
1869 2185
1869 2196
1870 1931
1870 1935
1870 1951
1870 1986
1870 2076
1870 2149
1870 2228
1871 1997
1872 1888
1872 1972
1872 1977
1872 2038
1872 2043
1872 2045
1872 2119
1872 2135
1872 2173
1872 2190
1872 2209
1872 2226
1872 2232
1873 1926
1873 2105
1873 2186
1873 2207
1874 1944
1874 2089
1874 2167
1875 1887
1875 1893
1875 1903
1875 1912
1875 1916
1875 1921
1875 1922
1875 1929
1875 1932
1875 1993
1875 2001
1875 2049
1875 2064
1875 2092
1875 2119
1875 2121
1875 2145
1875 2149
1875 2168
1875 2184
1875 2223
1876 1900
1876 1935
1876 1955
1876 2028
1876 2039
1876 2045
1876 2148
1876 2174
1876 2180
1877 2033
1877 2091
1877 2196
1878 1900
1878 1916
1878 1918
1878 1953
1878 1976
1878 1997
1878 2049
1878 2148
1878 2158
1879 1900
1879 1903
1879 1950
1879 1956
1879 1998
1879 2002
1879 2021
1879 2034
1879 2039
1879 2180
1879 2210
1880 1885
1880 1915
1880 1949
1880 1957
1880 2131
1880 2148
1880 2174
1881 1912
1881 1914
1881 1921
1881 1963
1881 2052
1881 2139
1881 2211
1881 2214
1881 2226
1881 2230
1882 2190
1883 1931
1883 1936
1883 1943
1883 1977
1883 2188
1883 2200
1883 2216
1883 2218
1883 2221
1884 1940
1885 1949
1886 1935
1886 1951
1886 1957
1886 1965
1886 2010
1886 2045
1886 2047
1886 2076
1886 2136
1886 2149
1886 2154
1886 2164
1886 2165
1886 2228
1887 1918
1887 1969
1887 2028
1887 2033
1887 2091
1887 2100
1887 2121
1887 2139
1887 2167
1887 2168
1887 2190
1887 2206
1888 1906
1888 1922
1888 2061
1888 2119
1888 2184
1889 1940
1890 1914
1890 1918
1890 1994
1890 2019
1891 1977
1892 1900
1892 1906
1892 1932
1892 1944
1892 1969
1892 2062
1892 2091
1892 2231
1893 1905
1893 1993
1893 2052
1893 2080
1893 2109
1893 2185
1893 2189
1893 2209
1894 1935
1894 1957
1894 1967
1894 1970
1894 1972
1894 1974
1894 1977
1894 1994
1894 2007
1894 2043
1894 2096
1894 2149
1894 2164
1894 2197
1894 2228
1895 1900
1895 1918
1896 1916
1896 1928
1896 1940
1896 1965
1896 1989
1896 2024
1896 2038
1896 2053
1896 2068
1896 2111
1896 2119
1896 2120
1896 2155
1896 2158
1896 2186
1896 2188
1896 2204
1897 2052
1897 2139
1897 2173
1897 2214
1897 2226
1898 1901
1898 1904
1898 1907
1898 1918
1898 1929
1898 1951
1898 1964
1898 1997
1898 2007
1898 2028
1898 2047
1898 2118
1898 2148
1898 2158
1898 2217
1898 2220
1898 2227
1898 2229
1899 1929
1899 1994
1899 2010
1899 2043
1899 2056
1899 2138
1899 2149
1899 2154
1899 2187
1899 2213
1899 2227
1899 2228
1900 1903
1900 1906
1900 1916
1900 1932
1900 1940
1900 2001
1900 2021
1900 2026
1900 2028
1900 2033
1900 2041
1900 2045
1900 2049
1900 2062
1900 2075
1900 2081
1900 2090
1900 2091
1900 2099
1900 2101
1900 2102
1900 2121
1900 2148
1900 2158
1900 2165
1900 2168
1900 2177
1900 2185
1900 2189
1900 2193
1900 2210
1900 2226
1901 1944
1901 1996
1901 2018
1901 2028
1901 2084
1901 2122
1901 2125
1901 2141
1901 2217
1901 2220
1901 2231
1902 1926
1902 1933
1902 1959
1902 1994
1902 2048
1902 2065
1902 2069
1902 2070
1902 2093
1903 1904
1903 1907
1903 1955
1903 1967
1903 1971
1903 1977
1903 1997
1903 2001
1903 2025
1903 2049
1903 2121
1903 2142
1903 2144
1903 2145
1903 2158
1903 2184
1903 2196
1903 2199
1903 2204
1903 2207
1903 2217
1903 2220
1903 2228
1904 1905
1904 1932
1904 1940
1904 1977
1904 1981
1904 1986
1904 2010
1904 2023
1904 2026
1904 2050
1904 2065
1904 2091
1904 2093
1904 2104
1904 2122
1904 2131
1904 2142
1904 2150
1904 2175
1904 2182
1904 2206
1904 2220
1905 1911
1905 1955
1905 1970
1905 1972
1905 1981
1905 2023
1905 2093
1905 2099
1905 2127
1905 2136
1905 2156
1905 2199
1905 2202
1905 2206
1906 1932
1906 1944
1906 2041
1906 2091
1906 2100
1906 2119
1906 2145
1906 2163
1906 2184
1906 2190
1906 2193
1906 2231
1907 1920
1907 1964
1907 1972
1907 1977
1907 1989
1907 2038
1907 2045
1907 2107
1907 2114
1907 2118
1907 2131
1907 2148
1907 2158
1907 2220
1908 1910
1908 1962
1908 2027
1908 2096
1908 2130
1908 2157
1908 2159
1908 2183
1910 1962
1910 2096
1910 2203
1911 1943
1911 1967
1911 1976
1911 1994
1911 2045
1911 2059
1911 2125
1911 2149
1911 2150
1911 2156
1911 2165
1911 2187
1911 2202
1912 1921
1912 1993
1912 2046
1912 2148
1912 2167
1912 2214
1914 1929
1914 2174
1914 2184
1914 2193
1915 1949
1915 1966
1915 1972
1915 2072
1915 2163
1916 1918
1916 1940
1916 1971
1916 1981
1916 1989
1916 2014
1916 2024
1916 2038
1916 2041
1916 2043
1916 2054
1916 2061
1916 2121
1916 2168
1916 2184
1918 1928
1918 1929
1918 1942
1918 1953
1918 1994
1918 2026
1918 2033
1918 2039
1918 2100
1918 2118
1918 2137
1918 2145
1918 2158
1918 2174
1918 2204
1919 2029
1919 2047
1919 2073
1919 2154
1919 2197
1920 1955
1920 1971
1920 2028
1920 2084
1920 2091
1920 2093
1920 2141
1920 2145
1920 2148
1920 2184
1920 2206
1920 2221
1920 2223
1921 1928
1921 1971
1921 2042
1921 2062
1921 2101
1921 2108
1921 2117
1921 2139
1921 2164
1921 2184
1921 2185
1921 2214
1921 2223
1921 2233
1922 1942
1922 2041
1922 2049
1922 2062
1922 2099
1922 2119
1922 2122
1922 2142
1922 2145
1922 2173
1922 2184
1922 2219
1922 2223
1922 2231
1923 2101
1923 2117
1925 1978
1925 2017
1925 2094
1925 2160
1925 2213
1926 1962
1926 1985
1926 2065
1926 2105
1926 2130
1927 1996
1927 2148
1927 2173
1927 2194
1927 2208
1928 1942
1928 1953
1928 1957
1928 1964
1928 2019
1928 2024
1928 2049
1928 2108
1928 2116
1928 2118
1928 2158
1929 1953
1929 1964
1929 1971
1929 1972
1929 1976
1929 1993
1929 2045
1929 2046
1929 2047
1929 2081
1929 2121
1929 2140
1929 2145
1929 2148
1929 2174
1929 2190
1929 2204
1929 2214
1930 1935
1930 1948
1930 1966
1930 1974
1930 2116
1930 2188
1930 2215
1931 1940
1931 1951
1931 2013
1931 2092
1931 2093
1931 2105
1931 2148
1931 2206
1931 2227
1931 2228
1932 2028
1932 2041
1932 2173
1932 2231
1933 1960
1933 1962
1933 1991
1934 1970
1934 1977
1934 1986
1934 1994
1934 2029
1934 2056
1934 2073
1934 2114
1934 2154
1934 2207
1934 2227
1934 2228
1935 1938
1935 1957
1935 1970
1935 1972
1935 2011
1935 2029
1935 2076
1935 2093
1935 2096
1935 2125
1935 2144
1935 2149
1935 2150
1935 2161
1935 2164
1935 2174
1935 2188
1935 2215
1935 2227
1935 2228
1936 1938
1936 1983
1936 2054
1936 2087
1936 2104
1936 2143
1936 2174
1936 2188
1936 2216
1936 2233
1937 2073
1937 2089
1938 1943
1938 1955
1938 1974
1938 2014
1938 2104
1938 2113
1938 2148
1938 2150
1939 2014
1939 2061
1939 2113
1939 2221
1940 1950
1940 1955
1940 1972
1940 1983
1940 1988
1940 1989
1940 2007
1940 2024
1940 2028
1940 2098
1940 2107
1940 2111
1940 2121
1940 2149
1940 2168
1940 2226
1941 1962
1942 1953
1942 1957
1942 1964
1942 1977
1942 1978
1942 2049
1942 2118
1942 2132
1942 2148
1942 2158
1942 2174
1942 2184
1943 1967
1943 2007
1943 2050
1943 2068
1943 2096
1943 2120
1943 2125
1943 2131
1943 2144
1943 2149
1943 2158
1943 2188
1943 2227
1943 2228
1944 1996
1944 2005
1944 2021
1944 2041
1944 2061
1944 2145
1944 2206
1944 2231
1945 2027
1945 2048
1945 2200
1947 1988
1947 2088
1947 2116
1947 2131
1947 2162
1947 2164
1947 2188
1948 2007
1948 2054
1948 2088
1948 2107
1948 2111
1948 2117
1948 2162
1948 2174
1948 2182
1948 2206
1949 1988
1949 2174
1950 2033
1950 2102
1950 2165
1950 2196
1951 1963
1951 1977
1951 2013
1951 2125
1951 2149
1951 2164
1951 2182
1951 2227
1951 2228
1952 1977
1952 2053
1952 2082
1952 2120
1953 1975
1953 2001
1953 2037
1953 2049
1953 2074
1953 2118
1953 2132
1954 2200
1955 1956
1955 1983
1955 1999
1955 2011
1955 2023
1955 2028
1955 2054
1955 2068
1955 2084
1955 2093
1955 2098
1955 2099
1955 2107
1955 2110
1955 2127
1955 2139
1955 2148
1955 2158
1955 2161
1955 2165
1955 2181
1955 2184
1955 2206
1955 2221
1955 2226
1955 2232
1956 2045
1956 2054
1956 2099
1956 2149
1956 2174
1957 1970
1957 1972
1957 1974
1957 2007
1957 2150
1957 2158
1957 2164
1957 2188
1957 2228
1958 1960
1958 2105
1958 2207
1959 2028
1959 2030
1959 2069
1959 2160
1960 2000
1960 2035
1960 2082
1960 2105
1960 2106
1960 2159
1960 2203
1961 1999
1962 1977
1962 1985
1962 2027
1962 2031
1962 2096
1962 2106
1962 2120
1962 2155
1962 2159
1962 2176
1962 2182
1962 2183
1962 2213
1962 2234
1963 1977
1963 2028
1963 2049
1963 2052
1963 2053
1963 2089
1963 2100
1963 2101
1963 2111
1963 2121
1963 2168
1963 2182
1963 2194
1963 2226
1964 2001
1964 2028
1964 2033
1964 2037
1964 2049
1964 2081
1964 2098
1964 2107
1964 2132
1964 2150
1964 2174
1964 2204
1964 2208
1964 2220
1965 2086
1965 2181
1965 2188
1965 2206
1966 1974
1966 1982
1966 2072
1966 2162
1967 1977
1967 1986
1967 2043
1967 2070
1967 2150
1967 2182
1967 2197
1967 2199
1967 2218
1967 2227
1969 2062
1969 2119
1969 2121
1969 2163
1969 2223
1970 1980
1970 1993
1970 1999
1970 2016
1970 2028
1970 2056
1970 2086
1970 2138
1970 2154
1970 2158
1970 2199
1970 2217
1971 1976
1971 2034
1971 2071
1971 2084
1972 1983
1972 2001
1972 2011
1972 2026
1972 2054
1972 2064
1972 2104
1972 2116
1972 2148
1972 2150
1972 2156
1972 2158
1972 2174
1972 2221
1972 2228
1974 2088
1974 2116
1974 2144
1974 2164
1974 2215
1974 2227
1976 1987
1976 1997
1976 2026
1976 2034
1976 2061
1976 2071
1976 2084
1976 2103
1976 2136
1976 2145
1976 2165
1976 2214
1977 1982
1977 1994
1977 2025
1977 2031
1977 2068
1977 2104
1977 2132
1977 2149
1977 2158
1977 2168
1977 2174
1977 2182
1977 2194
1977 2228
1978 2098
1978 2217
1980 1994
1980 2149
1980 2228
1981 2023
1981 2142
1981 2191
1981 2206
1982 2116
1982 2215
1982 2233
1983 2007
1983 2011
1983 2033
1983 2093
1983 2107
1983 2110
1983 2116
1983 2120
1983 2150
1983 2181
1983 2206
1984 1997
1984 2190
1985 1991
1985 2200
1985 2213
1986 1993
1986 2164
1986 2197
1986 2227
1987 1993
1987 1997
1987 2163
1988 2037
1988 2108
1988 2168
1988 2216
1988 2220
1988 2233
1989 1994
1989 2045
1989 2068
1989 2089
1989 2112
1989 2121
1989 2168
1991 2213
1992 2069
1993 2005
1993 2033
1993 2038
1993 2049
1993 2062
1993 2075
1993 2091
1993 2119
1993 2145
1993 2165
1993 2167
1993 2171
1993 2177
1993 2184
1993 2190
1993 2196
1993 2219
1993 2232
1994 1997
1994 2013
1994 2016
1994 2031
1994 2081
1994 2086
1994 2133
1994 2150
1994 2154
1994 2218
1994 2221
1994 2228
1996 1999
1997 2001
1997 2006
1997 2016
1997 2025
1997 2031
1997 2033
1997 2049
1997 2054
1997 2076
1997 2098
1997 2140
1997 2148
1997 2168
1997 2174
1997 2189
1998 2105
1998 2234
1999 2039
1999 2049
1999 2076
1999 2133
1999 2141
1999 2148
1999 2149
1999 2207
1999 2208
1999 2217
2000 2082
2000 2096
2000 2105
2001 2049
2001 2098
2001 2118
2001 2132
2001 2148
2001 2158
2001 2174
2001 2184
2001 2208
2003 2145
2003 2173
2004 2048
2004 2065
2004 2105
2005 2173
2007 2011
2007 2054
2007 2098
2007 2107
2007 2127
2007 2131
2007 2150
2007 2158
2007 2168
2008 2062
2008 2196
2008 2207
2009 2065
2009 2069
2009 2130
2010 2016
2010 2023
2010 2043
2010 2044
2010 2045
2010 2047
2010 2059
2010 2073
2010 2086
2010 2099
2010 2118
2010 2129
2010 2133
2010 2136
2010 2154
2010 2184
2010 2187
2010 2197
2010 2199
2010 2228
2011 2029
2011 2034
2011 2039
2011 2045
2011 2064
2011 2098
2011 2107
2011 2148
2011 2156
2011 2174
2011 2181
2011 2184
2011 2202
2011 2206
2011 2220
2011 2227
2012 2081
2012 2101
2012 2108
2013 2093
2013 2174
2013 2228
2014 2034
2014 2081
2015 2058
2016 2028
2016 2086
2016 2098
2016 2129
2016 2146
2016 2189
2016 2220
2016 2227
2017 2069
2018 2039
2018 2189
2018 2190
2018 2204
2020 2120
2021 2112
2021 2196
2023 2107
2023 2127
2023 2204
2023 2206
2024 2026
2024 2053
2024 2111
2024 2116
2025 2054
2025 2142
2025 2204
2026 2081
2026 2116
2026 2120
2027 2031
2027 2040
2027 2048
2027 2060
2027 2065
2027 2069
2027 2183
2027 2203
2027 2224
2027 2228
2028 2033
2028 2045
2028 2050
2028 2073
2028 2081
2028 2098
2028 2102
2028 2121
2028 2177
2028 2194
2028 2196
2028 2206
2028 2217
2028 2220
2029 2053
2029 2062
2029 2073
2029 2108
2029 2138
2029 2144
2030 2036
2031 2096
2031 2120
2031 2125
2031 2183
2031 2194
2031 2228
2033 2039
2033 2046
2033 2049
2033 2075
2033 2081
2033 2100
2033 2109
2033 2118
2033 2138
2033 2145
2033 2174
2033 2194
2033 2196
2033 2204
2033 2214
2033 2222
2034 2113
2034 2188
2035 2092
2035 2227
2035 2228
2037 2049
2037 2132
2037 2164
2037 2190
2038 2068
2038 2108
2038 2168
2038 2171
2038 2190
2038 2209
2038 2232
2039 2049
2039 2099
2039 2103
2039 2118
2039 2148
2039 2149
2039 2180
2039 2190
2039 2193
2039 2196
2039 2204
2039 2228
2039 2231
2040 2069
2040 2105
2041 2061
2041 2062
2041 2078
2041 2091
2041 2099
2041 2145
2041 2165
2041 2206
2041 2231
2042 2075
2042 2101
2042 2139
2042 2165
2042 2214
2043 2070
2043 2086
2043 2149
2043 2227
2043 2228
2044 2056
2044 2070
2044 2197
2045 2053
2045 2068
2045 2086
2045 2100
2045 2102
2045 2120
2045 2133
2045 2136
2045 2149
2045 2152
2045 2164
2045 2168
2045 2171
2045 2174
2045 2182
2045 2204
2045 2206
2045 2208
2045 2220
2045 2227
2045 2228
2046 2184
2046 2190
2047 2076
2047 2129
2047 2136
2047 2149
2047 2227
2047 2228
2048 2097
2048 2105
2048 2130
2048 2155
2048 2169
2049 2054
2049 2081
2049 2086
2049 2099
2049 2111
2049 2118
2049 2132
2049 2141
2049 2145
2049 2148
2049 2153
2049 2171
2049 2174
2049 2180
2049 2204
2049 2208
2049 2228
2049 2232
2050 2182
2050 2221
2052 2226
2053 2062
2053 2109
2053 2111
2053 2131
2053 2150
2053 2171
2053 2174
2053 2193
2054 2064
2054 2087
2054 2098
2054 2111
2054 2117
2054 2122
2054 2127
2054 2145
2054 2174
2054 2181
2054 2202
2054 2206
2054 2220
2055 2073
2055 2081
2055 2138
2056 2070
2056 2092
2056 2154
2056 2182
2056 2204
2056 2229
2057 2096
2058 2114
2059 2076
2059 2086
2060 2066
2060 2130
2061 2099
2061 2119
2061 2120
2061 2145
2061 2168
2061 2193
2061 2208
2061 2214
2062 2108
2062 2163
2062 2173
2062 2174
2062 2219
2064 2087
2064 2107
2064 2120
2064 2131
2064 2150
2064 2163
2064 2164
2064 2181
2064 2215
2065 2069
2065 2207
2065 2213
2066 2105
2066 2213
2068 2208
2069 2224
2070 2073
2070 2092
2070 2182
2070 2199
2070 2207
2072 2111
2072 2113
2072 2174
2073 2123
2073 2129
2073 2138
2073 2154
2073 2228
2074 2096
2075 2101
2075 2108
2075 2109
2075 2110
2075 2112
2075 2165
2075 2226
2075 2232
2076 2093
2076 2118
2076 2164
2076 2173
2076 2179
2076 2181
2076 2188
2076 2228
2078 2145
2078 2219
2079 2165
2080 2103
2080 2121
2080 2132
2080 2195
2080 2214
2081 2100
2081 2118
2081 2120
2081 2138
2081 2164
2081 2177
2081 2182
2081 2190
2081 2194
2081 2196
2081 2228
2084 2122
2084 2141
2086 2089
2086 2104
2086 2129
2086 2138
2086 2144
2086 2149
2086 2210
2086 2228
2087 2104
2087 2111
2087 2174
2088 2108
2088 2117
2089 2182
2089 2194
2089 2208
2090 2189
2090 2209
2090 2211
2090 2214
2090 2233
2091 2099
2091 2102
2091 2182
2091 2184
2091 2223
2092 2138
2092 2154
2092 2192
2092 2213
2093 2145
2093 2206
2093 2228
2094 2224
2096 2105
2096 2130
2096 2154
2096 2155
2096 2157
2096 2159
2096 2200
2097 2105
2097 2130
2097 2155
2097 2159
2097 2207
2097 2213
2098 2104
2098 2121
2098 2145
2098 2148
2098 2174
2098 2189
2098 2196
2098 2202
2099 2112
2099 2121
2099 2136
2099 2145
2099 2184
2099 2185
2099 2202
2099 2231
2100 2120
2100 2196
2100 2204
2100 2209
2100 2211
2100 2232
2101 2161
2102 2117
2102 2196
2102 2228
2103 2118
2103 2145
2103 2165
2103 2194
2103 2214
2103 2232
2104 2131
2105 2157
2105 2169
2105 2203
2106 2183
2107 2145
2107 2150
2107 2206
2108 2132
2108 2161
2108 2164
2109 2150
2109 2190
2111 2131
2111 2174
2111 2188
2111 2215
2112 2148
2112 2168
2112 2228
2113 2120
2113 2182
2116 2117
2116 2174
2116 2188
2116 2215
2117 2162
2117 2233
2118 2139
2118 2148
2118 2158
2118 2190
2118 2196
2119 2145
2119 2168
2119 2173
2119 2184
2119 2219
2119 2223
2120 2163
2120 2182
2120 2215
2121 2184
2121 2196
2121 2204
2121 2206
2121 2209
2121 2210
2121 2227
2122 2149
2122 2219
2122 2231
2125 2164
2125 2168
2125 2208
2125 2228
2126 2190
2126 2222
2127 2191
2127 2206
2127 2220
2129 2149
2129 2197
2129 2199
2129 2207
2131 2150
2131 2174
2131 2181
2131 2188
2131 2233
2132 2148
2132 2158
2132 2184
2133 2136
2133 2149
2133 2156
2133 2199
2133 2227
2133 2228
2134 2165
2134 2207
2135 2163
2136 2149
2136 2165
2136 2202
2137 2161
2138 2149
2138 2197
2139 2144
2139 2158
2139 2165
2139 2174
2139 2184
2139 2189
2139 2209
2139 2211
2139 2226
2139 2230
2140 2223
2142 2145
2142 2173
2143 2216
2143 2221
2145 2173
2145 2193
2145 2214
2145 2219
2145 2220
2145 2223
2146 2156
2146 2171
2146 2209
2148 2158
2148 2174
2148 2184
2148 2204
2148 2206
2148 2208
2149 2154
2149 2202
2149 2208
2149 2217
2149 2228
2150 2158
2150 2164
2150 2174
2150 2181
2150 2188
2150 2202
2150 2206
2150 2221
2152 2188
2154 2226
2154 2228
2155 2169
2155 2207
2156 2171
2156 2181
2156 2202
2156 2206
2157 2183
2158 2174
2158 2186
2158 2202
2158 2204
2159 2200
2159 2203
2159 2213
2163 2164
2163 2168
2163 2174
2164 2168
2164 2174
2164 2181
2164 2182
2164 2188
2164 2200
2165 2171
2165 2185
2165 2202
2165 2221
2167 2170
2167 2190
2168 2174
2168 2182
2168 2206
2168 2207
2168 2220
2168 2221
2169 2207
2171 2202
2171 2209
2171 2232
2173 2219
2173 2223
2174 2181
2174 2206
2174 2215
2174 2220
2174 2221
2174 2228
2174 2233
2175 2202
2175 2220
2180 2204
2181 2188
2182 2194
2182 2196
2182 2217
2184 2185
2184 2190
2184 2193
2184 2206
2184 2207
2184 2220
2185 2202
2186 2203
2187 2228
2188 2218
2189 2220
2189 2232
2190 2209
2190 2211
2190 2214
2190 2232
2193 2214
2194 2196
2194 2204
2194 2221
2196 2217
2196 2232
2197 2208
2197 2227
2197 2228
2200 2203
2202 2207
2202 2208
2202 2220
2202 2228
2204 2207
2204 2217
2204 2220
2204 2228
2206 2215
2206 2228
2206 2232
2207 2228
2208 2217
2208 2229
2209 2226
2209 2232
2216 2233
2217 2220
2217 2229
2218 2221
2218 2227
2219 2223
2219 2231
2226 2232
